      -----------------------------------------------------------      
     |                   =====================                   |     
     |                           x T B                           |     
     |                   =====================                   |     
     |                         S. Grimme                         |     
     |          Mulliken Center for Theoretical Chemistry        |     
     |                    University of Bonn                     |     
      -----------------------------------------------------------      

   * xtb version 6.6.1 (unknown) compiled by 'builduser@buildhost' on 2023-08-07

   xtb is free software: you can redistribute it and/or modify it under
   the terms of the GNU Lesser General Public License as published by
   the Free Software Foundation, either version 3 of the License, or
   (at your option) any later version.
   
   xtb is distributed in the hope that it will be useful,
   but WITHOUT ANY WARRANTY; without even the implied warranty of
   MERCHANTABILITY or FITNESS FOR A PARTICULAR PURPOSE.  See the
   GNU Lesser General Public License for more details.
   
   Cite this work as:
   * C. Bannwarth, E. Caldeweyher, S. Ehlert, A. Hansen, P. Pracht,
     J. Seibert, S. Spicher, S. Grimme, WIREs Comput. Mol. Sci., 2020, 11,
     e01493. DOI: 10.1002/wcms.1493
   
   for GFN2-xTB:
   * C. Bannwarth, S. Ehlert and S. Grimme., J. Chem. Theory Comput., 2019,
     15, 1652-1671. DOI: 10.1021/acs.jctc.8b01176
   for GFN1-xTB:
   * S. Grimme, C. Bannwarth, P. Shushkov, J. Chem. Theory Comput., 2017,
     13, 1989-2009. DOI: 10.1021/acs.jctc.7b00118
   for GFN0-xTB:
   * P. Pracht, E. Caldeweyher, S. Ehlert, S. Grimme, ChemRxiv, 2019, preprint.
     DOI: 10.26434/chemrxiv.8326202.v1
   for GFN-FF:
   * S. Spicher and S. Grimme, Angew. Chem. Int. Ed., 2020, 59, 15665-15673.
     DOI: 10.1002/anie.202004239
   
   for ALPB and GBSA implicit solvation:
   * S. Ehlert, M. Stahn, S. Spicher, S. Grimme, J. Chem. Theory Comput.,
     2021, 17, 4250-4261. DOI: 10.1021/acs.jctc.1c00471
   
   for DFT-D4:
   * E. Caldeweyher, C. Bannwarth and S. Grimme, J. Chem. Phys., 2017,
     147, 034112. DOI: 10.1063/1.4993215
   * E. Caldeweyher, S. Ehlert, A. Hansen, H. Neugebauer, S. Spicher,
     C. Bannwarth and S. Grimme, J. Chem. Phys., 2019, 150, 154122.
     DOI: 10.1063/1.5090222
   * E. Caldeweyher, J.-M. Mewes, S. Ehlert and S. Grimme, Phys. Chem. Chem. Phys.
     2020, 22, 8499-8512. DOI: 10.1039/D0CP00502A
   
   for sTDA-xTB:
   * S. Grimme and C. Bannwarth, J. Chem. Phys., 2016, 145, 054103.
     DOI: 10.1063/1.4959605
   
   in the mass-spec context:
   * V. Asgeirsson, C. Bauer and S. Grimme, Chem. Sci., 2017, 8, 4879.
     DOI: 10.1039/c7sc00601b
   * J. Koopman and S. Grimme, ACS Omega 2019, 4, 12, 15120-15133.
     DOI: 10.1021/acsomega.9b02011
   
   for metadynamics refer to:
   * S. Grimme, J. Chem. Theory Comput., 2019, 155, 2847-2862
     DOI: 10.1021/acs.jctc.9b00143
   
   for SPH calculations refer to:
   * S. Spicher and S. Grimme, J. Chem. Theory Comput., 2021, 17, 1701-1714
     DOI: 10.1021/acs.jctc.0c01306
   
   with help from (in alphabetical order)
   P. Atkinson, C. Bannwarth, F. Bohle, G. Brandenburg, E. Caldeweyher
   M. Checinski, S. Dohm, S. Ehlert, S. Ehrlich, I. Gerasimov, C. Hölzer
   A. Katbashev, J. Koopman, C. Lavigne, S. Lehtola, F. März, M. Müller,
   F. Musil, H. Neugebauer, J. Pisarek, C. Plett, P. Pracht, F. Pultar,
   J. Seibert, P. Shushkov, S. Spicher, M. Stahn, M. Steiner, T. Strunk,
   J. Stückrath, T. Rose, and J. Unsleber
   
 * started run on 2026/09/13 at 13:39:50.194     

           -------------------------------------------------
          |                Calculation Setup                |
           -------------------------------------------------

          program call               : xtb structure.xyz --gfn 1 --chrg -3 --uhf 1 --alpb water
          coordinate file            : structure.xyz
          omp threads                :                     8

   ID    Z sym.   atoms
    1    6 C      1, 2, 9, 10, 17, 18, 25, 26, 33, 34, 41-43, 45, 47, 65
    2   16 S      3, 11, 19, 27, 35, 60-63
    3    1 H      4-8, 12-16, 20-24, 28-32, 36-40, 48-55, 68
    4    7 N      44, 46
    5   26 Fe     56-59, 64
    6    8 O      66, 67

molecular fragmentation (1/2 indicates fragments):
11111111111111111111111111111111111111111111111111111111111111111112
# atoms in fragment 1/2:    67     1
 fragment masses (1/2) :      853.25        1.01
CMA distance (Bohr)    :  11.220
constraining FC (au)   :  0.0500

           -------------------------------------------------
          |                 G F N 1 - x T B                 |
           -------------------------------------------------

        Reference                      10.1021/acs.jctc.7b00118
      * Hamiltonian:
        H0-scaling (s, p, d)           1.850000    2.250000    2.000000
        zeta-weighting                 0.000000
      * Dispersion:
        s8                             2.400000
        a1                             0.630000
        a2                             5.000000
        s9                             0.000000
      * Repulsion:
        kExp                           1.500000
        rExp                           1.000000
      * Coulomb:
        alpha                          2.000000
        third order                    atomic
        anisotropic                    false
      * Halogen bond correction:
        rad-scale                      1.300000
        damping                        0.440000

      * Solvation model:               ALPB
        Solvent                        water
        Parameter file                 internal GFN1-xTB/ALPB
        Dielectric constant                8.0200E+01
        Reference state                gsolv [1 M gas/solution]
        Free energy shift                  4.2456E-03 Eh       2.6642E+00 kcal/mol
        Temperature                        2.9815E+02 K
        Density                            1.0000E+00 kg/L
        Solvent mass                       1.8000E+01 g/mol
        Interaction kernel             P16
        Born radius scaling (c1)           1.9452E+00
        Born radii integrator          GBOBC
        Born offset                        0.0000E+00 a0       0.0000E+00 AA
        H-bond correction              true
        Ion screening                  false
        Surface tension                    1.0000E-05 Eh       1.5569E+01 dyn/cm
        Grid points                               230 per atom

          ...................................................
          :                      SETUP                      :
          :.................................................:
          :  # basis functions                 288          :
          :  # atomic orbitals                 274          :
          :  # shells                          150          :
          :  # electrons                       217          :
          :  # halogen bonds                     0          :
          :  max. iterations                   250          :
          :  Hamiltonian                  GFN1-xTB          :
          :  restarted?                      false          :
          :  GBSA solvation                   true          :
          :  PC potential                    false          :
          :  electronic temp.          300.0000000     K    :
          :  accuracy                    1.0000000          :
          :  -> integral cutoff          0.2500000E+02      :
          :  -> integral neglect         0.1000000E-07      :
          :  -> SCF convergence          0.1000000E-05 Eh   :
          :  -> wf. convergence          0.2000000E-04 e    :
          :  Broyden damping             0.4000000          :
          ...................................................

 iter      E             dE          RMSdq      gap      omega  full diag
   1    -85.8849730 -0.858850E+02  0.156E+01    0.09       0.0  T
   2      2.7138086  0.885988E+02  0.299E+01    0.02       1.0  T
   3    -79.9746780 -0.826885E+02  0.176E+01    0.04       1.0  T
   4    -26.3234147  0.536513E+02  0.160E+01    0.04       1.0  T
   5    -46.1566296 -0.198332E+02  0.145E+01    0.74       1.0  T
   6    -45.2486052  0.908024E+00  0.134E+01    0.08       1.0  T
   7    -96.5794049 -0.513308E+02  0.940E+00    0.04       1.0  T
   8    -60.3968692  0.361825E+02  0.126E+01    0.14       1.0  T
   9    -72.8138000 -0.124169E+02  0.117E+01    0.09       1.0  T
  10    -61.8538367  0.109600E+02  0.126E+01    1.26       1.0  T
  11   -108.7258502 -0.468720E+02  0.607E+00    0.14       1.0  T
  12   -109.1270341 -0.401184E+00  0.590E+00    0.05       1.0  T
  13   -104.4099614  0.471707E+01  0.662E+00    0.03       1.0  T
  14   -109.2502686 -0.484031E+01  0.622E+00    0.05       1.0  T
  15   -105.8293212  0.342095E+01  0.680E+00    0.08       1.0  T
  16   -102.7529948  0.307633E+01  0.730E+00    0.20       1.0  T
  17   -105.6513559 -0.289836E+01  0.666E+00    0.14       1.0  T
  18    -95.0410604  0.106103E+02  0.869E+00    0.05       1.0  T
  19    -89.5114141  0.552965E+01  0.944E+00    0.03       1.0  T
  20    -94.9311825 -0.541977E+01  0.879E+00    0.09       1.0  T
  21    -99.0969549 -0.416577E+01  0.817E+00    0.07       1.0  T
  22   -109.2344856 -0.101375E+02  0.621E+00    0.12       1.0  T
  23   -106.6443416  0.259014E+01  0.681E+00    0.03       1.0  T
  24   -108.5227960 -0.187845E+01  0.630E+00    0.05       1.0  T
  25   -110.0217232 -0.149893E+01  0.588E+00    0.12       1.0  T
  26   -109.8681503  0.153573E+00  0.591E+00    0.13       1.0  T
  27   -108.8827912  0.985359E+00  0.605E+00    0.12       1.0  T
  28   -112.1040175 -0.322123E+01  0.495E+00    0.07       1.0  T
  29   -107.3880299  0.471599E+01  0.634E+00    0.11       1.0  T
  30   -107.5182285 -0.130199E+00  0.629E+00    0.11       1.0  T
  31   -105.4977421  0.202049E+01  0.643E+00    0.21       1.0  T
  32   -117.6372301 -0.121395E+02  0.164E+00    0.05       1.0  T
  33   -117.5213720  0.115858E+00  0.182E+00    0.04       1.0  T
  34   -117.8407047 -0.319333E+00  0.135E+00    0.03       1.0  T
  35   -118.1475667 -0.306862E+00  0.691E-01    0.08       1.0  T
  36   -117.5136293  0.633937E+00  0.163E+00    0.09       1.0  T
  37   -118.1229201 -0.609291E+00  0.660E-01    0.08       1.0  T
  38   -118.1462803 -0.233602E-01  0.591E-01    0.09       1.0  T
  39   -118.1212932  0.249871E-01  0.676E-01    0.06       1.0  T
  40   -118.1289896 -0.769638E-02  0.640E-01    0.06       1.0  T
  41   -118.1848795 -0.558900E-01  0.452E-01    0.07       1.0  T
  42   -118.2226714 -0.377919E-01  0.206E-01    0.08       1.0  T
  43   -118.2272232 -0.455184E-02  0.150E-01    0.08       1.0  T
  44   -118.2321535 -0.493029E-02  0.546E-02    0.08       1.0  T
  45   -118.2322480 -0.945000E-04  0.515E-02    0.08       1.0  T
  46   -118.2323973 -0.149309E-03  0.466E-02    0.08       1.0  T
  47   -118.2327763 -0.379009E-03  0.255E-02    0.08       1.0  T
  48   -118.2328943 -0.117924E-03  0.140E-02    0.08       1.0  T
  49   -118.2329267 -0.324623E-04  0.813E-03    0.08       1.5  T
  50   -118.2329417 -0.150258E-04  0.362E-03    0.08       3.4  T
  51   -118.2329431 -0.139122E-05  0.200E-03    0.08       6.1  T
  52   -118.2329441 -0.967695E-06  0.735E-04    0.08      16.5  T
  53   -118.2329441 -0.140493E-07  0.697E-04    0.08      17.4  T
  54   -118.2329442 -0.374804E-07  0.551E-04    0.08      22.0  T
  55   -118.2329442 -0.708052E-07  0.141E-04    0.08      85.9  T
  56   -118.2329442 -0.450412E-08  0.516E-05    0.08     234.9  T

   *** convergence criteria satisfied after 56 iterations ***

         #    Occupation            Energy/Eh            Energy/eV
      -------------------------------------------------------------
         1        2.0000           -0.8137951             -22.1445
       ...           ...                  ...                  ...
       103        2.0000           -0.2824160              -7.6849
       104        1.9998           -0.2804282              -7.6308
       105        1.9988           -0.2787463              -7.5851
       106        1.8930           -0.2743837              -7.4664
       107        1.8504           -0.2740300              -7.4567
       108        1.7079           -0.2732682              -7.4360
       109        1.3110           -0.2720264              -7.4022 (HOMO)
       110        0.2390           -0.2689870              -7.3195 (LUMO)
       111        0.0001           -0.2610414              -7.1033
       112        0.0000           -0.2567978              -6.9878
       113                         -0.2534764              -6.8974
       114                         -0.2507853              -6.8242
       ...                                ...                  ...
       274                         13.1611708             358.1337
      -------------------------------------------------------------
                  HL-Gap            0.0030394 Eh            0.0827 eV
             Fermi-level           -0.2712472 Eh           -7.3810 eV

 SCC (total)                   0 d,  0 h,  0 min,  6.706 sec
 SCC setup                      ...        0 min,  0.003 sec (  0.045%)
 Dispersion                     ...        0 min,  0.001 sec (  0.022%)
 classical contributions        ...        0 min,  0.000 sec (  0.003%)
 integral evaluation            ...        0 min,  0.027 sec (  0.404%)
 iterations                     ...        0 min,  6.494 sec ( 96.835%)
 molecular gradient             ...        0 min,  0.068 sec (  1.019%)
 printout                       ...        0 min,  0.112 sec (  1.672%)

         :::::::::::::::::::::::::::::::::::::::::::::::::::::
         ::                     SUMMARY                     ::
         :::::::::::::::::::::::::::::::::::::::::::::::::::::
         :: total energy            -117.389501989528 Eh    ::
         :: total w/o Gsasa/hb      -117.384007772869 Eh    ::
         :: gradient norm              0.075214014556 Eh/a0 ::
         :: HOMO-LUMO gap              0.082707072880 eV    ::
         ::.................................................::
         :: SCC energy              -118.232944229577 Eh    ::
         :: -> electrostatic           0.702118681566 Eh    ::
         :: -> Gsolv                  -0.398152296476 Eh    ::
         ::    -> Gelec               -0.392658079817 Eh    ::
         ::    -> Gsasa               -0.004985101831 Eh    ::
         ::    -> Ghb                 -0.004754721499 Eh    ::
         ::    -> Gshift               0.004245606671 Eh    ::
         :: repulsion energy           0.909083756137 Eh    ::
         :: dispersion energy         -0.065641516088 Eh    ::
         :: halogen bond corr.         0.000000000000 Eh    ::
         :: add. restraining           0.000000000000 Eh    ::
         :: total charge              -2.999999999498 e     ::
         :::::::::::::::::::::::::::::::::::::::::::::::::::::

           -------------------------------------------------
          |                Property Printout                |
           -------------------------------------------------

    * Orbital Energies and Occupations

         #    Occupation            Energy/Eh            Energy/eV
      -------------------------------------------------------------
         1        2.0000           -0.8137951             -22.1445
       ...           ...                  ...                  ...
        97        2.0000           -0.2909473              -7.9171
        98        2.0000           -0.2901424              -7.8952
        99        2.0000           -0.2887292              -7.8567
       100        2.0000           -0.2872597              -7.8167
       101        2.0000           -0.2849454              -7.7538
       102        2.0000           -0.2840519              -7.7294
       103        2.0000           -0.2824160              -7.6849
       104        1.9998           -0.2804282              -7.6308
       105        1.9988           -0.2787463              -7.5851
       106        1.8930           -0.2743837              -7.4664
       107        1.8504           -0.2740300              -7.4567
       108        1.7079           -0.2732682              -7.4360
       109        1.3110           -0.2720264              -7.4022 (HOMO)
       110        0.2390           -0.2689870              -7.3195 (LUMO)
       111        0.0001           -0.2610414              -7.1033
       112        0.0000           -0.2567978              -6.9878
       113                         -0.2534764              -6.8974
       114                         -0.2507853              -6.8242
       115                         -0.2462680              -6.7013
       116                         -0.2434925              -6.6258
       117                         -0.2306768              -6.2770
       118                         -0.2283138              -6.2127
       119                         -0.2253885              -6.1331
       120                         -0.1968957              -5.3578
       ...                                ...                  ...
       274                         13.1611708             358.1337
      -------------------------------------------------------------
                  HL-Gap            0.0030394 Eh            0.0827 eV
             Fermi-level           -0.2712472 Eh           -7.3810 eV

  Mulliken/CM5 charges         n(s)   n(p)   n(d)
     1C    -0.06906 -0.21734   1.006  3.063  0.000
     2C     0.01404 -0.07989   1.030  2.956  0.000
     3S    -0.25164 -0.33789   1.899  4.358 -0.006
     4H     0.00541  0.05604   0.995  0.000  0.000
     5H     0.01400  0.06663   0.986  0.000  0.000
     6H     0.00946  0.06147   0.991  0.000  0.000
     7H    -0.00882  0.04821   1.009  0.000  0.000
     8H    -0.01165  0.04362   1.012  0.000  0.000
     9C    -0.07410 -0.22205   1.006  3.068  0.000
    10C     0.02022 -0.07389   1.028  2.952  0.000
    11S    -0.26682 -0.35303   1.896  4.380 -0.010
    12H     0.00426  0.05485   0.996  0.000  0.000
    13H     0.00270  0.05496   0.997  0.000  0.000
    14H     0.00585  0.05817   0.994  0.000  0.000
    15H    -0.01635  0.03825   1.016  0.000  0.000
    16H    -0.00087  0.05383   1.001  0.000  0.000
    17C    -0.06926 -0.21696   1.006  3.063  0.000
    18C     0.02170 -0.07204   1.027  2.952  0.000
    19S    -0.27766 -0.35833   1.897  4.391 -0.011
    20H    -0.00145  0.04911   1.001  0.000  0.000
    21H     0.00009  0.05213   1.000  0.000  0.000
    22H     0.01016  0.06466   0.990  0.000  0.000
    23H    -0.02053  0.03454   1.021  0.000  0.000
    24H    -0.00845  0.04592   1.008  0.000  0.000
    25C    -0.07008 -0.21772   1.006  3.064  0.000
    26C     0.02367 -0.06996   1.026  2.950  0.000
    27S    -0.28413 -0.36424   1.897  4.397 -0.011
    28H     0.00052  0.05251   0.999  0.000  0.000
    29H    -0.00169  0.04883   1.002  0.000  0.000
    30H     0.01089  0.06569   0.989  0.000  0.000
    31H    -0.00872  0.04566   1.009  0.000  0.000
    32H    -0.01995  0.03519   1.020  0.000  0.000
    33C    -0.06740 -0.21561   1.005  3.062  0.000
    34C     0.03128 -0.06346   1.029  2.940  0.000
    35S    -0.13751 -0.26291   1.886  4.259 -0.008
    36H     0.01419  0.06798   0.986  0.000  0.000
    37H     0.00527  0.05769   0.995  0.000  0.000
    38H     0.00535  0.05602   0.995  0.000  0.000
    39H     0.00780  0.06307   0.992  0.000  0.000
    40H    -0.00580  0.04927   1.006  0.000  0.000
    41C    -0.06953 -0.21902   1.005  3.064  0.000
    42C    -0.04300 -0.14389   1.023  3.020  0.000
    43C     0.07152  0.12592   1.053  2.876  0.000
    44N    -0.35294 -0.69783   1.461  3.892  0.000
    45C     0.16672  0.19753   1.027  2.806  0.000
    46N    -0.34104 -0.61835   1.556  3.785  0.000
    47C     0.05966  0.08034   1.013  2.928  0.000
    48H     0.02339  0.07651   0.977  0.000  0.000
    49H     0.02314  0.07565   0.977  0.000  0.000
    50H     0.02061  0.07179   0.979  0.000  0.000
    51H     0.01864  0.07527   0.981  0.000  0.000
    52H     0.01670  0.07207   0.983  0.000  0.000
    53H     0.21053  0.40441   0.789  0.000  0.000
    54H    -0.01330  0.05895   1.013  0.000  0.000
    55H    -0.01223  0.05191   1.012  0.000  0.000
    56Fe   -0.02369  0.23868   0.157  0.948  6.918
    57Fe   -0.03069  0.30614   0.176  0.920  6.935
    58Fe   -0.02091  0.24998   0.164  0.964  6.892
    59Fe   -0.02323  0.24798   0.161  0.974  6.888
    60S    -0.08137 -0.31283   1.869  4.230 -0.018
    61S    -0.09922 -0.32711   1.866  4.252 -0.019
    62S     0.02525 -0.22999   1.857  4.133 -0.015
    63S     0.01798 -0.17312   1.866  4.117 -0.001
    64Fe   -0.01173  0.25368   0.135  0.931  6.946
    65C     0.61330  0.68983   0.974  2.412  0.000
    66O    -0.67657 -0.71369   1.750  4.927  0.000
    67O    -0.62294 -0.67292   1.742  4.881  0.000
    68H    -0.37998 -0.36686   1.380  0.000  0.000

Wiberg/Mayer (AO) data.
largest (>0.10) Wiberg bond orders for each atom

 ---------------------------------------------------------------------------
     #   Z sym  total        # sym  WBO       # sym  WBO       # sym  WBO
 ---------------------------------------------------------------------------
     1   6 C    3.993 --     2 C    1.018     6 H    0.988     4 H    0.985
                             5 H    0.982
     2   6 C    3.991 --     1 C    1.018     8 H    0.983     7 H    0.974
                             3 S    0.966
     3  16 S    2.085 --     2 C    0.966    57 Fe   0.942
     4   1 H    1.007 --     1 C    0.985
     5   1 H    1.019 --     1 C    0.982
     6   1 H    1.018 --     1 C    0.988
     7   1 H    1.022 --     2 C    0.974
     8   1 H    1.026 --     2 C    0.983
     9   6 C    3.992 --    10 C    1.019    13 H    0.988    14 H    0.988
                            12 H    0.985
    10   6 C    3.989 --     9 C    1.019    15 H    0.986    16 H    0.982
                            11 S    0.968
    11  16 S    2.083 --    10 C    0.968    56 Fe   0.826
    12   1 H    1.007 --     9 C    0.985
    13   1 H    1.022 --     9 C    0.988
    14   1 H    1.025 --     9 C    0.988
    15   1 H    1.024 --    10 C    0.986
    16   1 H    1.015 --    10 C    0.982
    17   6 C    3.989 --    18 C    1.018    21 H    0.989    20 H    0.985
                            22 H    0.973
    18   6 C    3.989 --    17 C    1.018    23 H    0.984    24 H    0.984
                            19 S    0.973
    19  16 S    2.054 --    18 C    0.973    58 Fe   0.791
    20   1 H    1.008 --    17 C    0.985
    21   1 H    1.021 --    17 C    0.989
    22   1 H    1.040 --    17 C    0.973
    23   1 H    1.025 --    18 C    0.984
    24   1 H    1.016 --    18 C    0.984
    25   6 C    3.988 --    26 C    1.018    28 H    0.989    29 H    0.985
                            30 H    0.972
    26   6 C    3.988 --    25 C    1.018    32 H    0.984    31 H    0.984
                            27 S    0.972
    27  16 S    2.041 --    26 C    0.972    59 Fe   0.783
    28   1 H    1.020 --    25 C    0.989
    29   1 H    1.008 --    25 C    0.985
    30   1 H    1.041 --    25 C    0.972
    31   1 H    1.016 --    26 C    0.984
    32   1 H    1.025 --    26 C    0.984
    33   6 C    3.993 --    34 C    1.022    37 H    0.988    38 H    0.984
                            36 H    0.981
    34   6 C    3.982 --    33 C    1.022    40 H    0.985    39 H    0.983
                            35 S    0.938
    35  16 S    2.366 --    34 C    0.938    64 Fe   0.699    57 Fe   0.488
    36   1 H    1.026 --    33 C    0.981
    37   1 H    1.019 --    33 C    0.988
    38   1 H    1.006 --    33 C    0.984
    39   1 H    1.011 --    34 C    0.983
    40   1 H    1.023 --    34 C    0.985
    41   6 C    3.997 --    42 C    0.999    50 H    0.988    49 H    0.987
                            48 H    0.986
    42   6 C    3.998 --    43 C    1.014    41 C    0.999    52 H    0.979
                            51 H    0.975
    43   6 C    3.930 --    47 C    1.598    44 N    1.119    42 C    1.014
    44   7 N    3.283 --    43 C    1.119    45 C    1.000    53 H    0.918
    45   6 C    3.839 --    46 N    1.224    44 N    1.000    54 H    0.950
                            57 Fe   0.523
    46   7 N    3.139 --    45 C    1.224    47 C    1.205    57 Fe   0.569
    47   6 C    3.966 --    43 C    1.598    46 N    1.205    55 H    0.974
    48   1 H    1.010 --    41 C    0.986
    49   1 H    1.013 --    41 C    0.987
    50   1 H    1.006 --    41 C    0.988
    51   1 H    1.008 --    42 C    0.975
    52   1 H    1.009 --    42 C    0.979
    53   1 H    0.966 --    44 N    0.918
Note: The following floating-point exceptions are signalling: IEEE_UNDERFLOW_FLAG IEEE_DENORMAL
normal termination of xtb
    54   1 H    1.029 --    45 C    0.950
    55   1 H    1.010 --    47 C    0.974
    56  26 Fe   5.165 --    61 S    0.840    11 S    0.826    59 Fe   0.697
                            58 Fe   0.687    62 S    0.649    63 S    0.562
                            64 Fe   0.401    57 Fe   0.206
    57  26 Fe   4.337 --     3 S    0.942    62 S    0.704    46 N    0.569
                            45 C    0.523    35 S    0.488    64 Fe   0.358
                            56 Fe   0.206    59 Fe   0.171
    58  26 Fe   5.327 --    61 S    0.838    60 S    0.792    19 S    0.791
                            56 Fe   0.687    59 Fe   0.661    63 S    0.655
                            64 Fe   0.637
    59  26 Fe   5.518 --    61 S    0.835    60 S    0.814    27 S    0.783
                            56 Fe   0.697    64 Fe   0.681    58 Fe   0.661
                            62 S    0.634    57 Fe   0.171
    60  16 S    2.697 --    64 Fe   0.864    59 Fe   0.814    58 Fe   0.792
    61  16 S    2.652 --    56 Fe   0.840    58 Fe   0.838    59 Fe   0.835
    62  16 S    2.775 --    57 Fe   0.704    64 Fe   0.661    56 Fe   0.649
                            59 Fe   0.634
    63  16 S    2.725 --    65 C    0.713    58 Fe   0.655    64 Fe   0.571
                            56 Fe   0.562
    64  26 Fe   5.294 --    60 S    0.864    35 S    0.699    59 Fe   0.681
                            62 S    0.661    58 Fe   0.637    63 S    0.571
                            56 Fe   0.401    57 Fe   0.358
    65   6 C    3.860 --    67 O    1.523    66 O    1.522    63 S    0.713
    66   8 O    1.821 --    65 C    1.522    67 O    0.176
    67   8 O    1.879 --    65 C    1.523    66 O    0.176
    68   1 H    0.198
 ---------------------------------------------------------------------------

Topologies differ in total number of bonds
Writing topology from bond orders to xtbtopo.mol

 dipole moment from electron density (au)
     X       Y       Z   
-303.5127 -65.1815-268.2570  total (Debye): 1042.830


           -------------------------------------------------
          | TOTAL ENERGY             -117.389501989528 Eh   |
          | GRADIENT NORM               0.075214014556 Eh/α |
          | HOMO-LUMO GAP               0.082707072880 eV   |
           -------------------------------------------------

------------------------------------------------------------------------
 * finished run on 2026/09/13 at 13:39:56.950     
------------------------------------------------------------------------
 total:
 * wall-time:     0 d,  0 h,  0 min,  6.756 sec
 *  cpu-time:     0 d,  0 h,  0 min,  7.699 sec
 * ratio c/w:     1.140 speedup
 SCF:
 * wall-time:     0 d,  0 h,  0 min,  6.708 sec
 *  cpu-time:     0 d,  0 h,  0 min,  7.404 sec
 * ratio c/w:     1.104 speedup

