      -----------------------------------------------------------      
     |                   =====================                   |     
     |                           x T B                           |     
     |                   =====================                   |     
     |                         S. Grimme                         |     
     |          Mulliken Center for Theoretical Chemistry        |     
     |                    University of Bonn                     |     
      -----------------------------------------------------------      

   * xtb version 6.6.1 (unknown) compiled by 'builduser@buildhost' on 2023-08-07

   xtb is free software: you can redistribute it and/or modify it under
   the terms of the GNU Lesser General Public License as published by
   the Free Software Foundation, either version 3 of the License, or
   (at your option) any later version.
   
   xtb is distributed in the hope that it will be useful,
   but WITHOUT ANY WARRANTY; without even the implied warranty of
   MERCHANTABILITY or FITNESS FOR A PARTICULAR PURPOSE.  See the
   GNU Lesser General Public License for more details.
   
   Cite this work as:
   * C. Bannwarth, E. Caldeweyher, S. Ehlert, A. Hansen, P. Pracht,
     J. Seibert, S. Spicher, S. Grimme, WIREs Comput. Mol. Sci., 2020, 11,
     e01493. DOI: 10.1002/wcms.1493
   
   for GFN2-xTB:
   * C. Bannwarth, S. Ehlert and S. Grimme., J. Chem. Theory Comput., 2019,
     15, 1652-1671. DOI: 10.1021/acs.jctc.8b01176
   for GFN1-xTB:
   * S. Grimme, C. Bannwarth, P. Shushkov, J. Chem. Theory Comput., 2017,
     13, 1989-2009. DOI: 10.1021/acs.jctc.7b00118
   for GFN0-xTB:
   * P. Pracht, E. Caldeweyher, S. Ehlert, S. Grimme, ChemRxiv, 2019, preprint.
     DOI: 10.26434/chemrxiv.8326202.v1
   for GFN-FF:
   * S. Spicher and S. Grimme, Angew. Chem. Int. Ed., 2020, 59, 15665-15673.
     DOI: 10.1002/anie.202004239
   
   for ALPB and GBSA implicit solvation:
   * S. Ehlert, M. Stahn, S. Spicher, S. Grimme, J. Chem. Theory Comput.,
     2021, 17, 4250-4261. DOI: 10.1021/acs.jctc.1c00471
   
   for DFT-D4:
   * E. Caldeweyher, C. Bannwarth and S. Grimme, J. Chem. Phys., 2017,
     147, 034112. DOI: 10.1063/1.4993215
   * E. Caldeweyher, S. Ehlert, A. Hansen, H. Neugebauer, S. Spicher,
     C. Bannwarth and S. Grimme, J. Chem. Phys., 2019, 150, 154122.
     DOI: 10.1063/1.5090222
   * E. Caldeweyher, J.-M. Mewes, S. Ehlert and S. Grimme, Phys. Chem. Chem. Phys.
     2020, 22, 8499-8512. DOI: 10.1039/D0CP00502A
   
   for sTDA-xTB:
   * S. Grimme and C. Bannwarth, J. Chem. Phys., 2016, 145, 054103.
     DOI: 10.1063/1.4959605
   
   in the mass-spec context:
   * V. Asgeirsson, C. Bauer and S. Grimme, Chem. Sci., 2017, 8, 4879.
     DOI: 10.1039/c7sc00601b
   * J. Koopman and S. Grimme, ACS Omega 2019, 4, 12, 15120-15133.
     DOI: 10.1021/acsomega.9b02011
   
   for metadynamics refer to:
   * S. Grimme, J. Chem. Theory Comput., 2019, 155, 2847-2862
     DOI: 10.1021/acs.jctc.9b00143
   
   for SPH calculations refer to:
   * S. Spicher and S. Grimme, J. Chem. Theory Comput., 2021, 17, 1701-1714
     DOI: 10.1021/acs.jctc.0c01306
   
   with help from (in alphabetical order)
   P. Atkinson, C. Bannwarth, F. Bohle, G. Brandenburg, E. Caldeweyher
   M. Checinski, S. Dohm, S. Ehlert, S. Ehrlich, I. Gerasimov, C. Hölzer
   A. Katbashev, J. Koopman, C. Lavigne, S. Lehtola, F. März, M. Müller,
   F. Musil, H. Neugebauer, J. Pisarek, C. Plett, P. Pracht, F. Pultar,
   J. Seibert, P. Shushkov, S. Spicher, M. Stahn, M. Steiner, T. Strunk,
   J. Stückrath, T. Rose, and J. Unsleber
   
 * started run on 2026/09/13 at 13:44:03.809     

           -------------------------------------------------
          |                Calculation Setup                |
           -------------------------------------------------

          program call               : xtb start.xyz --gfn 1 --chrg -3 --uhf 1 --alpb water --opt loose
          coordinate file            : start.xyz
          omp threads                :                     8

   ID    Z sym.   atoms
    1    6 C      1, 2, 9, 10, 17, 18, 25, 26, 33, 34, 41-43, 45, 47, 65
    2   16 S      3, 11, 19, 27, 35, 60-63
    3    1 H      4-8, 12-16, 20-24, 28-32, 36-40, 48-55, 68
    4    7 N      44, 46
    5   26 Fe     56-59, 64
    6    8 O      66, 67

           -------------------------------------------------
          |                 G F N 1 - x T B                 |
           -------------------------------------------------

        Reference                      10.1021/acs.jctc.7b00118
      * Hamiltonian:
        H0-scaling (s, p, d)           1.850000    2.250000    2.000000
        zeta-weighting                 0.000000
      * Dispersion:
        s8                             2.400000
        a1                             0.630000
        a2                             5.000000
        s9                             0.000000
      * Repulsion:
        kExp                           1.500000
        rExp                           1.000000
      * Coulomb:
        alpha                          2.000000
        third order                    atomic
        anisotropic                    false
      * Halogen bond correction:
        rad-scale                      1.300000
        damping                        0.440000

      * Solvation model:               ALPB
        Solvent                        water
        Parameter file                 internal GFN1-xTB/ALPB
        Dielectric constant                8.0200E+01
        Reference state                gsolv [1 M gas/solution]
        Free energy shift                  4.2456E-03 Eh       2.6642E+00 kcal/mol
        Temperature                        2.9815E+02 K
        Density                            1.0000E+00 kg/L
        Solvent mass                       1.8000E+01 g/mol
        Interaction kernel             P16
        Born radius scaling (c1)           1.9452E+00
        Born radii integrator          GBOBC
        Born offset                        0.0000E+00 a0       0.0000E+00 AA
        H-bond correction              true
        Ion screening                  false
        Surface tension                    1.0000E-05 Eh       1.5569E+01 dyn/cm
        Grid points                               230 per atom

          ...................................................
          :                      SETUP                      :
          :.................................................:
          :  # basis functions                 288          :
          :  # atomic orbitals                 274          :
          :  # shells                          150          :
          :  # electrons                       217          :
          :  # halogen bonds                     0          :
          :  max. iterations                   250          :
          :  Hamiltonian                  GFN1-xTB          :
          :  restarted?                      false          :
          :  GBSA solvation                   true          :
          :  PC potential                    false          :
          :  electronic temp.          300.0000000     K    :
          :  accuracy                    1.0000000          :
          :  -> integral cutoff          0.2500000E+02      :
          :  -> integral neglect         0.1000000E-07      :
          :  -> SCF convergence          0.1000000E-05 Eh   :
          :  -> wf. convergence          0.2000000E-04 e    :
          :  Broyden damping             0.4000000          :
          ...................................................

 iter      E             dE          RMSdq      gap      omega  full diag
   1    -86.2225692 -0.862226E+02  0.154E+01    0.24       0.0  T
   2     55.9484823  0.142171E+03  0.280E+01    0.03       1.0  T
   3    -60.8776856 -0.116826E+03  0.180E+01    0.13       1.0  T
   4    -23.5574487  0.373202E+02  0.162E+01    0.18       1.0  T
   5    -58.1155993 -0.345582E+02  0.134E+01    0.47       1.0  T
   6    -93.1463431 -0.350307E+02  0.107E+01    0.03       1.0  T
   7    -69.9649333  0.231814E+02  0.119E+01    0.07       1.0  T
   8    -76.4347487 -0.646982E+01  0.113E+01    0.27       1.0  T
   9    -76.6338032 -0.199055E+00  0.110E+01    0.25       1.0  T
  10    -94.3736898 -0.177399E+02  0.905E+00    0.12       1.0  T
  11    -97.5504597 -0.317677E+01  0.823E+00    0.00       1.0  T
  12   -109.0403164 -0.114899E+02  0.587E+00    0.02       1.0  T
  13   -113.7362429 -0.469593E+01  0.476E+00    0.09       1.0  T
  14   -111.0183278  0.271792E+01  0.540E+00    0.04       1.0  T
  15   -100.8587174  0.101596E+02  0.760E+00    0.08       1.0  T
  16   -101.9482047 -0.108949E+01  0.733E+00    0.10       1.0  T
  17   -112.3278496 -0.103796E+02  0.514E+00    0.11       1.0  T
  18   -107.3628653  0.496498E+01  0.662E+00    0.10       1.0  T
  19   -107.7084590 -0.345594E+00  0.644E+00    0.04       1.0  T
  20    -92.8807974  0.148277E+02  0.913E+00    0.10       1.0  T
  21    -93.1550532 -0.274256E+00  0.907E+00    0.09       1.0  T
  22    -95.9399240 -0.278487E+01  0.862E+00    0.06       1.0  T
  23   -112.9527359 -0.170128E+02  0.477E+00    0.11       1.0  T
  24   -113.4500916 -0.497356E+00  0.458E+00    0.14       1.0  T
  25   -113.3363292  0.113762E+00  0.461E+00    0.12       1.0  T
  26   -110.7362005  0.260013E+01  0.540E+00    0.08       1.0  T
  27   -110.5829912  0.153209E+00  0.548E+00    0.09       1.0  T
  28   -110.3154948  0.267496E+00  0.554E+00    0.08       1.0  T
  29   -109.9819863  0.333509E+00  0.557E+00    0.07       1.0  T
  30   -106.7004500  0.328154E+01  0.654E+00    0.03       1.0  T
  31   -106.8440150 -0.143565E+00  0.650E+00    0.04       1.0  T
  32   -110.8674207 -0.402341E+01  0.514E+00    0.08       1.0  T
  33   -106.5116782  0.435574E+01  0.622E+00    0.06       1.0  T
  34   -115.5762347 -0.906456E+01  0.334E+00    0.14       1.0  T
  35   -100.1304815  0.154458E+02  0.756E+00    0.02       1.0  T
  36   -114.8021991 -0.146717E+02  0.349E+00    0.10       1.0  T
  37   -114.5601873  0.242012E+00  0.386E+00    0.17       1.0  T
  38   -112.4993217  0.206087E+01  0.440E+00    0.14       1.0  T
  39   -115.1426680 -0.264335E+01  0.356E+00    0.14       1.0  T
  40   -111.2857481  0.385692E+01  0.480E+00    0.13       1.0  T
  41   -115.7226475 -0.443690E+01  0.320E+00    0.15       1.0  T
  42   -118.2050169 -0.248237E+01  0.465E-01    0.16       1.0  T
  43   -118.0249264  0.180090E+00  0.971E-01    0.15       1.0  T
  44   -118.2107073 -0.185781E+00  0.447E-01    0.14       1.0  T
  45   -118.2107951 -0.878528E-04  0.446E-01    0.14       1.0  T
  46   -117.8067842  0.404011E+00  0.129E+00    0.15       1.0  T
  47   -118.2489751 -0.442191E+00  0.236E-01    0.15       1.0  T
  48   -118.2614115 -0.124364E-01  0.947E-02    0.15       1.0  T
  49   -118.2585360  0.287553E-02  0.143E-01    0.14       1.0  T
  50   -118.2526837  0.585228E-02  0.203E-01    0.14       1.0  T
  51   -118.2489449  0.373884E-02  0.235E-01    0.15       1.0  T
  52   -118.2618063 -0.128615E-01  0.868E-02    0.14       1.0  T
  53   -118.2634524 -0.164607E-02  0.371E-02    0.15       1.0  T
  54   -118.2637695 -0.317038E-03  0.142E-02    0.14       1.0  T
  55   -118.2638092 -0.397104E-04  0.719E-03    0.14       1.7  T
  56   -118.2638164 -0.721577E-05  0.495E-03    0.14       2.4  T
  57   -118.2638106  0.577560E-05  0.675E-03    0.14       1.8  T
  58   -118.2638139 -0.333881E-05  0.580E-03    0.14       2.1  T
  59   -118.2638153 -0.140532E-05  0.532E-03    0.14       2.3  T
  60   -118.2638219 -0.659008E-05  0.190E-03    0.14       6.4  T
  61   -118.2638224 -0.447447E-06  0.139E-03    0.14       8.7  T
  62   -118.2638229 -0.471572E-06  0.409E-04    0.14      29.6  T
  63   -118.2638229 -0.135483E-07  0.341E-04    0.14      35.6  T
  64   -118.2638229 -0.272625E-07  0.114E-04    0.14     106.2  T
  65   -118.2638229 -0.227669E-08  0.665E-05    0.14     182.3  T

   *** convergence criteria satisfied after 65 iterations ***

         #    Occupation            Energy/Eh            Energy/eV
      -------------------------------------------------------------
         1        2.0000           -0.8038275             -21.8733
       ...           ...                  ...                  ...
       103        2.0000           -0.2440661              -6.6414
       104        1.9998           -0.2418689              -6.5816
       105        1.9980           -0.2396964              -6.5225
       106        1.9055           -0.2359320              -6.4200
       107        1.8778           -0.2356600              -6.4126
       108        1.7723           -0.2349592              -6.3936
       109        1.3764           -0.2334544              -6.3526 (HOMO)
       110        0.0703           -0.2281322              -6.2078 (LUMO)
       111        0.0000           -0.2195957              -5.9755
       112        0.0000           -0.2186623              -5.9501
       113                         -0.2135648              -5.8114
       114                         -0.2086298              -5.6771
       ...                                ...                  ...
       274                         13.2022083             359.2504
      -------------------------------------------------------------
                  HL-Gap            0.0053223 Eh            0.1448 eV
             Fermi-level           -0.2321840 Eh           -6.3180 eV

 SCC (total)                   0 d,  0 h,  0 min,  7.616 sec
 SCC setup                      ...        0 min,  0.003 sec (  0.037%)
 Dispersion                     ...        0 min,  0.002 sec (  0.020%)
 classical contributions        ...        0 min,  0.000 sec (  0.006%)
 integral evaluation            ...        0 min,  0.034 sec (  0.443%)
 iterations                     ...        0 min,  7.404 sec ( 97.208%)
 molecular gradient             ...        0 min,  0.071 sec (  0.926%)
 printout                       ...        0 min,  0.104 sec (  1.359%)

         :::::::::::::::::::::::::::::::::::::::::::::::::::::
         ::                     SUMMARY                     ::
         :::::::::::::::::::::::::::::::::::::::::::::::::::::
         :: total energy            -117.407286461138 Eh    ::
         :: total w/o Gsasa/hb      -117.399721238276 Eh    ::
         :: gradient norm              0.188580577918 Eh/a0 ::
         :: HOMO-LUMO gap              0.144826652003 eV    ::
         ::.................................................::
         :: SCC energy              -118.263822898035 Eh    ::
         :: -> electrostatic           0.669509848780 Eh    ::
         :: -> Gsolv                  -0.362769513138 Eh    ::
         ::    -> Gelec               -0.355204290277 Eh    ::
         ::    -> Gsasa               -0.004951737939 Eh    ::
         ::    -> Ghb                 -0.006859091594 Eh    ::
         ::    -> Gshift               0.004245606671 Eh    ::
         :: repulsion energy           0.921988898738 Eh    ::
         :: dispersion energy         -0.065452461841 Eh    ::
         :: halogen bond corr.         0.000000000000 Eh    ::
         :: add. restraining           0.000000000000 Eh    ::
         :: total charge              -3.000000000000 e     ::
         :::::::::::::::::::::::::::::::::::::::::::::::::::::

      ----------------------------------------------------------- 
     |                   =====================                   |
     |                        A N C O P T                        |
     |                   =====================                   |
     |               Approximate Normal Coordinate               |
     |                Rational Function Optimizer                |
      ----------------------------------------------------------- 

          ...................................................
          :                      SETUP                      :
          :.................................................:
          :   optimization level             loose          :
          :   max. optcycles                   200          :
          :   ANC micro-cycles                  20          :
          :   degrees of freedom               198          :
          :.................................................:
          :   RF solver                   davidson          :
          :   write xtbopt.log                true          :
          :   linear?                        false          :
          :   energy convergence         0.5000000E-04 Eh   :
          :   grad. convergence          0.4000000E-02 Eh/α :
          :   maxmium RF displ.          1.0000000          :
          :   Hlow (freq-cutoff)         0.1000000E-01      :
          :   Hmax (freq-cutoff)         5.0000000          :
          :   S6 in model hess.         20.0000000          :
          ...................................................

generating ANC from model Hessian ...
Using Lindh-Hessian (1995)
 Shifting diagonal of input Hessian by    1.3196109209095423E-002
 Lowest  eigenvalues of input Hessian
    0.010000    0.012696    0.012993    0.013031    0.013170    0.013188
    0.000000    0.000000    0.000000    0.000000    0.000000    0.000000
    0.013202    0.013241    0.013261    0.013306    0.013433    0.013449
 Highest eigenvalues
    1.572362    1.687598    1.820870    1.893700    1.952254    2.569513


........................................................................
.............................. CYCLE    1 ..............................
........................................................................

 iter      E             dE          RMSdq      gap      omega  full diag
   1   -118.2638229 -0.118264E+03  0.103E-04    0.14       0.0  T
   2   -118.2638166  0.634028E-05  0.471E-03    0.14       2.6  T
   3   -118.2638228 -0.629068E-05  0.430E-04    0.14      28.2  T
   4   -118.2638229 -0.449772E-07  0.161E-04    0.14      75.3  T
   5   -118.2638229  0.137700E-07  0.272E-04    0.14      44.6  T
   6   -118.2638229 -0.152200E-07  0.145E-04    0.14      83.7  T
     SCC iter.                  ...        0 min,  0.664 sec
     gradient                   ...        0 min,  0.068 sec
 * total energy  :  -117.4072865 Eh     change        0.4881144E-08 Eh
   gradient norm :     0.1885802 Eh/α   predicted     0.0000000E+00 (-100.00%)
   displ. norm   :     0.2219403 α      lambda       -0.1840050E-01
   maximum displ.:     0.0836326 α      in ANC's #47, #45, #48, ...

........................................................................
.............................. CYCLE    2 ..............................
........................................................................

 iter      E             dE          RMSdq      gap      omega  full diag
   1   -118.2302366 -0.118230E+03  0.421E-01    0.15       0.0  T
   2    -94.1490339  0.240812E+02  0.834E+00    0.13       1.0  T
   3   -112.2931190 -0.181441E+02  0.459E+00    0.08       1.0  T
   4   -117.9475874 -0.565447E+01  0.110E+00    0.20       1.0  T
   5   -117.0959770  0.851610E+00  0.203E+00    0.17       1.0  T
   6   -117.9114537 -0.815477E+00  0.113E+00    0.17       1.0  T
   7   -117.5549657  0.356488E+00  0.160E+00    0.15       1.0  T
   8   -118.2617758 -0.706810E+00  0.276E-01    0.20       1.0  T
   9   -118.2672976 -0.552179E-02  0.227E-01    0.20       1.0  T
  10   -118.2766201 -0.932252E-02  0.137E-01    0.20       1.0  T
  11   -118.2795842 -0.296412E-02  0.837E-02    0.19       1.0  T
  12   -118.2784337  0.115055E-02  0.106E-01    0.19       1.0  T
  13   -118.2790261 -0.592442E-03  0.965E-02    0.19       1.0  T
  14   -118.2813451 -0.231897E-02  0.363E-02    0.19       1.0  T
  15   -118.2816853 -0.340194E-03  0.120E-02    0.19       1.0  T
  16   -118.2816978 -0.125349E-04  0.956E-03    0.19       1.3  T
  17   -118.2817156 -0.178335E-04  0.517E-03    0.19       2.3  T
  18   -118.2817219 -0.631997E-05  0.209E-03    0.19       5.8  T
  19   -118.2817229 -0.954265E-06  0.975E-04    0.19      12.4  T
  20   -118.2817230 -0.152279E-06  0.647E-04    0.19      18.7  T
  21   -118.2817231 -0.100926E-06  0.243E-04    0.19      49.9  T
  22   -118.2817232 -0.141237E-07  0.102E-04    0.19     119.2  T
  23   -118.2817232 -0.211614E-08  0.502E-05    0.19     241.6  T
     SCC iter.                  ...        0 min,  2.534 sec
     gradient                   ...        0 min,  0.077 sec
 * total energy  :  -117.4202369 Eh     change       -0.1295048E-01 Eh
   gradient norm :     0.0950504 Eh/α   predicted    -0.9653813E-02 ( -25.46%)
   displ. norm   :     0.3979051 α      lambda       -0.1714792E-01
   maximum displ.:     0.1358147 α      in ANC's #48, #42, #33, ...

........................................................................
.............................. CYCLE    3 ..............................
........................................................................

 iter      E             dE          RMSdq      gap      omega  full diag
   1   -118.2516319 -0.118252E+03  0.441E-01    0.08       0.0  T
   2    -94.4939304  0.237577E+02  0.868E+00    0.09       1.0  T
   3   -104.9707856 -0.104769E+02  0.636E+00    0.06       1.0  T
   4   -117.0697223 -0.120989E+02  0.209E+00    0.08       1.0  T
   5   -117.8323173 -0.762595E+00  0.125E+00    0.12       1.0  T
   6   -117.2311174  0.601200E+00  0.191E+00    0.12       1.0  T
   7   -117.3296505 -0.985332E-01  0.183E+00    0.03       1.0  T
   8   -118.2722823 -0.942632E+00  0.347E-01    0.12       1.0  T
   9   -118.2913162 -0.190339E-01  0.217E-01    0.12       1.0  T
  10   -118.2947098 -0.339354E-02  0.187E-01    0.11       1.0  T
  11   -118.3020089 -0.729914E-02  0.901E-02    0.11       1.0  T
  12   -118.3039907 -0.198176E-02  0.267E-02    0.11       1.0  T
  13   -118.3040655 -0.748305E-04  0.207E-02    0.11       1.0  T
  14   -118.3039852  0.802538E-04  0.259E-02    0.11       1.0  T
  15   -118.3040460 -0.607351E-04  0.216E-02    0.11       1.0  T
  16   -118.3041584 -0.112388E-03  0.931E-03    0.11       1.3  T
  17   -118.3041722 -0.138279E-04  0.624E-03    0.11       1.9  T
  18   -118.3041778 -0.559487E-05  0.434E-03    0.11       2.8  T
  19   -118.3041807 -0.293681E-05  0.282E-03    0.11       4.3  T
  20   -118.3041823 -0.157698E-05  0.147E-03    0.11       8.2  T
  21   -118.3041829 -0.562766E-06  0.355E-04    0.11      34.1  T
  22   -118.3041829 -0.199097E-07  0.219E-04    0.11      55.3  T
  23   -118.3041829 -0.121608E-07  0.895E-05    0.11     135.5  T
  24   -118.3041829 -0.220987E-08  0.254E-05    0.11     476.8  T
     SCC iter.                  ...        0 min,  2.678 sec
     gradient                   ...        0 min,  0.067 sec
 * total energy  :  -117.4245917 Eh     change       -0.4354717E-02 Eh
   gradient norm :     0.0676540 Eh/α   predicted    -0.9931463E-02 ( 128.06%)
   displ. norm   :     0.2496984 α      lambda       -0.7380885E-02
   maximum displ.:     0.1041558 α      in ANC's #45, #48, #47, ...

........................................................................
.............................. CYCLE    4 ..............................
........................................................................

 iter      E             dE          RMSdq      gap      omega  full diag
   1   -118.2950510 -0.118295E+03  0.154E-01    0.16       0.0  T
   2   -106.3953542  0.118997E+02  0.600E+00    0.12       1.0  T
   3   -116.6907322 -0.102954E+02  0.237E+00    0.18       1.0  T
   4   -118.2356669 -0.154493E+01  0.477E-01    0.17       1.0  T
   5   -118.0039897  0.231677E+00  0.102E+00    0.17       1.0  T
   6   -118.1277835 -0.123794E+00  0.771E-01    0.17       1.0  T
   7   -118.2945173 -0.166734E+00  0.168E-01    0.16       1.0  T
   8   -118.2989837 -0.446635E-02  0.121E-01    0.17       1.0  T
   9   -118.3000535 -0.106978E-02  0.954E-02    0.17       1.0  T
  10   -118.3016585 -0.160499E-02  0.620E-02    0.17       1.0  T
  11   -118.3021168 -0.458303E-03  0.479E-02    0.16       1.0  T
  12   -118.3024677 -0.350929E-03  0.318E-02    0.16       1.0  T
  13   -118.3025966 -0.128865E-03  0.230E-02    0.16       1.0  T
  14   -118.3027067 -0.110164E-03  0.114E-02    0.16       1.1  T
  15   -118.3027263 -0.195578E-04  0.760E-03    0.16       1.6  T
  16   -118.3027344 -0.815120E-05  0.527E-03    0.16       2.3  T
  17   -118.3027402 -0.576614E-05  0.257E-03    0.16       4.7  T
  18   -118.3027417 -0.151009E-05  0.101E-03    0.17      12.1  T
  19   -118.3027419 -0.185584E-06  0.572E-04    0.17      21.2  T
  20   -118.3027420 -0.885919E-07  0.920E-05    0.17     131.8  T
  21   -118.3027420 -0.222576E-08  0.168E-05    0.17     720.7  T
     SCC iter.                  ...        0 min,  2.463 sec
     gradient                   ...        0 min,  0.077 sec
 * total energy  :  -117.4288870 Eh     change       -0.4295380E-02 Eh
   gradient norm :     0.0239177 Eh/α   predicted    -0.3920545E-02 (  -8.73%)
   displ. norm   :     0.1723019 α      lambda       -0.1382789E-02
   maximum displ.:     0.0647059 α      in ANC's #33, #22, #152, ...

........................................................................
.............................. CYCLE    5 ..............................
........................................................................

 iter      E             dE          RMSdq      gap      omega  full diag
   1   -118.2968272 -0.118297E+03  0.831E-02    0.17       0.0  T
   2   -115.8887967  0.240803E+01  0.287E+00    0.16       1.0  T
   3   -118.2963809 -0.240758E+01  0.945E-02    0.17       1.0  T
   4   -118.1312931  0.165088E+00  0.763E-01    0.16       1.0  T
   5   -118.2730714 -0.141778E+00  0.299E-01    0.17       1.0  T
   6   -118.2838333 -0.107618E-01  0.225E-01    0.17       1.0  T
   7   -118.2822980  0.153522E-02  0.236E-01    0.17       1.0  T
   8   -118.2984309 -0.161329E-01  0.365E-02    0.17       1.0  T
   9   -118.2984142  0.167642E-04  0.364E-02    0.17       1.0  T
  10   -118.2986651 -0.250901E-03  0.210E-02    0.17       1.0  T
  11   -118.2987634 -0.983353E-04  0.935E-03    0.17       1.3  T
  12   -118.2987797 -0.162643E-04  0.509E-03    0.17       2.4  T
  13   -118.2987858 -0.614499E-05  0.216E-03    0.17       5.6  T
  14   -118.2987870 -0.113314E-05  0.792E-04    0.17      15.3  T
  15   -118.2987871 -0.164933E-06  0.217E-04    0.17      55.9  T
  16   -118.2987871 -0.393285E-08  0.182E-04    0.17      66.7  T
  17   -118.2987871 -0.516881E-08  0.118E-04    0.17     102.7  T
     SCC iter.                  ...        0 min,  2.004 sec
     gradient                   ...        0 min,  0.070 sec
 * total energy  :  -117.4299683 Eh     change       -0.1081246E-02 Eh
   gradient norm :     0.0238726 Eh/α   predicted    -0.7119300E-03 ( -34.16%)
   displ. norm   :     0.3998921 α      lambda       -0.2717684E-02
   maximum displ.:     0.1267260 α      in ANC's #33, #22, #152, ...

........................................................................
.............................. CYCLE    6 ..............................
........................................................................

 iter      E             dE          RMSdq      gap      omega  full diag
   1   -118.2873109 -0.118287E+03  0.151E-01    0.17       0.0  T
   2   -112.3194155  0.596790E+01  0.452E+00    0.06       1.0  T
   3   -118.0738614 -0.575445E+01  0.863E-01    0.18       1.0  T
   4   -118.1545735 -0.807120E-01  0.686E-01    0.18       1.0  T
   5   -118.1560544 -0.148095E-02  0.690E-01    0.18       1.0  T
   6   -118.2443765 -0.883221E-01  0.410E-01    0.18       1.0  T
   7   -118.2082025  0.361741E-01  0.537E-01    0.17       1.0  T
   8   -118.2718091 -0.636066E-01  0.274E-01    0.18       1.0  T
   9   -118.2912936 -0.194845E-01  0.831E-02    0.18       1.0  T
  10   -118.2929616 -0.166795E-02  0.305E-02    0.18       1.0  T
  11   -118.2931441 -0.182484E-03  0.155E-02    0.18       1.0  T
  12   -118.2930705  0.736011E-04  0.220E-02    0.18       1.0  T
  13   -118.2931587 -0.882824E-04  0.132E-02    0.18       1.0  T
  14   -118.2932053 -0.465999E-04  0.272E-03    0.18       4.5  T
  15   -118.2932074 -0.203856E-05  0.510E-04    0.18      23.8  T
  16   -118.2932074 -0.704944E-08  0.486E-04    0.18      24.9  T
  17   -118.2932074 -0.440083E-07  0.271E-04    0.18      44.7  T
  18   -118.2932074 -0.196342E-07  0.560E-05    0.18     216.7  T
  19   -118.2932074 -0.780659E-09  0.189E-05    0.18     642.1  T
     SCC iter.                  ...        0 min,  2.105 sec
     gradient                   ...        0 min,  0.071 sec
 * total energy  :  -117.4319530 Eh     change       -0.1984745E-02 Eh
   gradient norm :     0.0638487 Eh/α   predicted    -0.1576146E-02 ( -20.59%)
   displ. norm   :     0.3716521 α      lambda       -0.3257143E-02
   maximum displ.:     0.1055751 α      in ANC's #152, #135, #27, ...

........................................................................
.............................. CYCLE    7 ..............................
........................................................................

 iter      E             dE          RMSdq      gap      omega  full diag
   1   -118.2853807 -0.118285E+03  0.131E-01    0.18       0.0  T
   2   -110.8703086  0.741507E+01  0.484E+00    0.10       1.0  T
   3   -118.0688540 -0.719855E+01  0.872E-01    0.18       1.0  T
   4   -118.1569041 -0.880500E-01  0.689E-01    0.19       1.0  T
   5   -117.3495936  0.807310E+00  0.175E+00    0.13       1.0  T
   6   -118.2628830 -0.913289E+00  0.309E-01    0.19       1.0  T
   7   -118.1240264  0.138857E+00  0.756E-01    0.15       1.0  T
   8   -118.2778985 -0.153872E+00  0.200E-01    0.18       1.0  T
   9   -118.2877605 -0.986200E-02  0.656E-02    0.18       1.0  T
  10   -118.2884767 -0.716224E-03  0.413E-02    0.18       1.0  T
  11   -118.2888635 -0.386834E-03  0.166E-02    0.18       1.0  T
  12   -118.2889148 -0.512890E-04  0.844E-03    0.18       1.4  T
  13   -118.2889333 -0.184775E-04  0.328E-03    0.18       3.7  T
  14   -118.2889351 -0.179102E-05  0.201E-03    0.18       6.0  T
  15   -118.2889361 -0.101830E-05  0.620E-04    0.18      19.6  T
  16   -118.2889362 -0.701112E-07  0.371E-04    0.18      32.6  T
  17   -118.2889362 -0.308618E-07  0.173E-04    0.18      70.2  T
  18   -118.2889362 -0.414843E-08  0.124E-04    0.18      97.6  T
     SCC iter.                  ...        0 min,  1.970 sec
     gradient                   ...        0 min,  0.069 sec
 * total energy  :  -117.4343891 Eh     change       -0.2436119E-02 Eh
   gradient norm :     0.0953552 Eh/α   predicted    -0.1853534E-02 ( -23.91%)
   displ. norm   :     0.3852406 α      lambda       -0.7631722E-02
   maximum displ.:     0.1314980 α      in ANC's #135, #152, #175, ...

........................................................................
.............................. CYCLE    8 ..............................
........................................................................

 iter      E             dE          RMSdq      gap      omega  full diag
   1   -118.2786036 -0.118279E+03  0.230E-01    0.18       0.0  T
   2   -106.8587196  0.114199E+02  0.606E+00    0.10       1.0  T
   3   -115.0991735 -0.824045E+01  0.324E+00    0.04       1.0  T
   4   -118.2378229 -0.313865E+01  0.443E-01    0.19       1.0  T
   5   -117.0923546  0.114547E+01  0.202E+00    0.17       1.0  T
   6   -118.1687538 -0.107640E+01  0.654E-01    0.18       1.0  T
   7   -118.2615577 -0.928038E-01  0.311E-01    0.16       1.0  T
   8   -118.2309580  0.305997E-01  0.455E-01    0.19       1.0  T
   9   -118.2859879 -0.550299E-01  0.117E-01    0.17       1.0  T
  10   -118.2874515 -0.146359E-02  0.955E-02    0.17       1.0  T
  11   -118.2891130 -0.166152E-02  0.541E-02    0.17       1.0  T
  12   -118.2898844 -0.771386E-03  0.127E-02    0.17       1.0  T
  13   -118.2899021 -0.176951E-04  0.104E-02    0.17       1.2  T
  14   -118.2899113 -0.925217E-05  0.851E-03    0.17       1.4  T
  15   -118.2899277 -0.163855E-04  0.407E-03    0.17       3.0  T
  16   -118.2899321 -0.437341E-05  0.139E-03    0.17       8.7  T
  17   -118.2899325 -0.369922E-06  0.781E-04    0.17      15.5  T
  18   -118.2899326 -0.119319E-06  0.415E-04    0.17      29.2  T
  19   -118.2899326 -0.377547E-07  0.185E-04    0.17      65.4  T
  20   -118.2899326 -0.707959E-08  0.876E-05    0.17     138.4  T
     SCC iter.                  ...        0 min,  2.278 sec
     gradient                   ...        0 min,  0.066 sec
 * total energy  :  -117.4402699 Eh     change       -0.5880807E-02 Eh
   gradient norm :     0.1070469 Eh/α   predicted    -0.4382180E-02 ( -25.48%)
   displ. norm   :     0.3606327 α      lambda       -0.1464349E-01
   maximum displ.:     0.1575174 α      in ANC's #175, #135, #148, ...

........................................................................
.............................. CYCLE    9 ..............................
........................................................................

 iter      E             dE          RMSdq      gap      omega  full diag
   1   -118.2779703 -0.118278E+03  0.332E-01    0.18       0.0  T
   2    -93.3054068  0.249726E+02  0.874E+00    0.20       1.0  T
   3   -111.4378828 -0.181325E+02  0.466E+00    0.12       1.0  T
   4   -117.8242577 -0.638637E+01  0.131E+00    0.14       1.0  T
   5   -117.6988547  0.125403E+00  0.144E+00    0.16       1.0  T
   6   -117.6955736  0.328107E-02  0.143E+00    0.11       1.0  T
   7   -117.8803574 -0.184784E+00  0.123E+00    0.18       1.0  T
   8   -118.3007203 -0.420363E+00  0.149E-01    0.16       1.0  T
   9   -118.3010728 -0.352556E-03  0.148E-01    0.16       1.0  T
  10   -118.3012763 -0.203467E-03  0.147E-01    0.15       1.0  T
  11   -118.3058058 -0.452954E-02  0.704E-02    0.16       1.0  T
  12   -118.3069061 -0.110029E-02  0.331E-02    0.16       1.0  T
  13   -118.3069937 -0.875893E-04  0.283E-02    0.16       1.0  T
  14   -118.3071201 -0.126351E-03  0.181E-02    0.16       1.0  T
  15   -118.3072057 -0.855955E-04  0.461E-03    0.16       2.6  T
  16   -118.3072103 -0.463827E-05  0.235E-03    0.16       5.2  T
  17   -118.3072112 -0.879867E-06  0.155E-03    0.16       7.8  T
  18   -118.3072115 -0.288341E-06  0.117E-03    0.16      10.4  T
  19   -118.3072118 -0.317462E-06  0.437E-04    0.16      27.7  T
  20   -118.3072118 -0.465192E-07  0.144E-04    0.16      84.2  T
  21   -118.3072118 -0.300425E-08  0.961E-05    0.16     126.2  T
     SCC iter.                  ...        0 min,  2.339 sec
     gradient                   ...        0 min,  0.062 sec
 * total energy  :  -117.4499386 Eh     change       -0.9668662E-02 Eh
   gradient norm :     0.0701729 Eh/α   predicted    -0.8274013E-02 ( -14.42%)
   displ. norm   :     0.2313966 α      lambda       -0.7894175E-02
   maximum displ.:     0.1023908 α      in ANC's #135, #148, #33, ...

........................................................................
.............................. CYCLE   10 ..............................
........................................................................

 iter      E             dE          RMSdq      gap      omega  full diag
   1   -118.3184591 -0.118318E+03  0.151E-01    0.16       0.0  T
   2   -104.4935183  0.138249E+02  0.653E+00    0.04       1.0  T
   3   -117.7280367 -0.132345E+02  0.142E+00    0.12       1.0  T
   4   -118.2394385 -0.511402E+00  0.536E-01    0.17       1.0  T
   5   -117.4465199  0.792919E+00  0.173E+00    0.15       1.0  T
   6   -118.2342684 -0.787749E+00  0.564E-01    0.16       1.0  T
   7   -118.2554739 -0.212054E-01  0.496E-01    0.16       1.0  T
   8   -118.3139948 -0.585210E-01  0.194E-01    0.16       1.0  T
   9   -118.3239243 -0.992951E-02  0.493E-02    0.16       1.0  T
  10   -118.3233588  0.565491E-03  0.663E-02    0.16       1.0  T
  11   -118.3237971 -0.438257E-03  0.525E-02    0.16       1.0  T
  12   -118.3242545 -0.457377E-03  0.336E-02    0.16       1.0  T
  13   -118.3243394 -0.849291E-04  0.278E-02    0.16       1.0  T
  14   -118.3244388 -0.994098E-04  0.206E-02    0.16       1.0  T
  15   -118.3245276 -0.887851E-04  0.110E-02    0.16       1.1  T
  16   -118.3245527 -0.251358E-04  0.560E-03    0.16       2.2  T
  17   -118.3245606 -0.783813E-05  0.197E-03    0.16       6.1  T
  18   -118.3245614 -0.861104E-06  0.929E-04    0.16      13.0  T
  19   -118.3245617 -0.237520E-06  0.177E-04    0.16      68.3  T
  20   -118.3245617 -0.753457E-08  0.532E-05    0.16     228.1  T
     SCC iter.                  ...        0 min,  2.226 sec
     gradient                   ...        0 min,  0.066 sec
 * total energy  :  -117.4555378 Eh     change       -0.5599233E-02 Eh
   gradient norm :     0.0316929 Eh/α   predicted    -0.4158432E-02 ( -25.73%)
   displ. norm   :     0.4636957 α      lambda       -0.8549646E-02
   maximum displ.:     0.2687350 α      in ANC's #135, #148, #175, ...

........................................................................
.............................. CYCLE   11 ..............................
........................................................................

 iter      E             dE          RMSdq      gap      omega  full diag
   1   -118.3063087 -0.118306E+03  0.269E-01    0.16       0.0  T
   2    -95.2502046  0.230561E+02  0.817E+00    0.09       1.0  T
   3   -116.1470576 -0.208969E+02  0.280E+00    0.12       1.0  T
   4   -118.1500640 -0.200301E+01  0.766E-01    0.17       1.0  T
   5   -117.5274354  0.622629E+00  0.165E+00    0.16       1.0  T
   6   -118.2719686 -0.744533E+00  0.439E-01    0.16       1.0  T
   7   -118.0793641  0.192605E+00  0.928E-01    0.18       1.0  T
   8   -118.3185763 -0.239212E+00  0.165E-01    0.17       1.0  T
   9   -118.3234461 -0.486979E-02  0.963E-02    0.16       1.0  T
  10   -118.3186542  0.479188E-02  0.161E-01    0.16       1.0  T
  11   -118.3236484 -0.499418E-02  0.873E-02    0.16       1.0  T
  12   -118.3253904 -0.174207E-02  0.345E-02    0.17       1.0  T
  13   -118.3256289 -0.238423E-03  0.186E-02    0.17       1.0  T
  14   -118.3256775 -0.486623E-04  0.132E-02    0.17       1.0  T
  15   -118.3257037 -0.261214E-04  0.889E-03    0.17       1.4  T
  16   -118.3257216 -0.179511E-04  0.391E-03    0.17       3.1  T
  17   -118.3257239 -0.224825E-05  0.263E-03    0.17       4.6  T
  18   -118.3257249 -0.106682E-05  0.171E-03    0.17       7.1  T
  19   -118.3257256 -0.696744E-06  0.570E-04    0.17      21.3  T
  20   -118.3257257 -0.617370E-07  0.315E-04    0.17      38.6  T
  21   -118.3257257 -0.251952E-07  0.973E-05    0.17     124.6  T
  22   -118.3257257 -0.266550E-08  0.167E-05    0.17     727.0  T
     SCC iter.                  ...        0 min,  2.498 sec
     gradient                   ...        0 min,  0.072 sec
 * total energy  :  -117.4593980 Eh     change       -0.3860182E-02 Eh
   gradient norm :     0.0663075 Eh/α   predicted    -0.5193989E-02 (  34.55%)
   displ. norm   :     0.2362949 α      lambda       -0.7177383E-02
   maximum displ.:     0.1045264 α      in ANC's #152, #135, #33, ...

........................................................................
.............................. CYCLE   12 ..............................
........................................................................

 iter      E             dE          RMSdq      gap      omega  full diag
   1   -118.3220087 -0.118322E+03  0.190E-01    0.16       0.0  T
   2   -101.8321724  0.164898E+02  0.698E+00    0.08       1.0  T
   3   -117.7902430 -0.159581E+02  0.138E+00    0.23       1.0  T
   4   -118.0774740 -0.287231E+00  0.924E-01    0.13       1.0  T
   5   -118.2805202 -0.203046E+00  0.428E-01    0.16       1.0  T
   6   -117.3719505  0.908570E+00  0.181E+00    0.10       1.0  T
   7   -118.3299050 -0.957954E+00  0.753E-02    0.17       1.0  T
   8   -118.2649731  0.649318E-01  0.479E-01    0.18       1.0  T
   9   -118.3293073 -0.643342E-01  0.868E-02    0.17       1.0  T
  10   -118.3299102 -0.602869E-03  0.720E-02    0.17       1.0  T
  11   -118.3302854 -0.375205E-03  0.611E-02    0.17       1.0  T
  12   -118.3313195 -0.103408E-02  0.115E-02    0.17       1.1  T
  13   -118.3313564 -0.369199E-04  0.357E-03    0.17       3.4  T
  14   -118.3313560  0.388521E-06  0.367E-03    0.17       3.3  T
  15   -118.3313583 -0.231144E-05  0.232E-03    0.17       5.2  T
  16   -118.3313595 -0.115677E-05  0.104E-03    0.17      11.6  T
  17   -118.3313598 -0.303434E-06  0.183E-04    0.17      66.4  T
  18   -118.3313598 -0.396113E-08  0.132E-04    0.17      91.8  T
     SCC iter.                  ...        0 min,  2.035 sec
     gradient                   ...        0 min,  0.070 sec
 * total energy  :  -117.4623552 Eh     change       -0.2957208E-02 Eh
   gradient norm :     0.0235226 Eh/α   predicted    -0.3789069E-02 (  28.13%)
   displ. norm   :     0.1606469 α      lambda       -0.1292728E-02
   maximum displ.:     0.0644431 α      in ANC's #32, #31, #11, ...

........................................................................
.............................. CYCLE   13 ..............................
........................................................................

 iter      E             dE          RMSdq      gap      omega  full diag
   1   -118.3280798 -0.118328E+03  0.104E-01    0.18       0.0  T
   2   -109.9315387  0.839654E+01  0.508E+00    0.06       1.0  T
   3   -118.2384581 -0.830692E+01  0.568E-01    0.17       1.0  T
   4   -118.2660772 -0.276191E-01  0.475E-01    0.17       1.0  T
   5   -117.8865074  0.379570E+00  0.125E+00    0.19       1.0  T
   6   -118.3183379 -0.431830E+00  0.205E-01    0.18       1.0  T
   7   -118.2888990  0.294389E-01  0.381E-01    0.17       1.0  T
   8   -118.3277912 -0.388922E-01  0.108E-01    0.17       1.0  T
   9   -118.3302848 -0.249354E-02  0.508E-02    0.17       1.0  T
  10   -118.3310080 -0.723227E-03  0.124E-02    0.17       1.0  T
  11   -118.3310180 -0.100106E-04  0.100E-02    0.17       1.2  T
  12   -118.3310446 -0.265994E-04  0.271E-03    0.17       4.5  T
  13   -118.3310439  0.730569E-06  0.304E-03    0.17       4.0  T
  14   -118.3310462 -0.236251E-05  0.118E-03    0.17      10.3  T
  15   -118.3310465 -0.247976E-06  0.704E-04    0.17      17.2  T
  16   -118.3310466 -0.127517E-06  0.236E-04    0.17      51.5  T
  17   -118.3310466 -0.122244E-07  0.113E-04    0.17     107.6  T
  18   -118.3310466 -0.291473E-08  0.526E-05    0.17     230.4  T
     SCC iter.                  ...        0 min,  2.012 sec
     gradient                   ...        0 min,  0.068 sec
 * total energy  :  -117.4631460 Eh     change       -0.7907684E-03 Eh
   gradient norm :     0.0209400 Eh/α   predicted    -0.6630461E-03 ( -16.15%)
   displ. norm   :     0.1980632 α      lambda       -0.7155101E-03
   maximum displ.:     0.0870788 α      in ANC's #11, #14, #15, ...

........................................................................
.............................. CYCLE   14 ..............................
........................................................................

 iter      E             dE          RMSdq      gap      omega  full diag
   1   -118.3271951 -0.118327E+03  0.391E-02    0.17       0.0  T
   2   -117.8689342  0.458261E+00  0.124E+00    0.14       1.0  T
   3   -118.3187129 -0.449779E+00  0.174E-01    0.17       1.0  T
   4   -118.2933625  0.253504E-01  0.343E-01    0.17       1.0  T
   5   -118.3255521 -0.321896E-01  0.902E-02    0.17       1.0  T
   6   -118.3020241  0.235281E-01  0.298E-01    0.17       1.0  T
   7   -118.3274330 -0.254089E-01  0.176E-02    0.17       1.0  T
   8   -118.3253493  0.208373E-02  0.860E-02    0.17       1.0  T
   9   -118.3274318 -0.208252E-02  0.169E-02    0.17       1.0  T
  10   -118.3274453 -0.135403E-04  0.152E-02    0.17       1.0  T
  11   -118.3275024 -0.570668E-04  0.571E-03    0.17       2.1  T
  12   -118.3275109 -0.852991E-05  0.180E-03    0.17       6.7  T
  13   -118.3275116 -0.679886E-06  0.878E-04    0.17      13.8  T
  14   -118.3275118 -0.210293E-06  0.280E-04    0.17      43.3  T
  15   -118.3275118 -0.638791E-08  0.228E-04    0.17      53.1  T
  16   -118.3275118 -0.131960E-07  0.723E-05    0.17     167.8  T
  17   -118.3275118 -0.123798E-08  0.285E-05    0.17     425.8  T
     SCC iter.                  ...        0 min,  1.931 sec
     gradient                   ...        0 min,  0.073 sec
 * total energy  :  -117.4635640 Eh     change       -0.4180009E-03 Eh
   gradient norm :     0.0132519 Eh/α   predicted    -0.3717921E-03 ( -11.05%)
   displ. norm   :     0.2226257 α      lambda       -0.6335890E-03
   maximum displ.:     0.0771809 α      in ANC's #11, #31, #14, ...

........................................................................
.............................. CYCLE   15 ..............................
........................................................................

 iter      E             dE          RMSdq      gap      omega  full diag
   1   -118.3293603 -0.118329E+03  0.672E-02    0.17       0.0  T
   2   -116.9818589  0.134750E+01  0.218E+00    0.13       1.0  T
   3   -118.3176523 -0.133579E+01  0.213E-01    0.17       1.0  T
   4   -118.3006779  0.169745E-01  0.325E-01    0.16       1.0  T
   5   -118.3237548 -0.230769E-01  0.152E-01    0.17       1.0  T
   6   -118.3190840  0.467077E-02  0.195E-01    0.16       1.0  T
   7   -118.3300302 -0.109462E-01  0.425E-02    0.16       1.0  T
   8   -118.3187891  0.112411E-01  0.201E-01    0.17       1.0  T
   9   -118.3301173 -0.113282E-01  0.371E-02    0.16       1.0  T
  10   -118.3303761 -0.258852E-03  0.226E-02    0.16       1.0  T
  11   -118.3305188 -0.142628E-03  0.506E-03    0.16       2.4  T
  12   -118.3305138  0.492296E-05  0.659E-03    0.16       1.8  T
  13   -118.3305151 -0.124062E-05  0.620E-03    0.16       2.0  T
  14   -118.3305242 -0.910003E-05  0.282E-03    0.16       4.3  T
  15   -118.3305265 -0.230964E-05  0.181E-04    0.16      67.1  T
  16   -118.3305265  0.124591E-08  0.205E-04    0.16      59.3  T
  17   -118.3305265 -0.902006E-08  0.984E-05    0.16     123.3  T
  18   -118.3305265 -0.279569E-08  0.928E-06    0.16    1306.9  T
     SCC iter.                  ...        0 min,  2.096 sec
     gradient                   ...        0 min,  0.067 sec
 * total energy  :  -117.4639097 Eh     change       -0.3456794E-03 Eh
   gradient norm :     0.0116646 Eh/α   predicted    -0.3325003E-03 (  -3.81%)
   displ. norm   :     0.1425317 α      lambda       -0.2790221E-03
   maximum displ.:     0.0525865 α      in ANC's #11, #17, #14, ...

........................................................................
.............................. CYCLE   16 ..............................
........................................................................

 iter      E             dE          RMSdq      gap      omega  full diag
   1   -118.3289152 -0.118329E+03  0.721E-02    0.16       0.0  T
   2   -116.2497234  0.207919E+01  0.260E+00    0.17       1.0  T
   3   -118.2821510 -0.203243E+01  0.409E-01    0.16       1.0  T
   4   -118.3220919 -0.399409E-01  0.166E-01    0.16       1.0  T
   5   -118.0757048  0.246387E+00  0.940E-01    0.14       1.0  T
   6   -118.3298549 -0.254150E+00  0.462E-02    0.16       1.0  T
   7   -118.3291210  0.733946E-03  0.713E-02    0.16       1.0  T
   8   -118.3194630  0.965795E-02  0.195E-01    0.16       1.0  T
   9   -118.3298108 -0.103478E-01  0.462E-02    0.16       1.0  T
  10   -118.3302908 -0.479959E-03  0.223E-02    0.16       1.0  T
  11   -118.3303197 -0.289783E-04  0.194E-02    0.16       1.0  T
  12   -118.3303990 -0.792663E-04  0.985E-03    0.16       1.2  T
  13   -118.3304216 -0.226257E-04  0.401E-03    0.16       3.0  T
  14   -118.3304253 -0.367581E-05  0.177E-03    0.16       6.9  T
  15   -118.3304260 -0.701104E-06  0.841E-04    0.16      14.4  T
  16   -118.3304262 -0.188830E-06  0.272E-04    0.16      44.5  T
  17   -118.3304262 -0.110097E-07  0.184E-04    0.16      65.9  T
  18   -118.3304262 -0.566899E-08  0.112E-04    0.16     108.6  T
     SCC iter.                  ...        0 min,  2.063 sec
     gradient                   ...        0 min,  0.073 sec
 * total energy  :  -117.4641048 Eh     change       -0.1951435E-03 Eh
   gradient norm :     0.0058429 Eh/α   predicted    -0.1423464E-03 ( -27.06%)
   displ. norm   :     0.1575243 α      lambda       -0.1842195E-03
   maximum displ.:     0.0577201 α      in ANC's #17, #8, #11, ...

........................................................................
.............................. CYCLE   17 ..............................
........................................................................

 iter      E             dE          RMSdq      gap      omega  full diag
   1   -118.3292206 -0.118329E+03  0.616E-02    0.16       0.0  T
   2   -116.6451849  0.168404E+01  0.233E+00    0.15       1.0  T
   3   -118.2890200 -0.164384E+01  0.385E-01    0.18       1.0  T
   4   -118.3263536 -0.373336E-01  0.119E-01    0.16       1.0  T
   5   -118.2060013  0.120352E+00  0.651E-01    0.17       1.0  T
   6   -118.3291244 -0.123123E+00  0.684E-02    0.16       1.0  T
   7   -118.3261281  0.299628E-02  0.121E-01    0.16       1.0  T
   8   -118.3295156 -0.338742E-02  0.558E-02    0.16       1.0  T
   9   -118.3300846 -0.568997E-03  0.309E-02    0.16       1.0  T
  10   -118.3303028 -0.218274E-03  0.145E-02    0.16       1.0  T
  11   -118.3303314 -0.285555E-04  0.102E-02    0.16       1.2  T
  12   -118.3303592 -0.278163E-04  0.215E-03    0.16       5.6  T
  13   -118.3303601 -0.896241E-06  0.118E-03    0.16      10.3  T
  14   -118.3303602 -0.117077E-06  0.961E-04    0.16      12.6  T
  15   -118.3303604 -0.167184E-06  0.605E-04    0.16      20.0  T
  16   -118.3303605 -0.778402E-07  0.299E-04    0.16      40.6  T
  17   -118.3303605 -0.210275E-07  0.126E-04    0.16      96.5  T
  18   -118.3303605 -0.311428E-08  0.677E-05    0.16     179.2  T
     SCC iter.                  ...        0 min,  2.016 sec
     gradient                   ...        0 min,  0.077 sec
 * total energy  :  -117.4642343 Eh     change       -0.1295139E-03 Eh
   gradient norm :     0.0049562 Eh/α   predicted    -0.9439585E-04 ( -27.12%)
   displ. norm   :     0.2025113 α      lambda       -0.1610445E-03
   maximum displ.:     0.0809094 α      in ANC's #17, #8, #6, ...

........................................................................
.............................. CYCLE   18 ..............................
........................................................................

 iter      E             dE          RMSdq      gap      omega  full diag
   1   -118.3299236 -0.118330E+03  0.313E-02    0.16       0.0  T
   2   -117.8596785  0.470245E+00  0.129E+00    0.22       1.0  T
   3   -118.3263720 -0.466694E+00  0.114E-01    0.16       1.0  T
   4   -118.3163306  0.100414E-01  0.216E-01    0.16       1.0  T
   5   -118.2983453  0.179853E-01  0.330E-01    0.16       1.0  T
   6   -118.3292713 -0.309260E-01  0.582E-02    0.16       1.0  T
   7   -118.3295080 -0.236702E-03  0.475E-02    0.16       1.0  T
   8   -118.3299106 -0.402612E-03  0.309E-02    0.16       1.0  T
   9   -118.3301701 -0.259537E-03  0.858E-03    0.16       1.4  T
  10   -118.3301788 -0.864842E-05  0.628E-03    0.16       1.9  T
  11   -118.3301878 -0.906902E-05  0.279E-03    0.16       4.3  T
  12   -118.3301891 -0.128208E-05  0.163E-03    0.16       7.4  T
  13   -118.3301899 -0.803438E-06  0.404E-04    0.16      30.0  T
  14   -118.3301900 -0.291220E-07  0.237E-04    0.16      51.1  T
  15   -118.3301900 -0.736290E-08  0.170E-04    0.16      71.3  T
  16   -118.3301900 -0.532559E-08  0.946E-05    0.16     128.2  T
     SCC iter.                  ...        0 min,  1.811 sec
     gradient                   ...        0 min,  0.073 sec
 * total energy  :  -117.4643564 Eh     change       -0.1220696E-03 Eh
   gradient norm :     0.0052758 Eh/α   predicted    -0.8382992E-04 ( -31.33%)
   displ. norm   :     0.3465958 α      lambda       -0.2429972E-03
   maximum displ.:     0.1355266 α      in ANC's #17, #8, #6, ...

........................................................................
.............................. CYCLE   19 ..............................
........................................................................

 iter      E             dE          RMSdq      gap      omega  full diag
   1   -118.3290828 -0.118329E+03  0.284E-02    0.16       0.0  T
   2   -118.0072362  0.321847E+00  0.107E+00    0.19       1.0  T
   3   -118.3286833 -0.321447E+00  0.471E-02    0.17       1.0  T
   4   -118.3083122  0.203711E-01  0.260E-01    0.16       1.0  T
   5   -118.3223429 -0.140307E-01  0.152E-01    0.17       1.0  T
   6   -118.3227556 -0.412648E-03  0.150E-01    0.17       1.0  T
   7   -118.3279477 -0.519211E-02  0.680E-02    0.17       1.0  T
   8   -118.3283735 -0.425778E-03  0.561E-02    0.17       1.0  T
   9   -118.3291835 -0.810074E-03  0.188E-02    0.17       1.0  T
  10   -118.3292088 -0.252094E-04  0.159E-02    0.17       1.0  T
  11   -118.3292665 -0.577233E-04  0.715E-03    0.17       1.7  T
  12   -118.3292808 -0.143458E-04  0.133E-03    0.17       9.1  T
  13   -118.3292808 -0.241898E-07  0.123E-03    0.17       9.9  T
  14   -118.3292811 -0.282724E-06  0.728E-04    0.17      16.7  T
  15   -118.3292812 -0.101557E-06  0.403E-04    0.17      30.1  T
  16   -118.3292813 -0.418523E-07  0.126E-04    0.17      96.4  T
  17   -118.3292813 -0.347706E-08  0.549E-05    0.17     220.7  T
     SCC iter.                  ...        0 min,  1.953 sec
     gradient                   ...        0 min,  0.089 sec
 * total energy  :  -117.4645303 Eh     change       -0.1738507E-03 Eh
   gradient norm :     0.0058107 Eh/α   predicted    -0.1360972E-03 ( -21.72%)
   displ. norm   :     0.4291066 α      lambda       -0.2882986E-03
   maximum displ.:     0.1637302 α      in ANC's #17, #8, #6, ...

........................................................................
.............................. CYCLE   20 ..............................
........................................................................

 iter      E             dE          RMSdq      gap      omega  full diag
   1   -118.3241434 -0.118324E+03  0.121E-01    0.17       0.0  T
   2   -110.4875180  0.783663E+01  0.498E+00    0.08       1.0  T
   3   -117.4588461 -0.697133E+01  0.171E+00    0.16       1.0  T
   4   -118.3204466 -0.861600E+00  0.161E-01    0.17       1.0  T
   5   -118.1410159  0.179431E+00  0.793E-01    0.13       1.0  T
   6   -118.3213294 -0.180313E+00  0.157E-01    0.17       1.0  T
   7   -118.3176488  0.368058E-02  0.193E-01    0.17       1.0  T
   8   -118.3246371 -0.698829E-02  0.113E-01    0.17       1.0  T
   9   -118.3275651 -0.292799E-02  0.526E-02    0.17       1.0  T
  10   -118.3273442  0.220918E-03  0.584E-02    0.17       1.0  T
  11   -118.3277770 -0.432840E-03  0.436E-02    0.17       1.0  T
  12   -118.3281445 -0.367433E-03  0.244E-02    0.17       1.0  T
  13   -118.3282593 -0.114876E-03  0.136E-02    0.17       1.0  T
  14   -118.3282903 -0.309947E-04  0.875E-03    0.17       1.4  T
  15   -118.3283065 -0.161462E-04  0.441E-03    0.17       2.7  T
  16   -118.3283117 -0.519433E-05  0.103E-03    0.17      11.7  T
  17   -118.3283119 -0.241174E-06  0.508E-04    0.17      23.9  T
  18   -118.3283120 -0.567029E-07  0.255E-04    0.17      47.5  T
  19   -118.3283120 -0.183475E-07  0.631E-05    0.17     192.3  T
  20   -118.3283120 -0.104394E-08  0.196E-05    0.17     617.9  T
     SCC iter.                  ...        0 min,  2.275 sec
     gradient                   ...        0 min,  0.066 sec
 * total energy  :  -117.4647662 Eh     change       -0.2359842E-03 Eh
   gradient norm :     0.0108676 Eh/α   predicted    -0.1706985E-03 ( -27.67%)
   displ. norm   :     0.8510371 α      lambda       -0.7300957E-03
   maximum displ.:     0.3137540 α      in ANC's #17, #8, #6, ...
 * RMSD in coord.:     0.4303431 α      energy gain  -0.5747978E-01 Eh

generating ANC from model Hessian ...
Using Lindh-Hessian (1995)
 Shifting diagonal of input Hessian by    1.3543711575468166E-002
 Lowest  eigenvalues of input Hessian
    0.010000    0.013032    0.013201    0.013371    0.013465    0.013520
    0.013542    0.000000    0.000000    0.000000    0.000000    0.000000
    0.000000    0.013576    0.013613    0.013634    0.013674    0.013789
 Highest eigenvalues
    1.642518    1.675399    1.756610    1.865907    1.972503    2.201353


........................................................................
.............................. CYCLE   21 ..............................
........................................................................

 iter      E             dE          RMSdq      gap      omega  full diag
   1   -118.3003637 -0.118300E+03  0.284E-01    0.17       0.0  T
   2    -94.6329924  0.236674E+02  0.840E+00    0.13       1.0  T
   3   -114.9234361 -0.202904E+02  0.337E+00    0.13       1.0  T
   4   -118.2894679 -0.336603E+01  0.343E-01    0.16       1.0  T
   5   -117.0526785  0.123679E+01  0.207E+00    0.23       1.0  T
   6   -118.2675230 -0.121484E+01  0.435E-01    0.17       1.0  T
   7   -118.2591096  0.841337E-02  0.463E-01    0.18       1.0  T
   8   -118.3117650 -0.526554E-01  0.200E-01    0.18       1.0  T
   9   -118.3202346 -0.846966E-02  0.982E-02    0.17       1.0  T
  10   -118.3183255  0.190914E-02  0.124E-01    0.17       1.0  T
  11   -118.3202774 -0.195189E-02  0.936E-02    0.18       1.0  T
  12   -118.3222233 -0.194590E-02  0.453E-02    0.18       1.0  T
  13   -118.3225981 -0.374778E-03  0.272E-02    0.18       1.0  T
  14   -118.3227145 -0.116427E-03  0.181E-02    0.18       1.0  T
  15   -118.3227552 -0.407426E-04  0.131E-02    0.18       1.0  T
  16   -118.3227851 -0.298964E-04  0.829E-03    0.18       1.5  T
  17   -118.3227988 -0.136326E-04  0.468E-03    0.18       2.6  T
  18   -118.3228042 -0.544369E-05  0.177E-03    0.18       6.9  T
  19   -118.3228048 -0.645194E-06  0.890E-04    0.18      13.6  T
  20   -118.3228050 -0.177418E-06  0.406E-04    0.18      29.9  T
  21   -118.3228051 -0.422369E-07  0.113E-04    0.18     107.1  T
  22   -118.3228051 -0.299090E-08  0.446E-05    0.18     271.9  T
     SCC iter.                  ...        0 min,  2.513 sec
     gradient                   ...        0 min,  0.085 sec
 * total energy  :  -117.4656617 Eh     change       -0.8954195E-03 Eh
   gradient norm :     0.0169799 Eh/α   predicted     0.0000000E+00 (-100.00%)
   displ. norm   :     0.2571283 α      lambda       -0.1385027E-02
   maximum displ.:     0.2150418 α      in ANC's #1, #2, #26, ...

........................................................................
.............................. CYCLE   22 ..............................
........................................................................

 iter      E             dE          RMSdq      gap      omega  full diag
   1   -118.2983787 -0.118298E+03  0.324E-01    0.18       0.0  T
   2    -84.2015392  0.340968E+02  0.102E+01    0.17       1.0  T
   3   -116.7532981 -0.325518E+02  0.236E+00    0.16       1.0  T
   4   -117.8610325 -0.110773E+01  0.130E+00    0.19       1.0  T
   5   -117.8438387  0.171937E-01  0.128E+00    0.13       1.0  T
   6   -118.1727849 -0.328946E+00  0.740E-01    0.19       1.0  T
   7   -118.3193585 -0.146574E+00  0.178E-01    0.18       1.0  T
   8   -118.3160787  0.327980E-02  0.200E-01    0.18       1.0  T
   9   -118.3255300 -0.945129E-02  0.101E-01    0.17       1.0  T
  10   -118.3246759  0.854119E-03  0.114E-01    0.17       1.0  T
  11   -118.3263432 -0.166734E-02  0.823E-02    0.17       1.0  T
  12   -118.3281956 -0.185242E-02  0.851E-03    0.17       1.4  T
  13   -118.3281216  0.739916E-04  0.179E-02    0.17       1.0  T
  14   -118.3281812 -0.596043E-04  0.109E-02    0.17       1.1  T
  15   -118.3282142 -0.330202E-04  0.213E-03    0.17       5.7  T
  16   -118.3282150 -0.774375E-06  0.127E-03    0.17       9.5  T
  17   -118.3282153 -0.308643E-06  0.681E-04    0.17      17.8  T
  18   -118.3282154 -0.699777E-07  0.458E-04    0.17      26.5  T
  19   -118.3282154 -0.504332E-07  0.175E-04    0.17      69.2  T
  20   -118.3282154 -0.758671E-08  0.635E-05    0.17     191.1  T
     SCC iter.                  ...        0 min,  2.474 sec
     gradient                   ...        0 min,  0.068 sec
 * total energy  :  -117.4644662 Eh     change        0.1195449E-02 Eh
   gradient norm :     0.0274682 Eh/α   predicted    -0.7383730E-03 (-161.77%)
   displ. norm   :     0.2012070 α      lambda       -0.3304803E-02
   maximum displ.:     0.1483247 α      in ANC's #1, #2, #30, ...

........................................................................
.............................. CYCLE   23 ..............................
........................................................................

 iter      E             dE          RMSdq      gap      omega  full diag
   1   -118.3129031 -0.118313E+03  0.252E-01    0.17       0.0  T
   2    -92.7965488  0.255164E+02  0.855E+00    0.08       1.0  T
   3   -118.2435529 -0.254470E+02  0.563E-01    0.15       1.0  T
   4   -117.9922104  0.251343E+00  0.109E+00    0.16       1.0  T
   5   -118.1698903 -0.177680E+00  0.757E-01    0.19       1.0  T
   6   -117.8556833  0.314207E+00  0.129E+00    0.11       1.0  T
   7   -118.2768080 -0.421125E+00  0.440E-01    0.16       1.0  T
   8   -118.3171745 -0.403665E-01  0.233E-01    0.17       1.0  T
   9   -118.3314540 -0.142795E-01  0.686E-02    0.16       1.0  T
  10   -118.3321770 -0.723010E-03  0.456E-02    0.16       1.0  T
  11   -118.3325417 -0.364645E-03  0.285E-02    0.16       1.0  T
  12   -118.3327516 -0.209885E-03  0.840E-03    0.16       1.4  T
  13   -118.3327665 -0.148935E-04  0.471E-03    0.16       2.6  T
  14   -118.3327673 -0.876091E-06  0.432E-03    0.16       2.8  T
  15   -118.3327689 -0.160855E-05  0.352E-03    0.16       3.4  T
  16   -118.3327722 -0.325536E-05  0.887E-04    0.16      13.7  T
  17   -118.3327724 -0.179826E-06  0.314E-04    0.16      38.7  T
  18   -118.3327724 -0.131031E-07  0.223E-04    0.16      54.3  T
  19   -118.3327724 -0.122380E-07  0.774E-05    0.16     156.7  T
  20   -118.3327724 -0.151017E-08  0.240E-05    0.16     505.2  T
     SCC iter.                  ...        0 min,  2.355 sec
     gradient                   ...        0 min,  0.074 sec
 * total energy  :  -117.4650229 Eh     change       -0.5566846E-03 Eh
   gradient norm :     0.0060964 Eh/α   predicted    -0.1719342E-02 ( 208.85%)
   displ. norm   :     0.0849904 α      lambda       -0.2575379E-03
   maximum displ.:     0.0263681 α      in ANC's #31, #26, #51, ...

........................................................................
.............................. CYCLE   24 ..............................
........................................................................

 iter      E             dE          RMSdq      gap      omega  full diag
   1   -118.3292512 -0.118329E+03  0.713E-02    0.17       0.0  T
   2   -116.3720329  0.195722E+01  0.255E+00    0.16       1.0  T
   3   -118.3019063 -0.192987E+01  0.319E-01    0.18       1.0  T
   4   -118.3152625 -0.133562E-01  0.235E-01    0.17       1.0  T
   5   -118.2927063  0.225562E-01  0.359E-01    0.18       1.0  T
   6   -118.3272151 -0.345088E-01  0.114E-01    0.17       1.0  T
   7   -118.3218813  0.533384E-02  0.173E-01    0.17       1.0  T
   8   -118.3303433 -0.846206E-02  0.382E-02    0.17       1.0  T
   9   -118.3305586 -0.215257E-03  0.246E-02    0.17       1.0  T
  10   -118.3307254 -0.166808E-03  0.763E-03    0.17       1.6  T
  11   -118.3307237  0.172179E-05  0.769E-03    0.17       1.6  T
  12   -118.3307406 -0.169461E-04  0.177E-03    0.17       6.9  T
  13   -118.3307404  0.194210E-06  0.186E-03    0.17       6.5  T
  14   -118.3307412 -0.734564E-06  0.966E-04    0.17      12.5  T
  15   -118.3307414 -0.215323E-06  0.414E-04    0.17      29.3  T
  16   -118.3307414 -0.488667E-07  0.621E-05    0.17     195.4  T
  17   -118.3307414 -0.955268E-09  0.206E-05    0.17     590.1  T
     SCC iter.                  ...        0 min,  2.070 sec
     gradient                   ...        0 min,  0.076 sec
 * total energy  :  -117.4651612 Eh     change       -0.1383249E-03 Eh
   gradient norm :     0.0038998 Eh/α   predicted    -0.1297087E-03 (  -6.23%)
   displ. norm   :     0.1062264 α      lambda       -0.1576968E-03
   maximum displ.:     0.0441880 α      in ANC's #26, #9, #16, ...

........................................................................
.............................. CYCLE   25 ..............................
........................................................................

 iter      E             dE          RMSdq      gap      omega  full diag
   1   -118.3297512 -0.118330E+03  0.321E-02    0.17       0.0  T
   2   -117.7008429  0.628908E+00  0.146E+00    0.12       1.0  T
   3   -118.3225586 -0.621716E+00  0.160E-01    0.16       1.0  T
   4   -118.3213388  0.121982E-02  0.175E-01    0.18       1.0  T
   5   -118.3262823 -0.494352E-02  0.117E-01    0.17       1.0  T
   6   -118.3163234  0.995896E-02  0.219E-01    0.17       1.0  T
   7   -118.3297738 -0.134504E-01  0.291E-02    0.17       1.0  T
   8   -118.3282644  0.150932E-02  0.767E-02    0.17       1.0  T
   9   -118.3300255 -0.176103E-02  0.644E-03    0.17       1.9  T
  10   -118.3300061  0.193819E-04  0.996E-03    0.17       1.2  T
  11   -118.3300327 -0.265770E-04  0.351E-03    0.17       3.5  T
  12   -118.3300354 -0.277380E-05  0.154E-03    0.17       7.9  T
  13   -118.3300361 -0.701795E-06  0.343E-04    0.17      35.4  T
  14   -118.3300362 -0.233095E-07  0.188E-04    0.17      64.7  T
  15   -118.3300362 -0.653233E-08  0.107E-04    0.17     113.4  T
     SCC iter.                  ...        0 min,  1.762 sec
     gradient                   ...        0 min,  0.081 sec
 * total energy  :  -117.4652744 Eh     change       -0.1131868E-03 Eh
   gradient norm :     0.0028287 Eh/α   predicted    -0.7975623E-04 ( -29.54%)
   displ. norm   :     0.2197792 α      lambda       -0.2212705E-03
   maximum displ.:     0.0958197 α      in ANC's #26, #9, #16, ...

........................................................................
.............................. CYCLE   26 ..............................
........................................................................

 iter      E             dE          RMSdq      gap      omega  full diag
   1   -118.3252555 -0.118325E+03  0.129E-01    0.18       0.0  T
   2   -106.8012323  0.115240E+02  0.610E+00    0.04       1.0  T
   3   -118.0605109 -0.112593E+02  0.966E-01    0.14       1.0  T
   4   -118.2555041 -0.194993E+00  0.512E-01    0.19       1.0  T
   5   -118.1963608  0.591433E-01  0.683E-01    0.17       1.0  T
   6   -118.2253380 -0.289772E-01  0.604E-01    0.17       1.0  T
   7   -118.3247040 -0.993660E-01  0.131E-01    0.17       1.0  T
   8   -118.3285572 -0.385317E-02  0.713E-02    0.18       1.0  T
   9   -118.3298700 -0.131280E-02  0.239E-02    0.17       1.0  T
  10   -118.3298886 -0.186319E-04  0.219E-02    0.17       1.0  T
  11   -118.3299823 -0.936453E-04  0.129E-02    0.17       1.0  T
  12   -118.3300202 -0.379400E-04  0.536E-03    0.17       2.3  T
  13   -118.3300274 -0.722613E-05  0.163E-03    0.17       7.4  T
  14   -118.3300280 -0.606492E-06  0.703E-04    0.17      17.2  T
  15   -118.3300282 -0.124622E-06  0.261E-04    0.17      46.5  T
  16   -118.3300282 -0.764712E-08  0.197E-04    0.17      61.5  T
  17   -118.3300282 -0.829080E-08  0.905E-05    0.17     134.0  T
     SCC iter.                  ...        0 min,  1.916 sec
     gradient                   ...        0 min,  0.074 sec
 * total energy  :  -117.4653949 Eh     change       -0.1205293E-03 Eh
   gradient norm :     0.0043752 Eh/α   predicted    -0.1159829E-03 (  -3.77%)
   displ. norm   :     0.0933554 α      lambda       -0.7121672E-04
   maximum displ.:     0.0392192 α      in ANC's #9, #16, #26, ...

........................................................................
.............................. CYCLE   27 ..............................
........................................................................

 iter      E             dE          RMSdq      gap      omega  full diag
   1   -118.3297742 -0.118330E+03  0.524E-02    0.17       0.0  T
   2   -116.5604724  0.176930E+01  0.239E+00    0.10       1.0  T
   3   -118.2996108 -0.173914E+01  0.327E-01    0.19       1.0  T
   4   -118.3237343 -0.241235E-01  0.155E-01    0.17       1.0  T
   5   -118.3266996 -0.296533E-02  0.117E-01    0.17       1.0  T
   6   -118.3281046 -0.140500E-02  0.944E-02    0.17       1.0  T
   7   -118.3302973 -0.219267E-02  0.340E-02    0.18       1.0  T
   8   -118.3301961  0.101244E-03  0.393E-02    0.17       1.0  T
   9   -118.3306024 -0.406335E-03  0.950E-03    0.17       1.3  T
  10   -118.3306021  0.305732E-06  0.943E-03    0.17       1.3  T
  11   -118.3306190 -0.168711E-04  0.544E-03    0.18       2.2  T
  12   -118.3306255 -0.658000E-05  0.240E-03    0.18       5.1  T
  13   -118.3306271 -0.153586E-05  0.512E-04    0.18      23.7  T
  14   -118.3306271 -0.452279E-07  0.317E-04    0.18      38.2  T
  15   -118.3306271 -0.200118E-07  0.167E-04    0.18      72.7  T
  16   -118.3306272 -0.626400E-08  0.727E-05    0.18     166.7  T
     SCC iter.                  ...        0 min,  1.791 sec
     gradient                   ...        0 min,  0.076 sec
 * total energy  :  -117.4654434 Eh     change       -0.4846846E-04 Eh
   gradient norm :     0.0029389 Eh/α   predicted    -0.3591912E-04 ( -25.89%)
   displ. norm   :     0.0994461 α      lambda       -0.6127519E-04
   maximum displ.:     0.0461180 α      in ANC's #9, #16, #15, ...

   *** GEOMETRY OPTIMIZATION CONVERGED AFTER 27 ITERATIONS ***

------------------------------------------------------------------------
 total energy gain   :        -0.0581569 Eh      -36.4940 kcal/mol
 total RMSD          :         0.4371433 a0        0.2313 Å
 total power (kW/mol):        -5.6552238 (step)   -2.4280 (real)
------------------------------------------------------------------------

 ANCopt (total)                0 d,  0 h,  1 min,  2.887 sec
 optimizer setup                ...        0 min,  0.000 sec (  0.000%)
 model hessian                  ...        0 min,  0.053 sec (  0.084%)
 ANC generation                 ...        0 min,  0.058 sec (  0.093%)
 coordinate transformation      ...        0 min,  0.004 sec (  0.006%)
 single point calculation       ...        1 min,  2.726 sec ( 99.743%)
 optimization log               ...        0 min,  0.009 sec (  0.015%)
 hessian update                 ...        0 min,  0.010 sec (  0.016%)
 rational function              ...        0 min,  0.018 sec (  0.028%)

================
 final structure:
================
68
 xtb: 6.6.1 (unknown)
C           52.83131540557761       14.68961790002298       53.79866371274677
C           53.11389449782730       15.92951241569019       52.95393873416739
S           53.97172341583023       15.53710347598362       51.39874694385417
H           52.36330301317690       14.95775533741463       54.75093293447115
H           52.16447062153276       14.00977613142637       53.26061056049242
H           53.76439348495281       14.16013401189044       54.00765625732769
H           52.17472073605330       16.47166606944633       52.77834323914253
H           53.77144955877909       16.60352690473231       53.51757750790198
C           47.99178216879251        8.75048919446304       49.34760664947592
C           48.94196549622694        9.87505516057578       49.75213091726282
S           49.96024876625602       10.32029659622001       48.30664507734780
H           47.33886008946025        8.45582925673689       50.17448667211530
H           47.36994601225409        9.07637713152723       48.51057438503668
H           48.56256903300773        7.87731210699320       49.02320702438539
H           48.35312590516013       10.74776522746680       50.06478028306150
H           49.54316796777105        9.55091046975387       50.61082877350167
C           57.79882382048085        8.20264717022488       47.00706411280589
C           56.54592121714274        7.45969121330631       46.54582968125563
S           55.23391176063998        8.59467643162919       45.99492079210842
H           58.58278363705415        7.50337955452357       47.31632673698660
H           58.18609735538498        8.82049693197586       46.19246309807476
H           57.56132888500512        8.86096611239743       47.85087277822019
H           56.80512062954968        6.82626330191673       45.68679393120323
H           56.19947811521840        6.79422949371358       47.34893272664137
C           57.54639751774718        9.37645397240342       51.86580544745073
C           56.27028315938193        8.71246988669446       52.37984001703568
S           54.83507518214491        9.83085638326240       52.33772018151980
H           57.75788645589730       10.27672566385650       52.44890316214316
H           58.40415678395995        8.70018849363926       51.94545015222378
H           57.42513966927954        9.66904734619316       50.81611804480511
H           56.08462899771470        7.78960261569940       51.81313769288191
H           56.41885747888039        8.42531006699493       53.42939643442015
C           54.71795732451611       16.68759698023256       47.33566173265773
C           54.65143844588324       15.18748311447281       47.07441569052352
S           54.96236581236452       14.31671518862696       48.65072710324747
H           53.96549639885787       16.97767840440393       48.07355890655112
H           55.69976227816628       16.94905483379167       47.73692712077326
H           54.55074657402611       17.26346729290212       46.42077571274265
H           53.68434163655753       14.92538760504168       46.62812128588913
H           55.43879725184351       14.91081380301147       46.36316310753305
C           51.75221395665321       18.87382649842157       50.64008998777489
C           50.62418000296631       18.24718426060857       49.80764820323224
C           50.81142958912069       16.76946740302762       49.67406863804192
N           50.49647856729412       15.89532014040161       50.70370945107380
C           51.01429532463490       14.62299721997236       50.32506150433453
N           51.36810508093036       14.68910764486340       48.99785171744266
C           51.30834661990126       16.02158992477308       48.65383832092930
H           51.69617709942639       18.52788481642947       51.67363291261115
H           52.72633037066393       18.59029826783196       50.23360113285420
H           51.66980625017320       19.96127125605382       50.63567456088378
H           49.66319881427859       18.47408766555927       50.28405396805558
H           50.61808856755820       18.70368238680195       48.81120734883263
H           50.42460937780874       16.20520266639949       51.65989573769954
H           50.41500788608150       13.77601192703014       50.66994243536506
H           51.56405972565998       16.36181693141387       47.65711354331923
Fe          52.07541047835087       10.33988491961491       48.79397182614719
Fe          52.96439354325221       14.13559877082916       50.00507276261084
Fe          54.42519923914032        9.68482749142287       47.76005291187843
Fe          54.21057284128860       10.23923106748135       50.23429963726275
S           55.94466344918566       10.63659558220028       48.97520998343329
S           53.24278218083517        8.60389955686866       49.20820827246168
S           52.81678101981324       11.98024765928209       50.14496312842569
S           53.10941469689059       11.39942984233215       46.95802410058139
Fe          54.49169998608544       12.17132928928135       48.66357350834321
C           53.07523504134162       11.40232717252888       45.24522884390846
O           52.21299192585704       10.89193570785669       44.52871975931077
O           54.02463086648869       12.21283081926295       44.66427090753402
H           53.87705021796419       12.21733374021543       43.71164784364102

 Bond Distances (Angstroems)
 ---------------------------
C1-C2=1.5267         C1-H4=1.0944         C1-H5=1.0938         C1-H6=1.0930         C2-C1=1.5267         C2-S3=1.8189         
C2-H7=1.0985         C2-H8=1.0974         S3-C2=1.8189         S3-Fe57=2.2184       H4-C1=1.0944         H5-C1=1.0938         
H6-C1=1.0930         H7-C2=1.0985         H8-C2=1.0974         C9-C10=1.5268        C9-H12=1.0940        C9-H13=1.0925        
C9-H14=1.0925        C10-C9=1.5268        C10-S11=1.8233       C10-H15=1.0982       C10-H16=1.0972       S11-C10=1.8233       
S11-Fe56=2.1707      H12-C9=1.0940        H13-C9=1.0925        H14-C9=1.0925        H15-C10=1.0982       H16-C10=1.0972       
C17-C18=1.5279       C17-H20=1.0951       C17-H21=1.0933       C17-H22=1.0963       C18-C17=1.5279       C18-S19=1.8202       
C18-H23=1.0983       C18-H24=1.0990       S19-C18=1.8202       S19-Fe58=2.2267      H20-C17=1.0951       H21-C17=1.0933       
H22-C17=1.0963       H23-C18=1.0983       H24-C18=1.0990       C25-C26=1.5276       C25-H28=1.0933       C25-H29=1.0952       
C25-H30=1.0964       C26-C25=1.5276       C26-S27=1.8200       C26-H31=1.0988       C26-H32=1.0982       S27-C26=1.8200       
S27-Fe59=2.2318      H28-C25=1.0933       H29-C25=1.0952       H30-C25=1.0964       H31-C26=1.0988       H32-C26=1.0982       
C33-C34=1.5241       C33-H36=1.0931       C33-H37=1.0924       C33-H38=1.0939       C34-C33=1.5241       C34-S35=1.8275       
C34-H39=1.0969       C34-H40=1.0965       S35-C34=1.8275       S35-Fe57=2.4205      S35-Fe64=2.1964      H36-C33=1.0931       
H37-C33=1.0924       H38-C33=1.0939       H39-C34=1.0969       H40-C34=1.0965       C41-C42=1.5356       C41-H48=1.0913       
C41-H49=1.0929       C41-H50=1.0906       C42-C41=1.5356       C42-C43=1.4955       C42-H51=1.0963       C42-H52=1.0960       
C43-C42=1.4955       C43-N44=1.3869       C43-C47=1.3591       N44-C43=1.3869       N44-C45=1.4249       N44-H53=1.0077       
C45-N44=1.4249       C45-N46=1.3752       C45-H54=1.0934       C45-Fe57=2.0354      N46-C45=1.3752       N46-C47=1.3775       
N46-Fe57=1.9670      C47-C43=1.3591       C47-N46=1.3775       C47-H55=1.0838       H48-C41=1.0913       H49-C41=1.0929       
H50-C41=1.0906       H51-C42=1.0963       H52-C42=1.0960       H53-N44=1.0077       H54-C45=1.0934       H55-C47=1.0838       
Fe56-S11=2.1707      Fe56-Fe58=2.6495     Fe56-Fe59=2.5775     Fe56-S61=2.1326      Fe56-S62=2.2507      Fe56-S63=2.3585      
Fe56-Fe64=3.0347     Fe57-S3=2.2184       Fe57-S35=2.4205      Fe57-C45=2.0354      Fe57-N46=1.9670      Fe57-S62=2.1649      
Fe57-Fe64=2.8268     Fe58-S19=2.2267      Fe58-Fe56=2.6495     Fe58-Fe59=2.5447     Fe58-S60=2.1659      Fe58-S61=2.1596      
Fe58-S63=2.3053      Fe58-Fe64=2.6464     Fe59-S27=2.2318      Fe59-Fe56=2.5775     Fe59-Fe58=2.5447     Fe59-S60=2.1795      
Fe59-S61=2.1596      Fe59-S62=2.2320      Fe59-Fe64=2.5058     S60-Fe58=2.1659      S60-Fe59=2.1795      S60-Fe64=2.1363      
S61-Fe56=2.1326      S61-Fe58=2.1596      S61-Fe59=2.1596      S62-Fe56=2.2507      S62-Fe57=2.1649      S62-Fe59=2.2320      
S62-Fe64=2.2442      S63-Fe56=2.3585      S63-Fe58=2.3053      S63-Fe64=2.3271      S63-C65=1.7131       Fe64-S35=2.1964      
Fe64-Fe56=3.0347     Fe64-Fe57=2.8268     Fe64-Fe58=2.6464     Fe64-Fe59=2.5058     Fe64-S60=2.1363      Fe64-S62=2.2442      
Fe64-S63=2.3271      C65-S63=1.7131       C65-O66=1.2318       C65-O67=1.3769       O66-C65=1.2318       O67-C65=1.3769       
O67-H68=0.9640       H68-O67=0.9640       
 C  H  Rav=1.0948 sigma=0.0031  Rmin=1.0838  Rmax=1.0990    32
 C  C  Rav=1.5029 sigma=0.0555  Rmin=1.3591  Rmax=1.5356     8
 N  H  Rav=1.0077 sigma=0.0000  Rmin=1.0077  Rmax=1.0077     1
 N  C  Rav=1.3911 sigma=0.0200  Rmin=1.3752  Rmax=1.4249     4
 O  H  Rav=0.9640 sigma=0.0000  Rmin=0.9640  Rmax=0.9640     1
 O  C  Rav=1.3043 sigma=0.0725  Rmin=1.2318  Rmax=1.3769     2
 S  C  Rav=1.8038 sigma=0.0407  Rmin=1.7131  Rmax=1.8275     6
 Fe C  Rav=2.0354 sigma=0.0000  Rmin=2.0354  Rmax=2.0354     1
 Fe N  Rav=1.9670 sigma=0.0000  Rmin=1.9670  Rmax=1.9670     1
 Fe S  Rav=2.2253 sigma=0.0768  Rmin=2.1326  Rmax=2.4205    19
 Fe Fe Rav=2.6836 sigma=0.1726  Rmin=2.5058  Rmax=3.0347     7

 selected bond angles (degree)
 --------------------
H4-C1-C2=111.20                H5-C1-C2=110.21                H5-C1-H4=108.64                H6-C1-C2=109.95                
H6-C1-H4=108.50                H6-C1-H5=108.27                S3-C2-C1=112.65                H7-C2-C1=109.33                
H7-C2-S3=111.90                H8-C2-C1=109.00                H8-C2-S3=106.80                H8-C2-H7=106.93                
Fe57-S3-C2=117.34              H12-C9-C10=111.69              H13-C9-C10=109.73              H13-C9-H12=108.65              
H14-C9-C10=110.01              H14-C9-H12=108.72              H14-C9-H13=107.96              S11-C10-C9=108.50              
H15-C10-C9=109.09              H15-C10-S11=109.33             H16-C10-C9=109.31              H16-C10-S11=112.74             
H16-C10-H15=107.80             

 selected dihedral angles (degree)
 ---------------------------------
S3-C2-C1-H4=176.99            S3-C2-C1-H5=297.52            S3-C2-C1-H6= 56.79            H7-C2-C1-H4=302.07            
H7-C2-C1-H5= 62.61            H7-C2-C1-H6=181.88            H8-C2-C1-H4= 58.63            H8-C2-C1-H5=179.17            
H8-C2-C1-H6=298.44            Fe57-S3-C2-C1= 58.65          Fe57-S3-C2-H7=294.99          Fe57-S3-C2-H8=178.29          
S11-C10-C9-H12=181.19         S11-C10-C9-H13=301.73         S11-C10-C9-H14= 60.36         H15-C10-C9-H12=300.22         
H15-C10-C9-H13= 60.76         H15-C10-C9-H14=179.39         H16-C10-C9-H12= 57.88         H16-C10-C9-H13=178.42         
H16-C10-C9-H14=297.05         
           -------------------------------------------------
          |                Final Singlepoint                |
           -------------------------------------------------

          ...................................................
          :                      SETUP                      :
          :.................................................:
          :  # basis functions                 288          :
          :  # atomic orbitals                 274          :
          :  # shells                          150          :
          :  # electrons                       217          :
          :  # halogen bonds                     0          :
          :  max. iterations                   250          :
          :  Hamiltonian                  GFN1-xTB          :
          :  restarted?                      false          :
          :  GBSA solvation                   true          :
          :  PC potential                    false          :
          :  electronic temp.          300.0000000     K    :
          :  accuracy                    1.0000000          :
          :  -> integral cutoff          0.2500000E+02      :
          :  -> integral neglect         0.1000000E-07      :
          :  -> SCF convergence          0.1000000E-05 Eh   :
          :  -> wf. convergence          0.2000000E-04 e    :
          :  Broyden damping             0.4000000          :
          ...................................................

 iter      E             dE          RMSdq      gap      omega  full diag
   1   -118.3306272 -0.118331E+03  0.931E-06    0.18       0.0  T
   2   -118.3306271  0.387899E-07  0.364E-04    0.18      33.3  T
   3   -118.3306272 -0.381592E-07  0.464E-05    0.18     261.3  T
   4   -118.3306272 -0.571973E-09  0.173E-05    0.18     702.1  T

   *** convergence criteria satisfied after 4 iterations ***

         #    Occupation            Energy/Eh            Energy/eV
      -------------------------------------------------------------
         1        2.0000           -0.8007892             -21.7906
       ...           ...                  ...                  ...
       103        2.0000           -0.2454010              -6.6777
       104        1.9999           -0.2434074              -6.6235
       105        1.9979           -0.2407017              -6.5498
       106        1.9913           -0.2393665              -6.5135
       107        1.9096           -0.2370620              -6.4508
       108        1.6693           -0.2355564              -6.4098
       109        1.3921           -0.2345364              -6.3821 (HOMO)
       110        0.0396           -0.2280956              -6.2068 (LUMO)
       111        0.0002           -0.2232431              -6.0748
       112        0.0000           -0.2205417              -6.0012
       113                         -0.2130564              -5.7976
       114                         -0.2083984              -5.6708
       ...                                ...                  ...
       274                         12.9526342             352.4591
      -------------------------------------------------------------
                  HL-Gap            0.0064408 Eh            0.1753 eV
             Fermi-level           -0.2329947 Eh           -6.3401 eV

 SCC (total)                   0 d,  0 h,  0 min,  0.678 sec
 SCC setup                      ...        0 min,  0.001 sec (  0.205%)
 Dispersion                     ...        0 min,  0.001 sec (  0.086%)
 classical contributions        ...        0 min,  0.000 sec (  0.016%)
 integral evaluation            ...        0 min,  0.026 sec (  3.804%)
 iterations                     ...        0 min,  0.478 sec ( 70.506%)
 molecular gradient             ...        0 min,  0.064 sec (  9.404%)
 printout                       ...        0 min,  0.108 sec ( 15.970%)

         :::::::::::::::::::::::::::::::::::::::::::::::::::::
         ::                     SUMMARY                     ::
         :::::::::::::::::::::::::::::::::::::::::::::::::::::
         :: total energy            -117.465443409284 Eh    ::
         :: total w/o Gsasa/hb      -117.458178752580 Eh    ::
         :: gradient norm              0.002939355402 Eh/a0 ::
         :: HOMO-LUMO gap              0.175263162087 eV    ::
         ::.................................................::
         :: SCC energy              -118.330627157605 Eh    ::
         :: -> electrostatic           0.661003884374 Eh    ::
         :: -> Gsolv                  -0.361142385757 Eh    ::
         ::    -> Gelec               -0.353877729052 Eh    ::
         ::    -> Gsasa               -0.005098524253 Eh    ::
         ::    -> Ghb                 -0.006411739123 Eh    ::
         ::    -> Gshift               0.004245606671 Eh    ::
         :: repulsion energy           0.931341602202 Eh    ::
         :: dispersion energy         -0.066157853881 Eh    ::
         :: halogen bond corr.         0.000000000000 Eh    ::
         :: add. restraining           0.000000000000 Eh    ::
         :: total charge              -3.000000000000 e     ::
         :::::::::::::::::::::::::::::::::::::::::::::::::::::

           -------------------------------------------------
          |                Property Printout                |
           -------------------------------------------------

    * Orbital Energies and Occupations

         #    Occupation            Energy/Eh            Energy/eV
      -------------------------------------------------------------
         1        2.0000           -0.8007892             -21.7906
       ...           ...                  ...                  ...
        97        2.0000           -0.2545496              -6.9266
        98        2.0000           -0.2526237              -6.8742
        99        2.0000           -0.2508109              -6.8249
       100        2.0000           -0.2472401              -6.7277
       101        2.0000           -0.2468697              -6.7177
       102        2.0000           -0.2458617              -6.6902
       103        2.0000           -0.2454010              -6.6777
       104        1.9999           -0.2434074              -6.6235
       105        1.9979           -0.2407017              -6.5498
       106        1.9913           -0.2393665              -6.5135
       107        1.9096           -0.2370620              -6.4508
       108        1.6693           -0.2355564              -6.4098
       109        1.3921           -0.2345364              -6.3821 (HOMO)
       110        0.0396           -0.2280956              -6.2068 (LUMO)
       111        0.0002           -0.2232431              -6.0748
       112        0.0000           -0.2205417              -6.0012
       113                         -0.2130564              -5.7976
       114                         -0.2083984              -5.6708
       115                         -0.2040582              -5.5527
       116                         -0.1971811              -5.3656
       117                         -0.1917004              -5.2164
       118                         -0.1854778              -5.0471
       119                         -0.1733473              -4.7170
       120                         -0.1656346              -4.5071
       ...                                ...                  ...
       274                         12.9526342             352.4591
      -------------------------------------------------------------
                  HL-Gap            0.0064408 Eh            0.1753 eV
             Fermi-level           -0.2329947 Eh           -6.3401 eV

  Mulliken/CM5 charges         n(s)   n(p)   n(d)
     1C    -0.06264 -0.21103   1.004  3.059  0.000
     2C     0.01132 -0.08279   1.028  2.961  0.000
     3S    -0.29632 -0.38674   1.898  4.404 -0.005
     4H    -0.00650  0.04421   1.006  0.000  0.000
     5H     0.00757  0.06015   0.992  0.000  0.000
     6H     0.00032  0.05240   1.000  0.000  0.000
     7H    -0.02078  0.03697   1.021  0.000  0.000
     8H    -0.02931  0.02613   1.029  0.000  0.000
     9C    -0.07091 -0.21899   1.005  3.066  0.000
    10C     0.01844 -0.07605   1.026  2.956  0.000
    11S    -0.29996 -0.39818   1.895  4.413 -0.008
    12H    -0.00331  0.04738   1.003  0.000  0.000
    13H    -0.00441  0.04794   1.004  0.000  0.000
    14H     0.00056  0.05281   0.999  0.000  0.000
    15H    -0.02681  0.02801   1.027  0.000  0.000
    16H    -0.00958  0.04507   1.010  0.000  0.000
    17C    -0.06438 -0.21233   1.004  3.061  0.000
    18C     0.02116 -0.07295   1.024  2.955  0.000
    19S    -0.32763 -0.41627   1.895  4.442 -0.010
    20H    -0.01173  0.03889   1.012  0.000  0.000
    21H    -0.00905  0.04299   1.009  0.000  0.000
    22H     0.00506  0.05925   0.995  0.000  0.000
    23H    -0.03591  0.01928   1.036  0.000  0.000
    24H    -0.01961  0.03491   1.020  0.000  0.000
    25C    -0.06398 -0.21183   1.003  3.061  0.000
    26C     0.02262 -0.07139   1.024  2.954  0.000
    27S    -0.31885 -0.40688   1.895  4.434 -0.010
    28H    -0.00875  0.04333   1.009  0.000  0.000
    29H    -0.01312  0.03750   1.013  0.000  0.000
    30H     0.00361  0.05840   0.996  0.000  0.000
    31H    -0.01980  0.03478   1.020  0.000  0.000
    32H    -0.03611  0.01915   1.036  0.000  0.000
    33C    -0.06417 -0.21257   1.003  3.061  0.000
    34C     0.02099 -0.07438   1.028  2.951  0.000
    35S    -0.16169 -0.29487   1.888  4.278 -0.004
    36H     0.00879  0.06235   0.991  0.000  0.000
    37H    -0.00347  0.04897   1.003  0.000  0.000
    38H    -0.00340  0.04739   1.003  0.000  0.000
    39H    -0.00278  0.05325   1.003  0.000  0.000
    40H    -0.01995  0.03559   1.020  0.000  0.000
    41C    -0.06441 -0.21389   1.003  3.061  0.000
    42C    -0.04088 -0.14194   1.021  3.020  0.000
    43C     0.05356  0.11016   1.042  2.904  0.000
    44N    -0.35180 -0.70446   1.443  3.909  0.000
    45C     0.16887  0.20713   1.010  2.821  0.000
    46N    -0.37212 -0.64751   1.555  3.817  0.000
    47C     0.05293  0.07356   1.009  2.938  0.000
    48H     0.01938  0.07266   0.981  0.000  0.000
    49H     0.01780  0.07044   0.982  0.000  0.000
    50H     0.01211  0.06334   0.988  0.000  0.000
    51H     0.00934  0.06609   0.991  0.000  0.000
    52H     0.00846  0.06397   0.992  0.000  0.000
    53H     0.20093  0.39586   0.799  0.000  0.000
    54H    -0.03114  0.04161   1.031  0.000  0.000
    55H    -0.02822  0.03629   1.028  0.000  0.000
    56Fe   -0.03915  0.22783   0.145  0.920  6.974
    57Fe   -0.04271  0.29662   0.151  0.914  6.978
    58Fe   -0.03123  0.24415   0.142  0.937  6.952
    59Fe   -0.03086  0.24951   0.146  0.970  6.914
    60S    -0.12686 -0.36268   1.867  4.278 -0.018
    61S    -0.14145 -0.37673   1.863  4.296 -0.018
    62S     0.01833 -0.24517   1.853  4.144 -0.015
    63S    -0.01331 -0.17613   1.867  4.127  0.019
    64Fe   -0.02537  0.24200   0.121  0.912  6.992
    65C     0.54781  0.61221   0.992  2.460  0.000
    66O    -0.66354 -0.70746   1.742  4.922  0.000
    67O    -0.57777 -0.77160   1.711  4.867  0.000
    68H     0.36576  0.54426   0.634  0.000  0.000

Wiberg/Mayer (AO) data.
largest (>0.10) Wiberg bond orders for each atom

 ---------------------------------------------------------------------------
     #   Z sym  total        # sym  WBO       # sym  WBO       # sym  WBO
 ---------------------------------------------------------------------------
     1   6 C    3.993 --     2 C    1.016     6 H    0.988     4 H    0.986
                             5 H    0.983
     2   6 C    3.989 --     1 C    1.016     8 H    0.985     7 H    0.975
                             3 S    0.961
     3  16 S    1.996 --     2 C    0.961    57 Fe   0.839
     4   1 H    1.009 --     1 C    0.986
     5   1 H    1.024 --     1 C    0.983
     6   1 H    1.023 --     1 C    0.988
     7   1 H    1.025 --     2 C    0.975
     8   1 H    1.031 --     2 C    0.985
     9   6 C    3.993 --    10 C    1.018    13 H    0.988    14 H    0.988
                            12 H    0.985
    10   6 C    3.987 --     9 C    1.018    15 H    0.987    16 H    0.983
                            11 S    0.957
    11  16 S    2.073 --    10 C    0.957    56 Fe   0.853
    12   1 H    1.009 --     9 C    0.985
    13   1 H    1.027 --     9 C    0.988
    14   1 H    1.027 --     9 C    0.988
    15   1 H    1.027 --    10 C    0.987
    16   1 H    1.018 --    10 C    0.983
    17   6 C    3.990 --    18 C    1.017    21 H    0.989    20 H    0.986
                            22 H    0.974
    18   6 C    3.988 --    17 C    1.017    23 H    0.986    24 H    0.985
                            19 S    0.966
    19  16 S    1.985 --    18 C    0.966    58 Fe   0.762
    20   1 H    1.010 --    17 C    0.986
    21   1 H    1.025 --    17 C    0.989
    22   1 H    1.047 --    17 C    0.974
    23   1 H    1.031 --    18 C    0.986
    24   1 H    1.020 --    18 C    0.985
    25   6 C    3.993 --    26 C    1.017    28 H    0.989    29 H    0.986
                            30 H    0.972
    26   6 C    3.985 --    25 C    1.017    32 H    0.986    31 H    0.985
                            27 S    0.965
    27  16 S    2.005 --    26 C    0.965    59 Fe   0.758
    28   1 H    1.025 --    25 C    0.989
    29   1 H    1.010 --    25 C    0.986
    30   1 H    1.051 --    25 C    0.972
    31   1 H    1.020 --    26 C    0.985
    32   1 H    1.031 --    26 C    0.986
    33   6 C    3.994 --    34 C    1.021    37 H    0.988    38 H    0.985
                            36 H    0.983
    34   6 C    3.983 --    33 C    1.021    40 H    0.987    39 H    0.984
                            35 S    0.933
    35  16 S    2.321 --    34 C    0.933    64 Fe   0.698    57 Fe   0.471
    36   1 H    1.028 --    33 C    0.983
    37   1 H    1.024 --    33 C    0.988
    38   1 H    1.007 --    33 C    0.985
    39   1 H    1.015 --    34 C    0.984
    40   1 H    1.025 --    34 C    0.987
    41   6 C    3.997 --    42 C    1.000    50 H    0.988    49 H    0.987
                            48 H    0.986
    42   6 C    3.997 --    43 C    1.011    41 C    1.000    52 H    0.980
                            51 H    0.976
    43   6 C    3.916 --    47 C    1.590    44 N    1.115    42 C    1.011
    44   7 N    3.299 --    43 C    1.115    45 C    1.004    53 H    0.922
    45   6 C    3.839 --    46 N    1.225    44 N    1.004    54 H    0.954
                            57 Fe   0.517
    46   7 N    3.116 --    45 C    1.225    47 C    1.209    57 Fe   0.522
    47   6 C    3.966 --    43 C    1.590    46 N    1.209    55 H    0.974
    48   1 H    1.012 --    41 C    0.986
    49   1 H    1.018 --    41 C    0.987
    50   1 H    1.007 --    41 C    0.988
    51   1 H    1.009 --    42 C    0.976
    52   1 H    1.010 --    42 C    0.980
    53   1 H    0.970 --    44 N    0.922
    54   1 H    1.035 --    45 C    0.954
    55   1 H    1.012 --    47 C    0.974
    56  26 Fe   5.000 --    61 S    0.894    11 S    0.853    58 Fe   0.711
                            59 Fe   0.661    62 S    0.616    63 S    0.389
                            57 Fe   0.316    64 Fe   0.294
    57  26 Fe   4.631 --     3 S    0.839    62 S    0.760    46 N    0.522
                            45 C    0.517    35 S    0.471    64 Fe   0.469
                            56 Fe   0.316    59 Fe   0.226    58 Fe   0.150
    58  26 Fe   5.232 --    61 S    0.812    60 S    0.797    19 S    0.762
                            56 Fe   0.711    64 Fe   0.664    59 Fe   0.604
                            63 S    0.451    57 Fe   0.150
    59  26 Fe   5.454 --    61 S    0.816    60 S    0.783    64 Fe   0.759
                            27 S    0.758    56 Fe   0.661    62 S    0.608
                            58 Fe   0.604    57 Fe   0.226
    60  16 S    2.666 --    64 Fe   0.864    58 Fe   0.797    59 Fe   0.783
    61  16 S    2.637 --    56 Fe   0.894    59 Fe   0.816    58 Fe   0.812
    62  16 S    2.786 --    57 Fe   0.760    64 Fe   0.648    56 Fe   0.616
                            59 Fe   0.608
    63  16 S    2.597 --    65 C    1.099    58 Fe   0.451    64 Fe   0.424
                            56 Fe   0.389    66 O    0.111
    64  26 Fe   5.130 --    60 S    0.864    59 Fe   0.759    35 S    0.698
                            58 Fe   0.664    62 S    0.648    57 Fe   0.469
                            63 S    0.424    56 Fe   0.294
    65   6 C    3.819 --    66 O    1.537    63 S    1.099    67 O    1.007
    66   8 O    1.810 --    65 C    1.537    63 S    0.111
    67   8 O    1.998 --    65 C    1.007    68 H    0.848
    68   1 H    0.886 --    67 O    0.848
 ---------------------------------------------------------------------------

Topologies differ in total number of bonds
Writing topology from bond orders to xtbtopo.mol

 dipole moment from electron density (au)
     X       Y       Z   
-303.1357 -64.6623-276.6106  total (Debye): 1055.930

           -------------------------------------------------
          |                Geometry Summary                 |
           -------------------------------------------------

      molecular mass/u    :      854.2627850
   center of mass at/Å    :       53.4384648      11.9140455      49.0784364
  moments of inertia/u·Å² :        0.5764769E+04   0.1010057E+05   0.1050050E+05
rotational constants/cm⁻¹ :        0.2924251E-02   0.1668978E-02   0.1605412E-02

 * 67 selected distances

     #   Z          #   Z                                           value/Å
     1   6 C        2   6 C                                       1.5266794
     1   6 C        4   1 H                                       1.0944177
     1   6 C        5   1 H                                       1.0937862
     1   6 C        6   1 H                                       1.0930078
     2   6 C        7   1 H                                       1.0985499
     2   6 C        8   1 H                                       1.0974348
     9   6 C       10   6 C                                       1.5268062
     9   6 C       12   1 H                                       1.0940121
     9   6 C       13   1 H                                       1.0924772
     9   6 C       14   1 H                                       1.0924611
    10   6 C       15   1 H                                       1.0982280
    10   6 C       16   1 H                                       1.0972130
    17   6 C       18   6 C                                       1.5279025
    17   6 C       20   1 H                                       1.0950853
    17   6 C       21   1 H                                       1.0932951
    17   6 C       22   1 H                                       1.0962668
    18   6 C       23   1 H                                       1.0983433
    18   6 C       24   1 H                                       1.0990163
    25   6 C       26   6 C                                       1.5276042
    25   6 C       28   1 H                                       1.0932611
    25   6 C       29   1 H                                       1.0951847
    25   6 C       30   1 H                                       1.0964298
    26   6 C       31   1 H                                       1.0987735
    26   6 C       32   1 H                                       1.0982277
    33   6 C       34   6 C                                       1.5241444
    34   6 C       35  16 S                                       1.8274766
    33   6 C       36   1 H                                       1.0930861
    33   6 C       37   1 H                                       1.0923897
    33   6 C       38   1 H                                       1.0938934
    34   6 C       39   1 H                                       1.0968816
    34   6 C       40   1 H                                       1.0965219
    41   6 C       42   6 C                                       1.5356109
    43   6 C       44   7 N                                       1.3868988
    44   7 N       45   6 C                                       1.4248910
    45   6 C       46   7 N                                       1.3751502
    43   6 C       47   6 C                                       1.3590870
    46   7 N       47   6 C                                       1.3774708
    41   6 C       48   1 H                                       1.0913418
    41   6 C       49   1 H                                       1.0929430
    41   6 C       50   1 H                                       1.0905718
    42   6 C       51   1 H                                       1.0963269
    42   6 C       52   1 H                                       1.0960485
    44   7 N       53   1 H                                       1.0077126
    45   6 C       54   1 H                                       1.0933767
    47   6 C       55   1 H                                       1.0837915
    11  16 S       56  26 Fe                                      2.1706637
     3  16 S       57  26 Fe                                      2.2183908
    19  16 S       58  26 Fe                                      2.2266876
    27  16 S       59  26 Fe                                      2.2318494
    58  26 Fe      60  16 S                                       2.1659274
    59  26 Fe      60  16 S                                       2.1795129
    56  26 Fe      61  16 S                                       2.1326028
    58  26 Fe      61  16 S                                       2.1595532
    59  26 Fe      61  16 S                                       2.1595815
    56  26 Fe      62  16 S                                       2.2506885
    57  26 Fe      62  16 S                                       2.1649245
    59  26 Fe      62  16 S                                       2.2319893
    58  26 Fe      63  16 S                                       2.3052985
    35  16 S       64  26 Fe                                      2.1964455
    59  26 Fe      64  26 Fe                                      2.5058367 (max)
    60  16 S       64  26 Fe                                      2.1362651
    62  16 S       64  26 Fe                                      2.2441885
    63  16 S       64  26 Fe                                      2.3271100
    63  16 S       65   6 C                                       1.7131389
    65   6 C       66   8 O                                       1.2318069
    65   6 C       67   8 O                                       1.3768737
    67   8 O       68   1 H                                       0.9639975 (min)

 * 9 distinct bonds (by element types)

   Z      Z             #   av. dist./Å        max./Å        min./Å
   1 H    6 C          32     1.0947701     1.0990163     1.0837915
   6 C    6 C           7     1.5039764     1.5356109     1.3590870
   1 H    7 N           1     1.0077126     1.0077126     1.0077126
   6 C    7 N           4     1.3911027     1.4248910     1.3751502
   1 H    8 O           1     0.9639975     0.9639975     0.9639975
Note: The following floating-point exceptions are signalling: IEEE_UNDERFLOW_FLAG IEEE_DENORMAL
normal termination of xtb
   6 C    8 O           2     1.3043403     1.3768737     1.2318069
   6 C   16 S           2     1.7703078     1.8274766     1.7131389
  16 S   26 Fe         17     2.2059811     2.3271100     2.1326028
  26 Fe  26 Fe          1     2.5058367     2.5058367     2.5058367


optimized geometry written to: xtbopt.xyz


           -------------------------------------------------
          | TOTAL ENERGY             -117.465443409284 Eh   |
          | GRADIENT NORM               0.002939355402 Eh/α |
          | HOMO-LUMO GAP               0.175263162087 eV   |
           -------------------------------------------------

------------------------------------------------------------------------
 * finished run on 2026/09/13 at 13:45:15.048     
------------------------------------------------------------------------
 total:
 * wall-time:     0 d,  0 h,  1 min, 11.239 sec
 *  cpu-time:     0 d,  0 h,  1 min, 33.617 sec
 * ratio c/w:     1.314 speedup
 SCF:
 * wall-time:     0 d,  0 h,  0 min,  7.618 sec
 *  cpu-time:     0 d,  0 h,  0 min,  8.391 sec
 * ratio c/w:     1.101 speedup
 ANC optimizer:
 * wall-time:     0 d,  0 h,  1 min,  3.570 sec
 *  cpu-time:     0 d,  0 h,  1 min, 24.902 sec
 * ratio c/w:     1.336 speedup

