68
 energy: -117.465443409284 gnorm: 0.002939355402 xtb: 6.6.1 (unknown)
C           52.83131540557761       14.68961790002298       53.79866371274677
C           53.11389449782730       15.92951241569019       52.95393873416739
S           53.97172341583023       15.53710347598362       51.39874694385417
H           52.36330301317690       14.95775533741463       54.75093293447115
H           52.16447062153276       14.00977613142637       53.26061056049242
H           53.76439348495281       14.16013401189044       54.00765625732769
H           52.17472073605330       16.47166606944633       52.77834323914253
H           53.77144955877909       16.60352690473231       53.51757750790198
C           47.99178216879251        8.75048919446304       49.34760664947592
C           48.94196549622694        9.87505516057578       49.75213091726282
S           49.96024876625602       10.32029659622001       48.30664507734780
H           47.33886008946025        8.45582925673689       50.17448667211530
H           47.36994601225409        9.07637713152723       48.51057438503668
H           48.56256903300773        7.87731210699320       49.02320702438539
H           48.35312590516013       10.74776522746680       50.06478028306150
H           49.54316796777105        9.55091046975387       50.61082877350167
C           57.79882382048085        8.20264717022488       47.00706411280589
C           56.54592121714274        7.45969121330631       46.54582968125563
S           55.23391176063998        8.59467643162919       45.99492079210842
H           58.58278363705415        7.50337955452357       47.31632673698660
H           58.18609735538498        8.82049693197586       46.19246309807476
H           57.56132888500512        8.86096611239743       47.85087277822019
H           56.80512062954968        6.82626330191673       45.68679393120323
H           56.19947811521840        6.79422949371358       47.34893272664137
C           57.54639751774718        9.37645397240342       51.86580544745073
C           56.27028315938193        8.71246988669446       52.37984001703568
S           54.83507518214491        9.83085638326240       52.33772018151980
H           57.75788645589730       10.27672566385650       52.44890316214316
H           58.40415678395995        8.70018849363926       51.94545015222378
H           57.42513966927954        9.66904734619316       50.81611804480511
H           56.08462899771470        7.78960261569940       51.81313769288191
H           56.41885747888039        8.42531006699493       53.42939643442015
C           54.71795732451611       16.68759698023256       47.33566173265773
C           54.65143844588324       15.18748311447281       47.07441569052352
S           54.96236581236452       14.31671518862696       48.65072710324747
H           53.96549639885787       16.97767840440393       48.07355890655112
H           55.69976227816628       16.94905483379167       47.73692712077326
H           54.55074657402611       17.26346729290212       46.42077571274265
H           53.68434163655753       14.92538760504168       46.62812128588913
H           55.43879725184351       14.91081380301147       46.36316310753305
C           51.75221395665321       18.87382649842157       50.64008998777489
C           50.62418000296631       18.24718426060857       49.80764820323224
C           50.81142958912069       16.76946740302762       49.67406863804192
N           50.49647856729412       15.89532014040161       50.70370945107380
C           51.01429532463490       14.62299721997236       50.32506150433453
N           51.36810508093036       14.68910764486340       48.99785171744266
C           51.30834661990126       16.02158992477308       48.65383832092930
H           51.69617709942639       18.52788481642947       51.67363291261115
H           52.72633037066393       18.59029826783196       50.23360113285420
H           51.66980625017320       19.96127125605382       50.63567456088378
H           49.66319881427859       18.47408766555927       50.28405396805558
H           50.61808856755820       18.70368238680195       48.81120734883263
H           50.42460937780874       16.20520266639949       51.65989573769954
H           50.41500788608150       13.77601192703014       50.66994243536506
H           51.56405972565998       16.36181693141387       47.65711354331923
Fe          52.07541047835087       10.33988491961491       48.79397182614719
Fe          52.96439354325221       14.13559877082916       50.00507276261084
Fe          54.42519923914032        9.68482749142287       47.76005291187843
Fe          54.21057284128860       10.23923106748135       50.23429963726275
S           55.94466344918566       10.63659558220028       48.97520998343329
S           53.24278218083517        8.60389955686866       49.20820827246168
S           52.81678101981324       11.98024765928209       50.14496312842569
S           53.10941469689059       11.39942984233215       46.95802410058139
Fe          54.49169998608544       12.17132928928135       48.66357350834321
C           53.07523504134162       11.40232717252888       45.24522884390846
O           52.21299192585704       10.89193570785669       44.52871975931077
O           54.02463086648869       12.21283081926295       44.66427090753402
H           53.87705021796419       12.21733374021543       43.71164784364102
