      -----------------------------------------------------------      
     |                   =====================                   |     
     |                           x T B                           |     
     |                   =====================                   |     
     |                         S. Grimme                         |     
     |          Mulliken Center for Theoretical Chemistry        |     
     |                    University of Bonn                     |     
      -----------------------------------------------------------      

   * xtb version 6.6.1 (unknown) compiled by 'builduser@buildhost' on 2023-08-07

   xtb is free software: you can redistribute it and/or modify it under
   the terms of the GNU Lesser General Public License as published by
   the Free Software Foundation, either version 3 of the License, or
   (at your option) any later version.
   
   xtb is distributed in the hope that it will be useful,
   but WITHOUT ANY WARRANTY; without even the implied warranty of
   MERCHANTABILITY or FITNESS FOR A PARTICULAR PURPOSE.  See the
   GNU Lesser General Public License for more details.
   
   Cite this work as:
   * C. Bannwarth, E. Caldeweyher, S. Ehlert, A. Hansen, P. Pracht,
     J. Seibert, S. Spicher, S. Grimme, WIREs Comput. Mol. Sci., 2020, 11,
     e01493. DOI: 10.1002/wcms.1493
   
   for GFN2-xTB:
   * C. Bannwarth, S. Ehlert and S. Grimme., J. Chem. Theory Comput., 2019,
     15, 1652-1671. DOI: 10.1021/acs.jctc.8b01176
   for GFN1-xTB:
   * S. Grimme, C. Bannwarth, P. Shushkov, J. Chem. Theory Comput., 2017,
     13, 1989-2009. DOI: 10.1021/acs.jctc.7b00118
   for GFN0-xTB:
   * P. Pracht, E. Caldeweyher, S. Ehlert, S. Grimme, ChemRxiv, 2019, preprint.
     DOI: 10.26434/chemrxiv.8326202.v1
   for GFN-FF:
   * S. Spicher and S. Grimme, Angew. Chem. Int. Ed., 2020, 59, 15665-15673.
     DOI: 10.1002/anie.202004239
   
   for ALPB and GBSA implicit solvation:
   * S. Ehlert, M. Stahn, S. Spicher, S. Grimme, J. Chem. Theory Comput.,
     2021, 17, 4250-4261. DOI: 10.1021/acs.jctc.1c00471
   
   for DFT-D4:
   * E. Caldeweyher, C. Bannwarth and S. Grimme, J. Chem. Phys., 2017,
     147, 034112. DOI: 10.1063/1.4993215
   * E. Caldeweyher, S. Ehlert, A. Hansen, H. Neugebauer, S. Spicher,
     C. Bannwarth and S. Grimme, J. Chem. Phys., 2019, 150, 154122.
     DOI: 10.1063/1.5090222
   * E. Caldeweyher, J.-M. Mewes, S. Ehlert and S. Grimme, Phys. Chem. Chem. Phys.
     2020, 22, 8499-8512. DOI: 10.1039/D0CP00502A
   
   for sTDA-xTB:
   * S. Grimme and C. Bannwarth, J. Chem. Phys., 2016, 145, 054103.
     DOI: 10.1063/1.4959605
   
   in the mass-spec context:
   * V. Asgeirsson, C. Bauer and S. Grimme, Chem. Sci., 2017, 8, 4879.
     DOI: 10.1039/c7sc00601b
   * J. Koopman and S. Grimme, ACS Omega 2019, 4, 12, 15120-15133.
     DOI: 10.1021/acsomega.9b02011
   
   for metadynamics refer to:
   * S. Grimme, J. Chem. Theory Comput., 2019, 155, 2847-2862
     DOI: 10.1021/acs.jctc.9b00143
   
   for SPH calculations refer to:
   * S. Spicher and S. Grimme, J. Chem. Theory Comput., 2021, 17, 1701-1714
     DOI: 10.1021/acs.jctc.0c01306
   
   with help from (in alphabetical order)
   P. Atkinson, C. Bannwarth, F. Bohle, G. Brandenburg, E. Caldeweyher
   M. Checinski, S. Dohm, S. Ehlert, S. Ehrlich, I. Gerasimov, C. Hölzer
   A. Katbashev, J. Koopman, C. Lavigne, S. Lehtola, F. März, M. Müller,
   F. Musil, H. Neugebauer, J. Pisarek, C. Plett, P. Pracht, F. Pultar,
   J. Seibert, P. Shushkov, S. Spicher, M. Stahn, M. Steiner, T. Strunk,
   J. Stückrath, T. Rose, and J. Unsleber
   
 * started run on 2026/09/13 at 13:39:56.977     

           -------------------------------------------------
          |                Calculation Setup                |
           -------------------------------------------------

          program call               : xtb structure.xyz --gfn 1 --chrg -3 --uhf 1 --alpb water
          coordinate file            : structure.xyz
          omp threads                :                     8

   ID    Z sym.   atoms
    1    6 C      1, 2, 9, 10, 17, 18, 25, 26, 33, 34, 41-43, 45, 47, 65
    2   16 S      3, 11, 19, 27, 35, 60-63
    3    1 H      4-8, 12-16, 20-24, 28-32, 36-40, 48-55, 68
    4    7 N      44, 46
    5   26 Fe     56-59, 64
    6    8 O      66, 67

molecular fragmentation (1/2 indicates fragments):
11111111111111111111111111111111111111111111111111111111111111111112
# atoms in fragment 1/2:    67     1
 fragment masses (1/2) :      853.25        1.01
CMA distance (Bohr)    :  11.944
constraining FC (au)   :  0.0500

           -------------------------------------------------
          |                 G F N 1 - x T B                 |
           -------------------------------------------------

        Reference                      10.1021/acs.jctc.7b00118
      * Hamiltonian:
        H0-scaling (s, p, d)           1.850000    2.250000    2.000000
        zeta-weighting                 0.000000
      * Dispersion:
        s8                             2.400000
        a1                             0.630000
        a2                             5.000000
        s9                             0.000000
      * Repulsion:
        kExp                           1.500000
        rExp                           1.000000
      * Coulomb:
        alpha                          2.000000
        third order                    atomic
        anisotropic                    false
      * Halogen bond correction:
        rad-scale                      1.300000
        damping                        0.440000

      * Solvation model:               ALPB
        Solvent                        water
        Parameter file                 internal GFN1-xTB/ALPB
        Dielectric constant                8.0200E+01
        Reference state                gsolv [1 M gas/solution]
        Free energy shift                  4.2456E-03 Eh       2.6642E+00 kcal/mol
        Temperature                        2.9815E+02 K
        Density                            1.0000E+00 kg/L
        Solvent mass                       1.8000E+01 g/mol
        Interaction kernel             P16
        Born radius scaling (c1)           1.9452E+00
        Born radii integrator          GBOBC
        Born offset                        0.0000E+00 a0       0.0000E+00 AA
        H-bond correction              true
        Ion screening                  false
        Surface tension                    1.0000E-05 Eh       1.5569E+01 dyn/cm
        Grid points                               230 per atom

          ...................................................
          :                      SETUP                      :
          :.................................................:
          :  # basis functions                 288          :
          :  # atomic orbitals                 274          :
          :  # shells                          150          :
          :  # electrons                       217          :
          :  # halogen bonds                     0          :
          :  max. iterations                   250          :
          :  Hamiltonian                  GFN1-xTB          :
          :  restarted?                      false          :
          :  GBSA solvation                   true          :
          :  PC potential                    false          :
          :  electronic temp.          300.0000000     K    :
          :  accuracy                    1.0000000          :
          :  -> integral cutoff          0.2500000E+02      :
          :  -> integral neglect         0.1000000E-07      :
          :  -> SCF convergence          0.1000000E-05 Eh   :
          :  -> wf. convergence          0.2000000E-04 e    :
          :  Broyden damping             0.4000000          :
          ...................................................

 iter      E             dE          RMSdq      gap      omega  full diag
   1    -85.9115821 -0.859116E+02  0.156E+01    0.09       0.0  T
   2      4.9256842  0.908373E+02  0.298E+01    0.06       1.0  T
   3    -74.4878424 -0.794135E+02  0.184E+01    0.08       1.0  T
   4    -28.8745443  0.456133E+02  0.159E+01    0.81       1.0  T
   5    -49.3527653 -0.204782E+02  0.142E+01    0.66       1.0  T
   6    -42.0142002  0.733857E+01  0.138E+01    0.25       1.0  T
   7   -100.3601941 -0.583460E+02  0.860E+00    0.10       1.0  T
   8    -42.0021908  0.583580E+02  0.143E+01    0.39       1.0  T
   9    -70.6790199 -0.286768E+02  0.120E+01    0.13       1.0  T
  10    -95.8637599 -0.251847E+02  0.900E+00    0.14       1.0  T
  11   -112.3109430 -0.164472E+02  0.526E+00    0.16       1.0  T
  12   -111.5554682  0.755475E+00  0.538E+00    0.13       1.0  T
  13   -102.6811604  0.887431E+01  0.771E+00    0.08       1.0  T
  14   -105.5203967 -0.283924E+01  0.692E+00    0.03       1.0  T
  15   -109.2188274 -0.369843E+01  0.591E+00    0.03       1.0  T
  16    -97.2871997  0.119316E+02  0.824E+00    0.06       1.0  T
  17    -91.0798087  0.620739E+01  0.950E+00    0.04       1.0  T
  18    -85.7244944  0.535531E+01  0.102E+01    0.12       1.0  T
  19    -87.9879311 -0.226344E+01  0.996E+00    0.07       1.0  T
  20    -89.8696658 -0.188173E+01  0.959E+00    0.06       1.0  T
  21    -99.9781231 -0.101085E+02  0.777E+00    0.06       1.0  T
  22   -101.5623128 -0.158419E+01  0.778E+00    0.09       1.0  T
  23   -103.0918163 -0.152950E+01  0.744E+00    0.09       1.0  T
  24   -106.3013423 -0.320953E+01  0.681E+00    0.02       1.0  T
  25   -106.6398582 -0.338516E+00  0.673E+00    0.02       1.0  T
  26   -111.4105480 -0.477069E+01  0.547E+00    0.06       1.0  T
  27   -111.4801917 -0.696437E-01  0.545E+00    0.06       1.0  T
  28   -109.6908856  0.178931E+01  0.581E+00    0.01       1.0  T
  29   -111.2718913 -0.158101E+01  0.541E+00    0.09       1.0  T
  30   -111.2859656 -0.140744E-01  0.538E+00    0.07       1.0  T
  31   -112.9913392 -0.170537E+01  0.458E+00    0.02       1.0  T
  32   -113.7366048 -0.745266E+00  0.418E+00    0.06       1.0  T
  33   -115.5815592 -0.184495E+01  0.316E+00    0.03       1.0  T
  34   -117.4994468 -0.191789E+01  0.224E+00    0.12       1.0  T
  35   -117.3587701  0.140677E+00  0.184E+00    0.02       1.0  T
  36   -117.9418684 -0.583098E+00  0.115E+00    0.06       1.0  T
  37   -118.1942488 -0.252380E+00  0.511E-01    0.06       1.0  T
  38   -118.0457458  0.148503E+00  0.891E-01    0.05       1.0  T
  39   -118.0451265  0.619340E-03  0.899E-01    0.04       1.0  T
  40   -118.1590293 -0.113903E+00  0.617E-01    0.05       1.0  T
  41   -118.2033540 -0.443247E-01  0.427E-01    0.05       1.0  T
  42   -118.2272882 -0.239342E-01  0.297E-01    0.06       1.0  T
  43   -118.2424393 -0.151512E-01  0.134E-01    0.06       1.0  T
  44   -118.2449935 -0.255417E-02  0.898E-02    0.06       1.0  T
  45   -118.2418652  0.312832E-02  0.207E-01    0.06       1.0  T
  46   -118.2449551 -0.308989E-02  0.807E-02    0.06       1.0  T
  47   -118.2455184 -0.563323E-03  0.716E-02    0.06       1.0  T
  48   -118.2465106 -0.992178E-03  0.311E-02    0.06       1.0  T
  49   -118.2466845 -0.173893E-03  0.110E-02    0.06       1.1  T
  50   -118.2467097 -0.252709E-04  0.475E-03    0.06       2.6  T
  51   -118.2467120 -0.229039E-05  0.246E-03    0.06       4.9  T
  52   -118.2467130 -0.935957E-06  0.127E-03    0.06       9.6  T
  53   -118.2467131 -0.118334E-06  0.102E-03    0.06      11.9  T
  54   -118.2467133 -0.222855E-06  0.448E-04    0.06      27.0  T
  55   -118.2467134 -0.356549E-07  0.190E-04    0.06      63.7  T
  56   -118.2467134 -0.414667E-08  0.128E-04    0.06      94.4  T

   *** convergence criteria satisfied after 56 iterations ***

         #    Occupation            Energy/Eh            Energy/eV
      -------------------------------------------------------------
         1        2.0000           -0.8190575             -22.2877
       ...           ...                  ...                  ...
       103        2.0000           -0.2884536              -7.8492
       104        1.9998           -0.2866502              -7.8001
       105        1.9990           -0.2849226              -7.7531
       106        1.9141           -0.2806048              -7.6356
       107        1.8313           -0.2799006              -7.6165
       108        1.5917           -0.2788618              -7.5882
       109        1.2908           -0.2780420              -7.5659 (HOMO)
       110        0.3732           -0.2757617              -7.5039 (LUMO)
       111        0.0001           -0.2675880              -7.2814
       112        0.0000           -0.2630439              -7.1578
       113                         -0.2594710              -7.0606
       114                         -0.2568111              -6.9882
       ...                                ...                  ...
       274                         13.1542785             357.9461
      -------------------------------------------------------------
                  HL-Gap            0.0022803 Eh            0.0621 eV
             Fermi-level           -0.2773701 Eh           -7.5476 eV

 SCC (total)                   0 d,  0 h,  0 min,  6.724 sec
 SCC setup                      ...        0 min,  0.004 sec (  0.057%)
 Dispersion                     ...        0 min,  0.001 sec (  0.015%)
 classical contributions        ...        0 min,  0.000 sec (  0.006%)
 integral evaluation            ...        0 min,  0.028 sec (  0.423%)
 iterations                     ...        0 min,  6.497 sec ( 96.625%)
 molecular gradient             ...        0 min,  0.077 sec (  1.148%)
 printout                       ...        0 min,  0.116 sec (  1.724%)

         :::::::::::::::::::::::::::::::::::::::::::::::::::::
         ::                     SUMMARY                     ::
         :::::::::::::::::::::::::::::::::::::::::::::::::::::
         :: total energy            -117.403134511333 Eh    ::
         :: total w/o Gsasa/hb      -117.394376257003 Eh    ::
         :: gradient norm              0.072466740836 Eh/a0 ::
         :: HOMO-LUMO gap              0.062050310283 eV    ::
         ::.................................................::
         :: SCC energy              -118.246713355634 Eh    ::
         :: -> electrostatic           0.715901457620 Eh    ::
         :: -> Gsolv                  -0.410809045793 Eh    ::
         ::    -> Gelec               -0.402050791463 Eh    ::
         ::    -> Gsasa               -0.005007805561 Eh    ::
         ::    -> Ghb                 -0.007996055441 Eh    ::
         ::    -> Gshift               0.004245606671 Eh    ::
         :: repulsion energy           0.909083462468 Eh    ::
         :: dispersion energy         -0.065504618168 Eh    ::
         :: halogen bond corr.         0.000000000000 Eh    ::
         :: add. restraining           0.000000000000 Eh    ::
         :: total charge              -2.999999999956 e     ::
         :::::::::::::::::::::::::::::::::::::::::::::::::::::

           -------------------------------------------------
          |                Property Printout                |
           -------------------------------------------------

    * Orbital Energies and Occupations

         #    Occupation            Energy/Eh            Energy/eV
      -------------------------------------------------------------
         1        2.0000           -0.8190575             -22.2877
       ...           ...                  ...                  ...
        97        2.0000           -0.2968623              -8.0780
        98        2.0000           -0.2958853              -8.0514
        99        2.0000           -0.2950118              -8.0277
       100        2.0000           -0.2935832              -7.9888
       101        2.0000           -0.2911431              -7.9224
       102        2.0000           -0.2902764              -7.8988
       103        2.0000           -0.2884536              -7.8492
       104        1.9998           -0.2866502              -7.8001
       105        1.9990           -0.2849226              -7.7531
       106        1.9141           -0.2806048              -7.6356
       107        1.8313           -0.2799006              -7.6165
       108        1.5917           -0.2788618              -7.5882
       109        1.2908           -0.2780420              -7.5659 (HOMO)
       110        0.3732           -0.2757617              -7.5039 (LUMO)
       111        0.0001           -0.2675880              -7.2814
       112        0.0000           -0.2630439              -7.1578
       113                         -0.2594710              -7.0606
       114                         -0.2568111              -6.9882
       115                         -0.2523405              -6.8665
       116                         -0.2495834              -6.7915
       117                         -0.2366941              -6.4408
       118                         -0.2343097              -6.3759
       119                         -0.2314389              -6.2978
       120                         -0.2015008              -5.4831
       ...                                ...                  ...
       274                         13.1542785             357.9461
      -------------------------------------------------------------
                  HL-Gap            0.0022803 Eh            0.0621 eV
             Fermi-level           -0.2773701 Eh           -7.5476 eV

  Mulliken/CM5 charges         n(s)   n(p)   n(d)
     1C    -0.07011 -0.21839   1.007  3.063  0.000
     2C     0.01440 -0.07954   1.031  2.955  0.000
     3S    -0.24377 -0.33003   1.899  4.350 -0.006
     4H     0.00739  0.05802   0.993  0.000  0.000
     5H     0.01504  0.06768   0.985  0.000  0.000
     6H     0.01097  0.06299   0.989  0.000  0.000
     7H    -0.00685  0.05019   1.007  0.000  0.000
     8H    -0.00886  0.04641   1.009  0.000  0.000
     9C    -0.07491 -0.22286   1.007  3.068  0.000
    10C     0.02054 -0.07358   1.028  2.952  0.000
    11S    -0.25835 -0.34456   1.896  4.372 -0.010
    12H     0.00607  0.05666   0.994  0.000  0.000
    13H     0.00435  0.05661   0.996  0.000  0.000
    14H     0.00733  0.05965   0.993  0.000  0.000
    15H    -0.01387  0.04072   1.014  0.000  0.000
    16H     0.00122  0.05592   0.999  0.000  0.000
    17C    -0.07002 -0.21772   1.006  3.064  0.000
    18C     0.02188 -0.07185   1.027  2.951  0.000
    19S    -0.26757 -0.34824   1.897  4.381 -0.010
    20H     0.00056  0.05112   0.999  0.000  0.000
    21H     0.00189  0.05394   0.998  0.000  0.000
    22H     0.01134  0.06584   0.989  0.000  0.000
    23H    -0.01753  0.03754   1.018  0.000  0.000
    24H    -0.00614  0.04823   1.006  0.000  0.000
    25C    -0.07102 -0.21866   1.007  3.064  0.000
    26C     0.02380 -0.06983   1.027  2.949  0.000
    27S    -0.27535 -0.35546   1.897  4.389 -0.010
    28H     0.00227  0.05426   0.998  0.000  0.000
    29H     0.00036  0.05088   1.000  0.000  0.000
    30H     0.01209  0.06689   0.988  0.000  0.000
    31H    -0.00649  0.04790   1.006  0.000  0.000
    32H    -0.01702  0.03812   1.017  0.000  0.000
    33C    -0.06793 -0.21614   1.006  3.062  0.000
    34C     0.03318 -0.06155   1.029  2.938  0.000
    35S    -0.13205 -0.25745   1.885  4.254 -0.008
    36H     0.01472  0.06851   0.985  0.000  0.000
    37H     0.00656  0.05898   0.993  0.000  0.000
    38H     0.00720  0.05786   0.993  0.000  0.000
    39H     0.00967  0.06494   0.990  0.000  0.000
    40H    -0.00239  0.05268   1.002  0.000  0.000
    41C    -0.07023 -0.21973   1.006  3.064  0.000
    42C    -0.04343 -0.14432   1.024  3.020  0.000
    43C     0.07476  0.12916   1.054  2.871  0.000
    44N    -0.35005 -0.69494   1.461  3.889  0.000
    45C     0.16808  0.19890   1.028  2.804  0.000
    46N    -0.33648 -0.61379   1.556  3.781  0.000
    47C     0.05999  0.08067   1.013  2.927  0.000
    48H     0.02410  0.07721   0.976  0.000  0.000
    49H     0.02392  0.07643   0.976  0.000  0.000
    50H     0.02207  0.07324   0.978  0.000  0.000
    51H     0.02039  0.07702   0.980  0.000  0.000
    52H     0.01830  0.07367   0.982  0.000  0.000
    53H     0.21307  0.40695   0.787  0.000  0.000
    54H    -0.00938  0.06287   1.009  0.000  0.000
    55H    -0.00925  0.05490   1.009  0.000  0.000
    56Fe   -0.02227  0.24010   0.158  0.951  6.913
    57Fe   -0.02898  0.30785   0.177  0.921  6.931
    58Fe   -0.01938  0.25151   0.165  0.965  6.890
    59Fe   -0.02187  0.24934   0.162  0.974  6.886
    60S    -0.07585 -0.30732   1.870  4.225 -0.018
    61S    -0.09331 -0.32121   1.866  4.246 -0.019
    62S     0.02653 -0.22871   1.858  4.131 -0.015
    63S     0.02014 -0.17093   1.866  4.117 -0.003
    64Fe   -0.01015  0.25526   0.136  0.932  6.942
    65C     0.61915  0.69584   0.965  2.416  0.000
    66O    -0.67411 -0.71119   1.749  4.925  0.000
    67O    -0.63664 -0.67756   1.745  4.891  0.000
    68H    -0.51170 -0.50787   1.512  0.000  0.000

Wiberg/Mayer (AO) data.
largest (>0.10) Wiberg bond orders for each atom

 ---------------------------------------------------------------------------
     #   Z sym  total        # sym  WBO       # sym  WBO       # sym  WBO
 ---------------------------------------------------------------------------
     1   6 C    3.993 --     2 C    1.018     6 H    0.988     4 H    0.985
                             5 H    0.982
     2   6 C    3.991 --     1 C    1.018     8 H    0.983     7 H    0.974
                             3 S    0.967
     3  16 S    2.099 --     2 C    0.967    57 Fe   0.956
     4   1 H    1.007 --     1 C    0.985
     5   1 H    1.018 --     1 C    0.982
     6   1 H    1.017 --     1 C    0.988
     7   1 H    1.021 --     2 C    0.974
     8   1 H    1.025 --     2 C    0.983
     9   6 C    3.992 --    10 C    1.019    13 H    0.988    14 H    0.988
                            12 H    0.985
    10   6 C    3.990 --     9 C    1.019    15 H    0.986    16 H    0.981
                            11 S    0.968
    11  16 S    2.099 --    10 C    0.968    56 Fe   0.837
    12   1 H    1.006 --     9 C    0.985
    13   1 H    1.022 --     9 C    0.988
    14   1 H    1.024 --     9 C    0.988
    15   1 H    1.023 --    10 C    0.986
    16   1 H    1.014 --    10 C    0.981
    17   6 C    3.989 --    18 C    1.018    21 H    0.989    20 H    0.985
                            22 H    0.973
    18   6 C    3.989 --    17 C    1.018    24 H    0.984    23 H    0.984
                            19 S    0.973
    19  16 S    2.071 --    18 C    0.973    58 Fe   0.803
    20   1 H    1.008 --    17 C    0.985
    21   1 H    1.021 --    17 C    0.989
    22   1 H    1.039 --    17 C    0.973
    23   1 H    1.024 --    18 C    0.984
    24   1 H    1.015 --    18 C    0.984
    25   6 C    3.988 --    26 C    1.018    28 H    0.989    29 H    0.985
                            30 H    0.972
    26   6 C    3.988 --    25 C    1.018    31 H    0.984    32 H    0.984
                            27 S    0.972
    27  16 S    2.055 --    26 C    0.972    59 Fe   0.793
    28   1 H    1.019 --    25 C    0.989
    29   1 H    1.008 --    25 C    0.985
    30   1 H    1.040 --    25 C    0.972
    31   1 H    1.015 --    26 C    0.984
    32   1 H    1.024 --    26 C    0.984
    33   6 C    3.993 --    34 C    1.022    37 H    0.988    38 H    0.984
                            36 H    0.981
    34   6 C    3.982 --    33 C    1.022    40 H    0.985    39 H    0.983
                            35 S    0.937
    35  16 S    2.379 --    34 C    0.937    64 Fe   0.708    57 Fe   0.489
    36   1 H    1.025 --    33 C    0.981
    37   1 H    1.019 --    33 C    0.988
    38   1 H    1.006 --    33 C    0.984
    39   1 H    1.011 --    34 C    0.983
    40   1 H    1.023 --    34 C    0.985
    41   6 C    3.997 --    42 C    0.999    50 H    0.988    49 H    0.987
                            48 H    0.986
    42   6 C    3.998 --    43 C    1.014    41 C    0.999    52 H    0.979
                            51 H    0.975
    43   6 C    3.930 --    47 C    1.596    44 N    1.122    42 C    1.014
    44   7 N    3.287 --    43 C    1.122    45 C    1.003    53 H    0.916
    45   6 C    3.841 --    46 N    1.227    44 N    1.003    54 H    0.949
                            57 Fe   0.518
    46   7 N    3.141 --    45 C    1.227    47 C    1.206    57 Fe   0.569
    47   6 C    3.965 --    43 C    1.596    46 N    1.206    55 H    0.974
    48   1 H    1.010 --    41 C    0.986
    49   1 H    1.013 --    41 C    0.987
    50   1 H    1.005 --    41 C    0.988
    51   1 H    1.007 --    42 C    0.975
    52   1 H    1.009 --    42 C    0.979
    53   1 H    0.964 --    44 N    0.916
Note: The following floating-point exceptions are signalling: IEEE_UNDERFLOW_FLAG IEEE_DENORMAL
normal termination of xtb
    54   1 H    1.028 --    45 C    0.949
    55   1 H    1.009 --    47 C    0.974
    56  26 Fe   5.225 --    61 S    0.843    11 S    0.837    59 Fe   0.707
                            58 Fe   0.698    62 S    0.650    63 S    0.562
                            64 Fe   0.409    57 Fe   0.211
    57  26 Fe   4.359 --     3 S    0.956    62 S    0.706    46 N    0.569
                            45 C    0.518    35 S    0.489    64 Fe   0.366
                            56 Fe   0.211    59 Fe   0.168
    58  26 Fe   5.357 --    61 S    0.840    19 S    0.803    60 S    0.793
                            56 Fe   0.698    63 S    0.657    59 Fe   0.648
                            64 Fe   0.645
    59  26 Fe   5.522 --    61 S    0.834    60 S    0.816    27 S    0.793
                            56 Fe   0.707    64 Fe   0.675    58 Fe   0.648
                            62 S    0.634    57 Fe   0.168
    60  16 S    2.702 --    64 Fe   0.866    59 Fe   0.816    58 Fe   0.793
    61  16 S    2.659 --    56 Fe   0.843    58 Fe   0.840    59 Fe   0.834
    62  16 S    2.781 --    57 Fe   0.706    64 Fe   0.663    56 Fe   0.650
                            59 Fe   0.634
    63  16 S    2.722 --    65 C    0.710    58 Fe   0.657    64 Fe   0.570
                            56 Fe   0.562
    64  26 Fe   5.239 --    60 S    0.866    35 S    0.708    59 Fe   0.675
                            62 S    0.663    58 Fe   0.645    63 S    0.570
                            56 Fe   0.409    57 Fe   0.366
    65   6 C    3.864 --    67 O    1.544    66 O    1.522    63 S    0.710
    66   8 O    1.818 --    65 C    1.522    67 O    0.177
    67   8 O    1.860 --    65 C    1.544    66 O    0.177
    68   1 H    0.030
 ---------------------------------------------------------------------------

Topologies differ in total number of bonds
Writing topology from bond orders to xtbtopo.mol

 dipole moment from electron density (au)
     X       Y       Z   
-304.2037 -65.8007-266.4368  total (Debye): 1041.366


           -------------------------------------------------
          | TOTAL ENERGY             -117.403134511333 Eh   |
          | GRADIENT NORM               0.072466740836 Eh/α |
          | HOMO-LUMO GAP               0.062050310283 eV   |
           -------------------------------------------------

------------------------------------------------------------------------
 * finished run on 2026/09/13 at 13:40:03.760     
------------------------------------------------------------------------
 total:
 * wall-time:     0 d,  0 h,  0 min,  6.782 sec
 *  cpu-time:     0 d,  0 h,  0 min,  7.839 sec
 * ratio c/w:     1.156 speedup
 SCF:
 * wall-time:     0 d,  0 h,  0 min,  6.725 sec
 *  cpu-time:     0 d,  0 h,  0 min,  7.492 sec
 * ratio c/w:     1.114 speedup

