      -----------------------------------------------------------      
     |                   =====================                   |     
     |                           x T B                           |     
     |                   =====================                   |     
     |                         S. Grimme                         |     
     |          Mulliken Center for Theoretical Chemistry        |     
     |                    University of Bonn                     |     
      -----------------------------------------------------------      

   * xtb version 6.6.1 (unknown) compiled by 'builduser@buildhost' on 2023-08-07

   xtb is free software: you can redistribute it and/or modify it under
   the terms of the GNU Lesser General Public License as published by
   the Free Software Foundation, either version 3 of the License, or
   (at your option) any later version.
   
   xtb is distributed in the hope that it will be useful,
   but WITHOUT ANY WARRANTY; without even the implied warranty of
   MERCHANTABILITY or FITNESS FOR A PARTICULAR PURPOSE.  See the
   GNU Lesser General Public License for more details.
   
   Cite this work as:
   * C. Bannwarth, E. Caldeweyher, S. Ehlert, A. Hansen, P. Pracht,
     J. Seibert, S. Spicher, S. Grimme, WIREs Comput. Mol. Sci., 2020, 11,
     e01493. DOI: 10.1002/wcms.1493
   
   for GFN2-xTB:
   * C. Bannwarth, S. Ehlert and S. Grimme., J. Chem. Theory Comput., 2019,
     15, 1652-1671. DOI: 10.1021/acs.jctc.8b01176
   for GFN1-xTB:
   * S. Grimme, C. Bannwarth, P. Shushkov, J. Chem. Theory Comput., 2017,
     13, 1989-2009. DOI: 10.1021/acs.jctc.7b00118
   for GFN0-xTB:
   * P. Pracht, E. Caldeweyher, S. Ehlert, S. Grimme, ChemRxiv, 2019, preprint.
     DOI: 10.26434/chemrxiv.8326202.v1
   for GFN-FF:
   * S. Spicher and S. Grimme, Angew. Chem. Int. Ed., 2020, 59, 15665-15673.
     DOI: 10.1002/anie.202004239
   
   for ALPB and GBSA implicit solvation:
   * S. Ehlert, M. Stahn, S. Spicher, S. Grimme, J. Chem. Theory Comput.,
     2021, 17, 4250-4261. DOI: 10.1021/acs.jctc.1c00471
   
   for DFT-D4:
   * E. Caldeweyher, C. Bannwarth and S. Grimme, J. Chem. Phys., 2017,
     147, 034112. DOI: 10.1063/1.4993215
   * E. Caldeweyher, S. Ehlert, A. Hansen, H. Neugebauer, S. Spicher,
     C. Bannwarth and S. Grimme, J. Chem. Phys., 2019, 150, 154122.
     DOI: 10.1063/1.5090222
   * E. Caldeweyher, J.-M. Mewes, S. Ehlert and S. Grimme, Phys. Chem. Chem. Phys.
     2020, 22, 8499-8512. DOI: 10.1039/D0CP00502A
   
   for sTDA-xTB:
   * S. Grimme and C. Bannwarth, J. Chem. Phys., 2016, 145, 054103.
     DOI: 10.1063/1.4959605
   
   in the mass-spec context:
   * V. Asgeirsson, C. Bauer and S. Grimme, Chem. Sci., 2017, 8, 4879.
     DOI: 10.1039/c7sc00601b
   * J. Koopman and S. Grimme, ACS Omega 2019, 4, 12, 15120-15133.
     DOI: 10.1021/acsomega.9b02011
   
   for metadynamics refer to:
   * S. Grimme, J. Chem. Theory Comput., 2019, 155, 2847-2862
     DOI: 10.1021/acs.jctc.9b00143
   
   for SPH calculations refer to:
   * S. Spicher and S. Grimme, J. Chem. Theory Comput., 2021, 17, 1701-1714
     DOI: 10.1021/acs.jctc.0c01306
   
   with help from (in alphabetical order)
   P. Atkinson, C. Bannwarth, F. Bohle, G. Brandenburg, E. Caldeweyher
   M. Checinski, S. Dohm, S. Ehlert, S. Ehrlich, I. Gerasimov, C. Hölzer
   A. Katbashev, J. Koopman, C. Lavigne, S. Lehtola, F. März, M. Müller,
   F. Musil, H. Neugebauer, J. Pisarek, C. Plett, P. Pracht, F. Pultar,
   J. Seibert, P. Shushkov, S. Spicher, M. Stahn, M. Steiner, T. Strunk,
   J. Stückrath, T. Rose, and J. Unsleber
   
 * started run on 2026/09/12 at 19:09:37.801     

           -------------------------------------------------
          |                Calculation Setup                |
           -------------------------------------------------

          program call               : xtb start.xyz --gfn 1 --chrg -4 --uhf 1 --alpb water --opt loose
          coordinate file            : start.xyz
          omp threads                :                     8

   ID    Z sym.   atoms
    1    6 C      1, 2, 9, 10, 17, 18, 25, 26, 33, 34, 41-43, 45, 47, 65
    2   16 S      3, 11, 19, 27, 35, 60-63
    3    1 H      4-8, 12-16, 20-24, 28-32, 36-40, 48-55
    4    7 N      44, 46
    5   26 Fe     56-59
    6   28 Ni     64
    7    8 O      66, 67

molecular fragmentation (1/2 indicates fragments):
1111111111111111111111111111111111111111222222222222222111111111112
# atoms in fragment 1/2:    51    16
 fragment masses (1/2) :      743.97      112.13
CMA distance (Bohr)    :  10.525
constraining FC (au)   :  0.0500

           -------------------------------------------------
          |                 G F N 1 - x T B                 |
           -------------------------------------------------

        Reference                      10.1021/acs.jctc.7b00118
      * Hamiltonian:
        H0-scaling (s, p, d)           1.850000    2.250000    2.000000
        zeta-weighting                 0.000000
      * Dispersion:
        s8                             2.400000
        a1                             0.630000
        a2                             5.000000
        s9                             0.000000
      * Repulsion:
        kExp                           1.500000
        rExp                           1.000000
      * Coulomb:
        alpha                          2.000000
        third order                    atomic
        anisotropic                    false
      * Halogen bond correction:
        rad-scale                      1.300000
        damping                        0.440000

      * Solvation model:               ALPB
        Solvent                        water
        Parameter file                 internal GFN1-xTB/ALPB
        Dielectric constant                8.0200E+01
        Reference state                gsolv [1 M gas/solution]
        Free energy shift                  4.2456E-03 Eh       2.6642E+00 kcal/mol
        Temperature                        2.9815E+02 K
        Density                            1.0000E+00 kg/L
        Solvent mass                       1.8000E+01 g/mol
        Interaction kernel             P16
        Born radius scaling (c1)           1.9452E+00
        Born radii integrator          GBOBC
        Born offset                        0.0000E+00 a0       0.0000E+00 AA
        H-bond correction              true
        Ion screening                  false
        Surface tension                    1.0000E-05 Eh       1.5569E+01 dyn/cm
        Grid points                               230 per atom

          ...................................................
          :                      SETUP                      :
          :.................................................:
          :  # basis functions                 286          :
          :  # atomic orbitals                 272          :
          :  # shells                          148          :
          :  # electrons                       219          :
          :  # halogen bonds                     0          :
          :  max. iterations                   250          :
          :  Hamiltonian                  GFN1-xTB          :
          :  restarted?                      false          :
          :  GBSA solvation                   true          :
          :  PC potential                    false          :
          :  electronic temp.          300.0000000     K    :
          :  accuracy                    1.0000000          :
          :  -> integral cutoff          0.2500000E+02      :
          :  -> integral neglect         0.1000000E-07      :
          :  -> SCF convergence          0.1000000E-05 Eh   :
          :  -> wf. convergence          0.2000000E-04 e    :
          :  Broyden damping             0.4000000          :
          ...................................................

 iter      E             dE          RMSdq      gap      omega  full diag
   1    -93.8830783 -0.938831E+02  0.145E+01    0.29       0.0  T
   2     22.7960586  0.116679E+03  0.257E+01    0.17       1.0  T
   3    -86.0977119 -0.108894E+03  0.145E+01    0.11       1.0  T
   4    -58.2896793  0.278080E+02  0.135E+01    0.13       1.0  T
   5    -56.8511845  0.143849E+01  0.133E+01    0.09       1.0  T
   6    -71.7019422 -0.148508E+02  0.118E+01    0.35       1.0  T
   7   -109.6546397 -0.379527E+02  0.754E+00    0.11       1.0  T
   8    -91.2621478  0.183925E+02  0.971E+00    0.15       1.0  T
   9    -80.4483510  0.108138E+02  0.106E+01    0.05       1.0  T
  10    -94.7805950 -0.143322E+02  0.880E+00    0.27       1.0  T
  11    -97.1749168 -0.239432E+01  0.839E+00    0.30       1.0  T
  12   -116.2051247 -0.190302E+02  0.386E+00    0.07       1.0  T
  13    -99.7289767  0.164761E+02  0.832E+00    0.31       1.0  T
  14   -101.5648826 -0.183591E+01  0.789E+00    0.10       1.0  T
  15   -100.8304626  0.734420E+00  0.796E+00    0.06       1.0  T
  16   -101.2989026 -0.468440E+00  0.790E+00    0.13       1.0  T
  17   -114.7130495 -0.134141E+02  0.490E+00    0.24       1.0  T
  18   -103.4316554  0.112814E+02  0.779E+00    0.10       1.0  T
  19   -104.6480858 -0.121643E+01  0.740E+00    0.08       1.0  T
  20    -83.6953926  0.209527E+02  0.111E+01    0.27       1.0  T
  21    -84.8443741 -0.114898E+01  0.109E+01    0.23       1.0  T
  22   -106.2661832 -0.214218E+02  0.691E+00    0.19       1.0  T
  23   -108.0713313 -0.180515E+01  0.647E+00    0.16       1.0  T
  24   -108.7709037 -0.699572E+00  0.634E+00    0.15       1.0  T
  25   -109.2417195 -0.470816E+00  0.621E+00    0.15       1.0  T
  26   -112.6088909 -0.336717E+01  0.522E+00    0.04       1.0  T
  27   -115.7599428 -0.315105E+01  0.410E+00    0.21       1.0  T
  28   -116.0777099 -0.317767E+00  0.385E+00    0.23       1.0  T
  29   -117.3143857 -0.123668E+01  0.299E+00    0.01       1.0  T
  30   -115.6315465  0.168284E+01  0.372E+00    0.23       1.0  T
  31   -118.6233147 -0.299177E+01  0.148E+00    0.09       1.0  T
  32   -118.8455827 -0.222268E+00  0.107E+00    0.11       1.0  T
  33   -118.6576470  0.187936E+00  0.132E+00    0.14       1.0  T
  34   -118.9750945 -0.317447E+00  0.648E-01    0.13       1.0  T
  35   -118.9458114  0.292831E-01  0.717E-01    0.12       1.0  T
  36   -119.0010154 -0.552040E-01  0.501E-01    0.13       1.0  T
  37   -119.0434132 -0.423978E-01  0.257E-01    0.13       1.0  T
  38   -119.0481443 -0.473107E-02  0.218E-01    0.13       1.0  T
  39   -119.0462689  0.187539E-02  0.233E-01    0.13       1.0  T
  40   -119.0504500 -0.418113E-02  0.194E-01    0.13       1.0  T
  41   -119.0493671  0.108295E-02  0.202E-01    0.13       1.0  T
  42   -119.0519313 -0.256416E-02  0.175E-01    0.13       1.0  T
  43   -119.0528723 -0.941036E-03  0.163E-01    0.13       1.0  T
  44   -119.0562589 -0.338657E-02  0.113E-01    0.13       1.0  T
  45   -119.0575090 -0.125018E-02  0.869E-02    0.11       1.0  T
  46   -119.0582116 -0.702568E-03  0.703E-02    0.13       1.0  T
  47   -119.0591054 -0.893783E-03  0.356E-02    0.11       1.0  T
  48   -119.0593297 -0.224308E-03  0.178E-02    0.12       1.0  T
  49   -119.0593217  0.802983E-05  0.178E-02    0.12       1.0  T
  50   -119.0593636 -0.419509E-04  0.879E-03    0.11       1.4  T
  51   -119.0593703 -0.663057E-05  0.658E-03    0.11       1.9  T
  52   -119.0593714 -0.117540E-05  0.524E-03    0.11       2.3  T
  53   -119.0593777 -0.627509E-05  0.205E-03    0.11       6.0  T
  54   -119.0593786 -0.900920E-06  0.964E-04    0.11      12.7  T
  55   -119.0593788 -0.187127E-06  0.448E-04    0.11      27.3  T
  56   -119.0593788 -0.416992E-07  0.187E-04    0.11      65.2  T
  57   -119.0593788 -0.726796E-08  0.928E-05    0.11     131.6  T

   *** convergence criteria satisfied after 57 iterations ***

         #    Occupation            Energy/Eh            Energy/eV
      -------------------------------------------------------------
         1        2.0000           -0.7536672             -20.5083
       ...           ...                  ...                  ...
       104        2.0000           -0.2190889              -5.9617
       105        2.0000           -0.2177528              -5.9254
       106        1.9999           -0.2152555              -5.8574
       107        1.9998           -0.2147383              -5.8433
       108        1.9915           -0.2110478              -5.7429
       109        1.9329           -0.2090322              -5.6881
       110        0.9522           -0.2041143              -5.5542 (HOMO)
       111        0.0914           -0.2000402              -5.4434 (LUMO)
       112        0.0324           -0.1989959              -5.4150
       113        0.0000           -0.1886189              -5.1326
       114                         -0.1848833              -5.0309
       115                         -0.1836416              -4.9971
       ...                                ...                  ...
       272                         14.2409422             387.5158
      -------------------------------------------------------------
                  HL-Gap            0.0040742 Eh            0.1109 eV
             Fermi-level           -0.2043773 Eh           -5.5614 eV

 SCC (total)                   0 d,  0 h,  0 min,  7.334 sec
 SCC setup                      ...        0 min,  0.004 sec (  0.049%)
 Dispersion                     ...        0 min,  0.002 sec (  0.029%)
 classical contributions        ...        0 min,  0.000 sec (  0.005%)
 integral evaluation            ...        0 min,  0.037 sec (  0.503%)
 iterations                     ...        0 min,  7.047 sec ( 96.094%)
 molecular gradient             ...        0 min,  0.115 sec (  1.572%)
 printout                       ...        0 min,  0.128 sec (  1.747%)

         :::::::::::::::::::::::::::::::::::::::::::::::::::::
         ::                     SUMMARY                     ::
         :::::::::::::::::::::::::::::::::::::::::::::::::::::
         :: total energy            -118.235762222853 Eh    ::
         :: total w/o Gsasa/hb      -118.231297680081 Eh    ::
         :: gradient norm              0.111255629646 Eh/a0 ::
         :: HOMO-LUMO gap              0.110863337446 eV    ::
         ::.................................................::
         :: SCC energy              -119.059378845137 Eh    ::
         :: -> electrostatic           1.103120560336 Eh    ::
         :: -> Gsolv                  -0.698718420536 Eh    ::
         ::    -> Gelec               -0.694253877763 Eh    ::
         ::    -> Gsasa               -0.006187913826 Eh    ::
         ::    -> Ghb                 -0.002522235617 Eh    ::
         ::    -> Gshift               0.004245606671 Eh    ::
         :: repulsion energy           0.888513444504 Eh    ::
         :: dispersion energy         -0.064896822220 Eh    ::
         :: halogen bond corr.         0.000000000000 Eh    ::
         :: add. restraining           0.000000000000 Eh    ::
         :: total charge              -3.999999999994 e     ::
         :::::::::::::::::::::::::::::::::::::::::::::::::::::

      ----------------------------------------------------------- 
     |                   =====================                   |
     |                        A N C O P T                        |
     |                   =====================                   |
     |               Approximate Normal Coordinate               |
     |                Rational Function Optimizer                |
      ----------------------------------------------------------- 

          ...................................................
          :                      SETUP                      :
          :.................................................:
          :   optimization level             loose          :
          :   max. optcycles                   200          :
          :   ANC micro-cycles                  20          :
          :   degrees of freedom               195          :
          :.................................................:
          :   RF solver                   davidson          :
          :   write xtbopt.log                true          :
          :   linear?                        false          :
          :   energy convergence         0.5000000E-04 Eh   :
          :   grad. convergence          0.4000000E-02 Eh/α :
          :   maxmium RF displ.          1.0000000          :
          :   Hlow (freq-cutoff)         0.1000000E-01      :
          :   Hmax (freq-cutoff)         5.0000000          :
          :   S6 in model hess.         20.0000000          :
          ...................................................

generating ANC from model Hessian ...
Using Lindh-Hessian (1995)
 Shifting diagonal of input Hessian by    1.0532229170287913E-002
 Lowest  eigenvalues of input Hessian
    0.010000    0.010112    0.010361    0.010495    0.010515    0.000000
    0.000000    0.000000    0.000000    0.000000    0.000000    0.010542
    0.010593    0.010610    0.010644    0.010663    0.010734    0.010879
 Highest eigenvalues
    1.518940    1.774911    1.831915    1.883044    2.011579    2.244737


........................................................................
.............................. CYCLE    1 ..............................
........................................................................

 iter      E             dE          RMSdq      gap      omega  full diag
   1   -119.0593788 -0.119059E+03  0.383E-05    0.11       0.0  T
   2   -119.0593786  0.295876E-06  0.101E-03    0.11      12.0  T
   3   -119.0593788 -0.280117E-06  0.243E-04    0.11      50.4  T
   4   -119.0593788 -0.609765E-08  0.193E-04    0.11      63.3  T
   5   -119.0593788 -0.116658E-08  0.181E-04    0.11      67.4  T
     SCC iter.                  ...        0 min,  0.568 sec
     gradient                   ...        0 min,  0.092 sec
 * total energy  :  -118.2357622 Eh     change        0.6670447E-08 Eh
   gradient norm :     0.1112603 Eh/α   predicted     0.0000000E+00 (-100.00%)
   displ. norm   :     0.6697496 α      lambda       -0.5179750E-01
   maximum displ.:     0.3284271 α      in ANC's #64, #39, #53, ...

........................................................................
.............................. CYCLE    2 ..............................
........................................................................

 iter      E             dE          RMSdq      gap      omega  full diag
   1   -119.0962833 -0.119096E+03  0.303E-01    0.17       0.0  T
   2   -113.0177954  0.607849E+01  0.463E+00    0.06       1.0  T
   3   -117.8357656 -0.481797E+01  0.230E+00    0.14       1.0  T
   4   -117.5850764  0.250689E+00  0.235E+00    0.18       1.0  T
   5   -118.9149191 -0.132984E+01  0.868E-01    0.18       1.0  T
   6   -118.3335321  0.581387E+00  0.164E+00    0.16       1.0  T
   7   -119.0710957 -0.737564E+00  0.402E-01    0.17       1.0  T
   8   -119.0894706 -0.183749E-01  0.298E-01    0.17       1.0  T
   9   -119.1038682 -0.143976E-01  0.185E-01    0.17       1.0  T
  10   -119.1064309 -0.256263E-02  0.153E-01    0.14       1.0  T
  11   -119.1062345  0.196397E-03  0.155E-01    0.15       1.0  T
  12   -119.1089169 -0.268242E-02  0.117E-01    0.13       1.0  T
  13   -119.1114384 -0.252155E-02  0.641E-02    0.14       1.0  T
  14   -119.1124029 -0.964522E-03  0.263E-02    0.14       1.0  T
  15   -119.1123732  0.296998E-04  0.284E-02    0.14       1.0  T
  16   -119.1124873 -0.114032E-03  0.192E-02    0.14       1.0  T
  17   -119.1125858 -0.985351E-04  0.384E-03    0.14       3.2  T
  18   -119.1125877 -0.190980E-05  0.283E-03    0.14       4.3  T
  19   -119.1125887 -0.102442E-05  0.200E-03    0.14       6.1  T
  20   -119.1125896 -0.864540E-06  0.883E-04    0.14      13.8  T
  21   -119.1125897 -0.130354E-06  0.558E-04    0.14      21.9  T
  22   -119.1125898 -0.569420E-07  0.325E-04    0.14      37.6  T
  23   -119.1125898 -0.241280E-07  0.142E-04    0.14      85.9  T
  24   -119.1125898 -0.502105E-08  0.329E-05    0.14     371.0  T
     SCC iter.                  ...        0 min,  2.971 sec
     gradient                   ...        0 min,  0.098 sec
 * total energy  :  -118.2691543 Eh     change       -0.3339210E-01 Eh
   gradient norm :     0.0535567 Eh/α   predicted    -0.3751817E-01 (  12.36%)
   displ. norm   :     0.6100675 α      lambda       -0.1987402E-01
   maximum displ.:     0.3224403 α      in ANC's #39, #40, #53, ...

........................................................................
.............................. CYCLE    3 ..............................
........................................................................

 iter      E             dE          RMSdq      gap      omega  full diag
   1   -119.1203166 -0.119120E+03  0.251E-01    0.20       0.0  T
   2   -102.2238282  0.168965E+02  0.742E+00    0.01       1.0  T
   3   -118.1384377 -0.159146E+02  0.200E+00    0.18       1.0  T
   4   -118.7865636 -0.648126E+00  0.112E+00    0.19       1.0  T
   5   -119.0361591 -0.249596E+00  0.625E-01    0.19       1.0  T
   6   -117.0794973  0.195666E+01  0.268E+00    0.15       1.0  T
   7   -119.1136050 -0.203411E+01  0.292E-01    0.18       1.0  T
   8   -119.1337569 -0.201518E-01  0.975E-02    0.17       1.0  T
   9   -119.1345030 -0.746186E-03  0.743E-02    0.18       1.0  T
  10   -119.1354186 -0.915559E-03  0.480E-02    0.16       1.0  T
  11   -119.1355596 -0.140999E-03  0.415E-02    0.17       1.0  T
  12   -119.1358516 -0.291973E-03  0.265E-02    0.17       1.0  T
  13   -119.1358630 -0.113889E-04  0.259E-02    0.17       1.0  T
  14   -119.1359136 -0.506627E-04  0.217E-02    0.18       1.0  T
  15   -119.1360161 -0.102444E-03  0.895E-03    0.18       1.4  T
  16   -119.1360346 -0.184918E-04  0.256E-03    0.18       4.8  T
  17   -119.1360348 -0.199987E-06  0.238E-03    0.18       5.1  T
  18   -119.1360357 -0.907188E-06  0.148E-03    0.18       8.3  T
  19   -119.1360362 -0.536096E-06  0.472E-04    0.18      25.9  T
  20   -119.1360362 -0.718811E-08  0.437E-04    0.18      28.0  T
  21   -119.1360362 -0.326044E-07  0.269E-04    0.18      45.4  T
  22   -119.1360363 -0.165514E-07  0.108E-04    0.18     113.4  T
  23   -119.1360363 -0.231067E-08  0.474E-05    0.18     257.9  T
     SCC iter.                  ...        0 min,  2.823 sec
     gradient                   ...        0 min,  0.088 sec
 * total energy  :  -118.2851949 Eh     change       -0.1604054E-01 Eh
   gradient norm :     0.0394783 Eh/α   predicted    -0.1363553E-01 ( -14.99%)
   displ. norm   :     0.7105359 α      lambda       -0.1764450E-01
   maximum displ.:     0.3912961 α      in ANC's #39, #40, #64, ...

........................................................................
.............................. CYCLE    4 ..............................
........................................................................

 iter      E             dE          RMSdq      gap      omega  full diag
   1   -119.1302304 -0.119130E+03  0.270E-01    0.23       0.0  T
   2    -99.3487198  0.197815E+02  0.770E+00    0.03       1.0  T
   3   -118.6596944 -0.193110E+02  0.137E+00    0.25       1.0  T
   4   -117.4213725  0.123832E+01  0.244E+00    0.17       1.0  T
   5   -119.0025338 -0.158116E+01  0.847E-01    0.20       1.0  T
   6   -119.0884808 -0.859471E-01  0.454E-01    0.21       1.0  T
   7   -118.7618564  0.326624E+00  0.115E+00    0.20       1.0  T
   8   -119.1326898 -0.370833E+00  0.221E-01    0.20       1.0  T
   9   -119.1368420 -0.415216E-02  0.179E-01    0.20       1.0  T
  10   -119.1422412 -0.539920E-02  0.102E-01    0.20       1.0  T
  11   -119.1447391 -0.249789E-02  0.305E-02    0.20       1.0  T
  12   -119.1449333 -0.194180E-03  0.150E-02    0.20       1.0  T
  13   -119.1449589 -0.256188E-04  0.114E-02    0.20       1.1  T
  14   -119.1449843 -0.254327E-04  0.631E-03    0.20       1.9  T
  15   -119.1449889 -0.456666E-05  0.424E-03    0.20       2.9  T
  16   -119.1449917 -0.278963E-05  0.255E-03    0.20       4.8  T
  17   -119.1449927 -0.105806E-05  0.152E-03    0.20       8.1  T
  18   -119.1449931 -0.397231E-06  0.869E-04    0.20      14.1  T
  19   -119.1449933 -0.177047E-06  0.313E-04    0.20      39.0  T
  20   -119.1449933 -0.207126E-07  0.145E-04    0.20      84.5  T
  21   -119.1449933 -0.436341E-08  0.650E-05    0.20     188.0  T
     SCC iter.                  ...        0 min,  2.551 sec
     gradient                   ...        0 min,  0.117 sec
 * total energy  :  -118.2969429 Eh     change       -0.1174805E-01 Eh
   gradient norm :     0.0828180 Eh/α   predicted    -0.1327627E-01 (  13.01%)
   displ. norm   :     0.6408252 α      lambda       -0.1756188E-01
   maximum displ.:     0.1963452 α      in ANC's #63, #39, #41, ...

........................................................................
.............................. CYCLE    5 ..............................
........................................................................

 iter      E             dE          RMSdq      gap      omega  full diag
   1   -119.1654199 -0.119165E+03  0.163E-01    0.19       0.0  T
   2   -114.9560996  0.420932E+01  0.383E+00    0.13       1.0  T
   3   -118.5836657 -0.362757E+01  0.144E+00    0.21       1.0  T
   4   -119.0901085 -0.506443E+00  0.524E-01    0.18       1.0  T
   5   -118.9301780  0.159930E+00  0.922E-01    0.18       1.0  T
   6   -119.1508142 -0.220636E+00  0.264E-01    0.19       1.0  T
   7   -119.1575563 -0.674213E-02  0.226E-01    0.19       1.0  T
   8   -119.1652094 -0.765307E-02  0.123E-01    0.19       1.0  T
   9   -119.1681289 -0.291950E-02  0.671E-02    0.19       1.0  T
  10   -119.1688309 -0.702054E-03  0.407E-02    0.19       1.0  T
  11   -119.1692469 -0.416007E-03  0.120E-02    0.19       1.0  T
  12   -119.1692526 -0.569947E-05  0.115E-02    0.19       1.1  T
  13   -119.1692505  0.216699E-05  0.117E-02    0.19       1.0  T
  14   -119.1692730 -0.225579E-04  0.718E-03    0.19       1.7  T
  15   -119.1692864 -0.133962E-04  0.158E-03    0.19       7.7  T
  16   -119.1692870 -0.559217E-06  0.609E-04    0.19      20.1  T
  17   -119.1692870 -0.679020E-07  0.357E-04    0.19      34.3  T
  18   -119.1692871 -0.209070E-07  0.224E-04    0.19      54.5  T
  19   -119.1692871 -0.125332E-07  0.706E-05    0.19     173.0  T
  20   -119.1692871 -0.129241E-08  0.191E-05    0.19     641.0  T
     SCC iter.                  ...        0 min,  2.410 sec
     gradient                   ...        0 min,  0.113 sec
 * total energy  :  -118.3066526 Eh     change       -0.9709651E-02 Eh
   gradient norm :     0.0438134 Eh/α   predicted    -0.1238691E-01 (  27.57%)
   displ. norm   :     0.5393295 α      lambda       -0.8660521E-02
   maximum displ.:     0.2482263 α      in ANC's #39, #40, #41, ...

........................................................................
.............................. CYCLE    6 ..............................
........................................................................

 iter      E             dE          RMSdq      gap      omega  full diag
   1   -119.1440392 -0.119144E+03  0.262E-01    0.18       0.0  T
   2    -98.4732981  0.206707E+02  0.792E+00    0.09       1.0  T
   3   -117.6444918 -0.191712E+02  0.231E+00    0.13       1.0  T
   4   -118.9850010 -0.134051E+01  0.816E-01    0.23       1.0  T
   5   -118.7216661  0.263335E+00  0.125E+00    0.16       1.0  T
   6   -118.2977555  0.423911E+00  0.175E+00    0.17       1.0  T
   7   -119.1575640 -0.859808E+00  0.135E-01    0.19       1.0  T
   8   -119.1608678 -0.330385E-02  0.534E-02    0.18       1.0  T
   9   -119.1612411 -0.373326E-03  0.436E-02    0.18       1.0  T
  10   -119.1611450  0.961707E-04  0.444E-02    0.18       1.0  T
  11   -119.1616093 -0.464312E-03  0.119E-02    0.18       1.0  T
  12   -119.1615949  0.144087E-04  0.133E-02    0.18       1.0  T
  13   -119.1616091 -0.142495E-04  0.110E-02    0.18       1.1  T
  14   -119.1616240 -0.148822E-04  0.810E-03    0.18       1.5  T
  15   -119.1616380 -0.139904E-04  0.379E-03    0.18       3.2  T
  16   -119.1616408 -0.284289E-05  0.196E-03    0.18       6.2  T
  17   -119.1616417 -0.823529E-06  0.914E-04    0.18      13.4  T
  18   -119.1616419 -0.185711E-06  0.364E-04    0.18      33.5  T
  19   -119.1616419 -0.318731E-07  0.113E-04    0.18     108.4  T
  20   -119.1616419 -0.279647E-08  0.429E-05    0.18     285.0  T
     SCC iter.                  ...        0 min,  2.439 sec
     gradient                   ...        0 min,  0.093 sec
 * total energy  :  -118.3126888 Eh     change       -0.6036209E-02 Eh
   gradient norm :     0.0452071 Eh/α   predicted    -0.5589836E-02 (  -7.39%)
   displ. norm   :     0.5599622 α      lambda       -0.8627787E-02
   maximum displ.:     0.1500874 α      in ANC's #41, #97, #23, ...

........................................................................
.............................. CYCLE    7 ..............................
........................................................................

 iter      E             dE          RMSdq      gap      omega  full diag
   1   -119.1597721 -0.119160E+03  0.187E-01    0.14       0.0  T
   2   -102.4955543  0.166642E+02  0.709E+00    0.04       1.0  T
   3   -118.2287578 -0.157332E+02  0.183E+00    0.13       1.0  T
   4   -119.0989366 -0.870179E+00  0.507E-01    0.18       1.0  T
   5   -118.7942545  0.304682E+00  0.117E+00    0.10       1.0  T
   6   -118.7247039  0.695505E-01  0.125E+00    0.13       1.0  T
   7   -119.1628407 -0.438137E+00  0.154E-01    0.14       1.0  T
   8   -119.1688613 -0.602069E-02  0.273E-02    0.15       1.0  T
   9   -119.1686303  0.230994E-03  0.368E-02    0.15       1.0  T
  10   -119.1688834 -0.253061E-03  0.211E-02    0.15       1.0  T
  11   -119.1688730  0.104586E-04  0.206E-02    0.15       1.0  T
  12   -119.1689084 -0.354183E-04  0.151E-02    0.15       1.0  T
  13   -119.1689399 -0.314990E-04  0.970E-03    0.15       1.3  T
  14   -119.1689477 -0.788131E-05  0.792E-03    0.15       1.5  T
  15   -119.1689573 -0.952578E-05  0.519E-03    0.15       2.4  T
  16   -119.1689628 -0.556933E-05  0.251E-03    0.15       4.9  T
  17   -119.1689636 -0.782604E-06  0.181E-03    0.15       6.8  T
  18   -119.1689641 -0.497827E-06  0.117E-03    0.15      10.4  T
  19   -119.1689644 -0.288465E-06  0.538E-04    0.15      22.7  T
  20   -119.1689645 -0.584911E-07  0.261E-04    0.15      46.8  T
  21   -119.1689645 -0.170808E-07  0.651E-05    0.15     187.7  T
  22   -119.1689645 -0.107217E-08  0.943E-06    0.15    1294.9  T
     SCC iter.                  ...        0 min,  2.638 sec
     gradient                   ...        0 min,  0.114 sec
 * total energy  :  -118.3167740 Eh     change       -0.4085265E-02 Eh
   gradient norm :     0.0330749 Eh/α   predicted    -0.5666547E-02 (  38.71%)
   displ. norm   :     0.4511520 α      lambda       -0.6246992E-02
   maximum displ.:     0.1257375 α      in ANC's #40, #47, #41, ...

........................................................................
.............................. CYCLE    8 ..............................
........................................................................

 iter      E             dE          RMSdq      gap      omega  full diag
   1   -119.1445698 -0.119145E+03  0.313E-01    0.14       0.0  T
   2    -98.7834721  0.203611E+02  0.795E+00    0.06       1.0  T
   3   -117.2153120 -0.184318E+02  0.310E+00    0.11       1.0  T
   4   -118.6447514 -0.142944E+01  0.138E+00    0.19       1.0  T
   5   -119.1312389 -0.486487E+00  0.372E-01    0.15       1.0  T
   6   -117.7768245  0.135441E+01  0.223E+00    0.20       1.0  T
   7   -119.1515477 -0.137472E+01  0.266E-01    0.14       1.0  T
   8   -119.1619323 -0.103846E-01  0.164E-01    0.15       1.0  T
   9   -119.1646479 -0.271555E-02  0.128E-01    0.15       1.0  T
  10   -119.1682335 -0.358565E-02  0.610E-02    0.15       1.0  T
  11   -119.1687915 -0.557970E-03  0.410E-02    0.15       1.0  T
  12   -119.1689775 -0.185995E-03  0.315E-02    0.15       1.0  T
  13   -119.1691889 -0.211457E-03  0.153E-02    0.15       1.0  T
  14   -119.1692382 -0.492670E-04  0.696E-03    0.15       1.8  T
  15   -119.1692446 -0.639571E-05  0.482E-03    0.15       2.5  T
  16   -119.1692477 -0.312894E-05  0.286E-03    0.15       4.3  T
  17   -119.1692485 -0.817034E-06  0.169E-03    0.15       7.2  T
  18   -119.1692485  0.188144E-07  0.148E-03    0.15       8.3  T
  19   -119.1692490 -0.476095E-06  0.592E-04    0.15      20.6  T
  20   -119.1692490 -0.506923E-07  0.367E-04    0.15      33.3  T
  21   -119.1692491 -0.200683E-07  0.181E-04    0.15      67.4  T
  22   -119.1692491 -0.363197E-08  0.117E-04    0.15     104.6  T
     SCC iter.                  ...        0 min,  2.633 sec
     gradient                   ...        0 min,  0.132 sec
 * total energy  :  -118.3203407 Eh     change       -0.3566689E-02 Eh
   gradient norm :     0.0472501 Eh/α   predicted    -0.3759249E-02 (   5.40%)
   displ. norm   :     0.4204060 α      lambda       -0.3980634E-02
   maximum displ.:     0.0980328 α      in ANC's #47, #40, #41, ...

........................................................................
.............................. CYCLE    9 ..............................
........................................................................

 iter      E             dE          RMSdq      gap      omega  full diag
   1   -119.1525296 -0.119153E+03  0.280E-01    0.16       0.0  T
   2   -107.9750022  0.111775E+02  0.618E+00    0.03       1.0  T
   3   -116.4149590 -0.843996E+01  0.331E+00    0.12       1.0  T
   4   -118.3983571 -0.198340E+01  0.175E+00    0.24       1.0  T
   5   -119.1431241 -0.744767E+00  0.335E-01    0.16       1.0  T
   6   -118.1282936  0.101483E+01  0.189E+00    0.14       1.0  T
   7   -119.1627381 -0.103444E+01  0.210E-01    0.16       1.0  T
   8   -119.1546612  0.807692E-02  0.255E-01    0.17       1.0  T
   9   -119.1630447 -0.838349E-02  0.186E-01    0.17       1.0  T
  10   -119.1715771 -0.853247E-02  0.643E-02    0.17       1.0  T
  11   -119.1725185 -0.941342E-03  0.325E-02    0.17       1.0  T
  12   -119.1722471  0.271338E-03  0.445E-02    0.17       1.0  T
  13   -119.1726382 -0.391103E-03  0.210E-02    0.17       1.0  T
  14   -119.1727223 -0.840104E-04  0.105E-02    0.17       1.2  T
  15   -119.1727298 -0.751095E-05  0.891E-03    0.17       1.4  T
  16   -119.1727464 -0.166185E-04  0.440E-03    0.17       2.8  T
  17   -119.1727499 -0.355324E-05  0.258E-03    0.17       4.7  T
  18   -119.1727513 -0.131727E-05  0.126E-03    0.17       9.7  T
  19   -119.1727516 -0.315419E-06  0.611E-04    0.17      20.0  T
  20   -119.1727517 -0.875832E-07  0.206E-04    0.17      59.4  T
  21   -119.1727517 -0.108618E-07  0.535E-05    0.17     228.5  T
  22   -119.1727517 -0.640640E-09  0.195E-05    0.17     627.9  T
     SCC iter.                  ...        0 min,  2.664 sec
     gradient                   ...        0 min,  0.124 sec
 * total energy  :  -118.3222490 Eh     change       -0.1908294E-02 Eh
   gradient norm :     0.0322510 Eh/α   predicted    -0.2342090E-02 (  22.73%)
   displ. norm   :     0.3931339 α      lambda       -0.3392234E-02
   maximum displ.:     0.0989554 α      in ANC's #40, #47, #28, ...

........................................................................
.............................. CYCLE   10 ..............................
........................................................................

 iter      E             dE          RMSdq      gap      omega  full diag
   1   -119.1661385 -0.119166E+03  0.246E-01    0.14       0.0  T
   2    -97.8074990  0.213586E+02  0.803E+00    0.14       1.0  T
   3   -118.6751600 -0.208677E+02  0.142E+00    0.22       1.0  T
   4   -118.3702002  0.304960E+00  0.170E+00    0.11       1.0  T
   5   -118.9230742 -0.552874E+00  0.971E-01    0.16       1.0  T
   6   -118.8818651  0.412091E-01  0.103E+00    0.12       1.0  T
   7   -119.1718065 -0.289941E+00  0.209E-01    0.17       1.0  T
   8   -119.1763977 -0.459122E-02  0.138E-01    0.16       1.0  T
   9   -119.1805660 -0.416833E-02  0.655E-02    0.16       1.0  T
  10   -119.1811269 -0.560880E-03  0.471E-02    0.16       1.0  T
  11   -119.1814336 -0.306647E-03  0.325E-02    0.16       1.0  T
  12   -119.1816523 -0.218731E-03  0.146E-02    0.16       1.0  T
  13   -119.1817001 -0.478076E-04  0.306E-03    0.16       4.0  T
  14   -119.1817004 -0.271165E-06  0.267E-03    0.16       4.6  T
  15   -119.1817014 -0.105393E-05  0.173E-03    0.16       7.1  T
  16   -119.1817018 -0.406076E-06  0.118E-03    0.16      10.3  T
  17   -119.1817022 -0.342103E-06  0.360E-04    0.16      33.9  T
  18   -119.1817022 -0.273206E-07  0.159E-04    0.16      76.8  T
  19   -119.1817022 -0.479724E-08  0.846E-05    0.16     144.5  T
     SCC iter.                  ...        0 min,  2.219 sec
     gradient                   ...        0 min,  0.105 sec
 * total energy  :  -118.3243850 Eh     change       -0.2136012E-02 Eh
   gradient norm :     0.0236117 Eh/α   predicted    -0.1958263E-02 (  -8.32%)
   displ. norm   :     0.4256356 α      lambda       -0.1871575E-02
   maximum displ.:     0.1179843 α      in ANC's #23, #13, #47, ...

........................................................................
.............................. CYCLE   11 ..............................
........................................................................

 iter      E             dE          RMSdq      gap      omega  full diag
   1   -119.1811627 -0.119181E+03  0.128E-01    0.16       0.0  T
   2   -115.9978162  0.318335E+01  0.332E+00    0.16       1.0  T
   3   -118.9342663 -0.293645E+01  0.105E+00    0.12       1.0  T
   4   -118.8250630  0.109203E+00  0.113E+00    0.21       1.0  T
   5   -119.1747278 -0.349665E+00  0.197E-01    0.15       1.0  T
   6   -118.9285344  0.246193E+00  0.949E-01    0.18       1.0  T
   7   -119.1816005 -0.253066E+00  0.111E-01    0.16       1.0  T
   8   -119.1842356 -0.263512E-02  0.312E-02    0.16       1.0  T
   9   -119.1841313  0.104345E-03  0.362E-02    0.16       1.0  T
  10   -119.1844025 -0.271263E-03  0.187E-02    0.16       1.0  T
  11   -119.1844606 -0.580419E-04  0.104E-02    0.16       1.2  T
  12   -119.1844864 -0.257972E-04  0.323E-03    0.16       3.8  T
  13   -119.1844868 -0.474404E-06  0.288E-03    0.16       4.2  T
  14   -119.1844878 -0.931552E-06  0.217E-03    0.16       5.6  T
  15   -119.1844883 -0.478236E-06  0.171E-03    0.16       7.1  T
  16   -119.1844889 -0.620780E-06  0.790E-04    0.16      15.5  T
  17   -119.1844890 -0.144811E-06  0.278E-04    0.16      43.9  T
  18   -119.1844890 -0.187094E-07  0.924E-05    0.16     132.2  T
  19   -119.1844890 -0.232123E-08  0.175E-05    0.16     698.9  T
     SCC iter.                  ...        0 min,  2.368 sec
     gradient                   ...        0 min,  0.091 sec
 * total energy  :  -118.3257330 Eh     change       -0.1347962E-02 Eh
   gradient norm :     0.0176384 Eh/α   predicted    -0.1105311E-02 ( -18.00%)
   displ. norm   :     0.4836905 α      lambda       -0.1614651E-02
   maximum displ.:     0.1299252 α      in ANC's #13, #23, #3, ...

........................................................................
.............................. CYCLE   12 ..............................
........................................................................

 iter      E             dE          RMSdq      gap      omega  full diag
   1   -119.1762476 -0.119176E+03  0.191E-01    0.18       0.0  T
   2   -116.3636813  0.281257E+01  0.324E+00    0.16       1.0  T
   3   -118.7410353 -0.237735E+01  0.140E+00    0.24       1.0  T
   4   -119.0443902 -0.303355E+00  0.710E-01    0.16       1.0  T
   5   -119.1762534 -0.131863E+00  0.173E-01    0.19       1.0  T
   6   -118.9416118  0.234642E+00  0.928E-01    0.11       1.0  T
   7   -119.1822848 -0.240673E+00  0.932E-02    0.17       1.0  T
   8   -119.1824253 -0.140459E-03  0.895E-02    0.18       1.0  T
   9   -119.1819677  0.457531E-03  0.973E-02    0.18       1.0  T
  10   -119.1827942 -0.826508E-03  0.799E-02    0.18       1.0  T
  11   -119.1843130 -0.151872E-02  0.352E-02    0.18       1.0  T
  12   -119.1843998 -0.868462E-04  0.287E-02    0.18       1.0  T
  13   -119.1845571 -0.157267E-03  0.147E-02    0.18       1.0  T
  14   -119.1846009 -0.438365E-04  0.723E-03    0.18       1.7  T
  15   -119.1846141 -0.132027E-04  0.913E-04    0.18      13.4  T
  16   -119.1846141 -0.132329E-07  0.898E-04    0.18      13.6  T
  17   -119.1846143 -0.186029E-06  0.307E-04    0.18      39.8  T
  18   -119.1846143 -0.188457E-07  0.158E-04    0.18      77.3  T
  19   -119.1846143 -0.630220E-08  0.383E-05    0.18     319.2  T
     SCC iter.                  ...        0 min,  2.310 sec
     gradient                   ...        0 min,  0.129 sec
 * total energy  :  -118.3269725 Eh     change       -0.1239492E-02 Eh
   gradient norm :     0.0107766 Eh/α   predicted    -0.9962057E-03 ( -19.63%)
   displ. norm   :     0.5714282 α      lambda       -0.1531566E-02
   maximum displ.:     0.1530110 α      in ANC's #3, #13, #41, ...

........................................................................
.............................. CYCLE   13 ..............................
........................................................................

 iter      E             dE          RMSdq      gap      omega  full diag
   1   -119.1736249 -0.119174E+03  0.208E-01    0.20       0.0  T
   2   -115.9600227  0.321360E+01  0.344E+00    0.18       1.0  T
   3   -118.7921789 -0.283216E+01  0.138E+00    0.22       1.0  T
   4   -119.0679760 -0.275797E+00  0.640E-01    0.24       1.0  T
   5   -119.1772503 -0.109274E+00  0.159E-01    0.19       1.0  T
   6   -119.0090734  0.168177E+00  0.786E-01    0.21       1.0  T
   7   -119.1795659 -0.170492E+00  0.130E-01    0.19       1.0  T
   8   -119.1798986 -0.332762E-03  0.123E-01    0.20       1.0  T
   9   -119.1808135 -0.914837E-03  0.108E-01    0.20       1.0  T
  10   -119.1827973 -0.198382E-02  0.666E-02    0.20       1.0  T
  11   -119.1834004 -0.603094E-03  0.516E-02    0.20       1.0  T
  12   -119.1836737 -0.273359E-03  0.391E-02    0.20       1.0  T
  13   -119.1839809 -0.307169E-03  0.188E-02    0.20       1.0  T
  14   -119.1840481 -0.672230E-04  0.104E-02    0.20       1.2  T
  15   -119.1840750 -0.268948E-04  0.143E-03    0.20       8.5  T
  16   -119.1840753 -0.232298E-06  0.866E-04    0.20      14.1  T
  17   -119.1840754 -0.189487E-06  0.223E-04    0.20      54.8  T
  18   -119.1840755 -0.809207E-08  0.128E-04    0.20      95.6  T
  19   -119.1840755 -0.289276E-08  0.637E-05    0.20     191.7  T
     SCC iter.                  ...        0 min,  2.414 sec
     gradient                   ...        0 min,  0.098 sec
 * total energy  :  -118.3281348 Eh     change       -0.1162338E-02 Eh
   gradient norm :     0.0146983 Eh/α   predicted    -0.1015839E-02 ( -12.60%)
   displ. norm   :     0.5807580 α      lambda       -0.1370429E-02
   maximum displ.:     0.1742052 α      in ANC's #3, #13, #41, ...

........................................................................
.............................. CYCLE   14 ..............................
........................................................................

 iter      E             dE          RMSdq      gap      omega  full diag
   1   -119.1806224 -0.119181E+03  0.158E-01    0.21       0.0  T
   2   -115.9377040  0.324292E+01  0.340E+00    0.16       1.0  T
   3   -118.7729736 -0.283527E+01  0.133E+00    0.16       1.0  T
   4   -118.9247212 -0.151748E+00  0.976E-01    0.26       1.0  T
   5   -119.1729569 -0.248236E+00  0.227E-01    0.20       1.0  T
   6   -119.0452544  0.127702E+00  0.706E-01    0.20       1.0  T
   7   -119.1802950 -0.135041E+00  0.153E-01    0.20       1.0  T
   8   -119.1842102 -0.391520E-02  0.937E-02    0.20       1.0  T
   9   -119.1854203 -0.121004E-02  0.655E-02    0.21       1.0  T
  10   -119.1863765 -0.956232E-03  0.283E-02    0.21       1.0  T
  11   -119.1864681 -0.915549E-04  0.225E-02    0.21       1.0  T
  12   -119.1864911 -0.229901E-04  0.204E-02    0.21       1.0  T
  13   -119.1865805 -0.894651E-04  0.914E-03    0.21       1.3  T
  14   -119.1866002 -0.196576E-04  0.363E-03    0.21       3.4  T
  15   -119.1866029 -0.271284E-05  0.164E-03    0.21       7.5  T
  16   -119.1866035 -0.599883E-06  0.539E-04    0.21      22.7  T
  17   -119.1866036 -0.639906E-07  0.185E-04    0.21      66.1  T
  18   -119.1866036 -0.869221E-08  0.498E-05    0.21     245.3  T
     SCC iter.                  ...        0 min,  2.258 sec
     gradient                   ...        0 min,  0.110 sec
 * total energy  :  -118.3290886 Eh     change       -0.9537378E-03 Eh
   gradient norm :     0.0136554 Eh/α   predicted    -0.9163252E-03 (  -3.92%)
   displ. norm   :     0.6667747 α      lambda       -0.1305501E-02
   maximum displ.:     0.1747355 α      in ANC's #41, #3, #40, ...

........................................................................
.............................. CYCLE   15 ..............................
........................................................................

 iter      E             dE          RMSdq      gap      omega  full diag
   1   -119.1688937 -0.119169E+03  0.212E-01    0.20       0.0  T
   2   -100.9720839  0.181968E+02  0.748E+00    0.25       1.0  T
   3   -118.7534958 -0.177814E+02  0.145E+00    0.22       1.0  T
   4   -118.9183847 -0.164889E+00  0.963E-01    0.20       1.0  T
   5   -119.1241856 -0.205801E+00  0.456E-01    0.18       1.0  T
   6   -118.0826130  0.104157E+01  0.198E+00    0.24       1.0  T
   7   -119.1767893 -0.109418E+01  0.124E-01    0.20       1.0  T
   8   -119.1793788 -0.258950E-02  0.795E-02    0.20       1.0  T
   9   -119.1802646 -0.885811E-03  0.499E-02    0.20       1.0  T
  10   -119.1804870 -0.222423E-03  0.397E-02    0.20       1.0  T
  11   -119.1808261 -0.339064E-03  0.171E-02    0.20       1.0  T
  12   -119.1808916 -0.655506E-04  0.774E-03    0.20       1.6  T
  13   -119.1808985 -0.690119E-05  0.457E-03    0.20       2.7  T
  14   -119.1809010 -0.247362E-05  0.239E-03    0.20       5.1  T
  15   -119.1809018 -0.769860E-06  0.147E-03    0.20       8.3  T
  16   -119.1809021 -0.259770E-06  0.106E-03    0.20      11.5  T
  17   -119.1809023 -0.246915E-06  0.466E-04    0.20      26.2  T
  18   -119.1809024 -0.558603E-07  0.110E-04    0.20     111.2  T
  19   -119.1809024 -0.284923E-08  0.368E-05    0.20     331.6  T
     SCC iter.                  ...        0 min,  2.268 sec
     gradient                   ...        0 min,  0.089 sec
 * total energy  :  -118.3295615 Eh     change       -0.4729166E-03 Eh
   gradient norm :     0.0243655 Eh/α   predicted    -0.9429630E-03 (  99.39%)
   displ. norm   :     0.3063699 α      lambda       -0.1245768E-02
   maximum displ.:     0.0914720 α      in ANC's #4, #34, #3, ...

........................................................................
.............................. CYCLE   16 ..............................
........................................................................

 iter      E             dE          RMSdq      gap      omega  full diag
   1   -119.1866707 -0.119187E+03  0.773E-02    0.19       0.0  T
   2   -116.1892559  0.299741E+01  0.319E+00    0.10       1.0  T
   3   -119.1642466 -0.297499E+01  0.293E-01    0.20       1.0  T
   4   -119.1520622  0.121844E-01  0.361E-01    0.18       1.0  T
   5   -119.0975762  0.544861E-01  0.581E-01    0.18       1.0  T
   6   -119.1577412 -0.601651E-01  0.336E-01    0.18       1.0  T
   7   -119.1877053 -0.299641E-01  0.477E-02    0.20       1.0  T
   8   -119.1882264 -0.521052E-03  0.114E-02    0.20       1.1  T
   9   -119.1882002  0.261899E-04  0.140E-02    0.20       1.0  T
  10   -119.1882350 -0.347940E-04  0.763E-03    0.19       1.6  T
  11   -119.1882473 -0.123059E-04  0.370E-03    0.20       3.3  T
  12   -119.1882494 -0.210035E-05  0.152E-03    0.20       8.0  T
  13   -119.1882499 -0.481612E-06  0.718E-04    0.20      17.0  T
  14   -119.1882500 -0.851146E-07  0.443E-04    0.20      27.6  T
  15   -119.1882500 -0.376975E-07  0.227E-04    0.20      53.7  T
  16   -119.1882500 -0.106841E-07  0.107E-04    0.20     114.5  T
  17   -119.1882500 -0.260688E-08  0.440E-05    0.20     277.6  T
     SCC iter.                  ...        0 min,  2.026 sec
     gradient                   ...        0 min,  0.092 sec
 * total energy  :  -118.3303513 Eh     change       -0.7898249E-03 Eh
   gradient norm :     0.0101718 Eh/α   predicted    -0.6813548E-03 ( -13.73%)
   displ. norm   :     0.4323597 α      lambda       -0.6968339E-03
   maximum displ.:     0.1375413 α      in ANC's #4, #6, #41, ...

........................................................................
.............................. CYCLE   17 ..............................
........................................................................

 iter      E             dE          RMSdq      gap      omega  full diag
   1   -119.1831608 -0.119183E+03  0.160E-01    0.17       0.0  T
   2   -109.2940849  0.988908E+01  0.576E+00    0.07       1.0  T
   3   -118.3568152 -0.906273E+01  0.171E+00    0.17       1.0  T
   4   -119.1751502 -0.818335E+00  0.239E-01    0.18       1.0  T
   5   -118.8701899  0.304960E+00  0.107E+00    0.12       1.0  T
   6   -119.0442508 -0.174061E+00  0.732E-01    0.16       1.0  T
   7   -119.1883342 -0.144083E+00  0.857E-02    0.17       1.0  T
   8   -119.1898253 -0.149106E-02  0.323E-02    0.17       1.0  T
   9   -119.1898010  0.242733E-04  0.329E-02    0.17       1.0  T
  10   -119.1899272 -0.126228E-03  0.251E-02    0.17       1.0  T
  11   -119.1900022 -0.749397E-04  0.189E-02    0.17       1.0  T
  12   -119.1900570 -0.548554E-04  0.116E-02    0.17       1.1  T
  13   -119.1900777 -0.206345E-04  0.729E-03    0.17       1.7  T
  14   -119.1900851 -0.745955E-05  0.503E-03    0.17       2.4  T
  15   -119.1900915 -0.637278E-05  0.150E-03    0.17       8.2  T
  16   -119.1900920 -0.470911E-06  0.677E-04    0.17      18.0  T
  17   -119.1900920 -0.690728E-07  0.439E-04    0.17      27.8  T
  18   -119.1900921 -0.414264E-07  0.192E-04    0.17      63.5  T
  19   -119.1900921 -0.934108E-08  0.425E-05    0.17     287.6  T
     SCC iter.                  ...        0 min,  2.526 sec
     gradient                   ...        0 min,  0.117 sec
 * total energy  :  -118.3308690 Eh     change       -0.5176978E-03 Eh
   gradient norm :     0.0091690 Eh/α   predicted    -0.4135510E-03 ( -20.12%)
   displ. norm   :     0.5820622 α      lambda       -0.7944980E-03
   maximum displ.:     0.2071818 α      in ANC's #4, #27, #6, ...

........................................................................
.............................. CYCLE   18 ..............................
........................................................................

 iter      E             dE          RMSdq      gap      omega  full diag
   1   -119.1814245 -0.119181E+03  0.185E-01    0.14       0.0  T
   2   -110.1692063  0.901222E+01  0.562E+00    0.09       1.0  T
   3   -118.4206250 -0.825142E+01  0.167E+00    0.20       1.0  T
   4   -119.1588548 -0.738230E+00  0.371E-01    0.16       1.0  T
   5   -119.1250317  0.338232E-01  0.487E-01    0.13       1.0  T
   6   -118.8751597  0.249872E+00  0.106E+00    0.15       1.0  T
   7   -119.1892112 -0.314052E+00  0.747E-02    0.15       1.0  T
   8   -119.1898591 -0.647968E-03  0.547E-02    0.15       1.0  T
   9   -119.1899704 -0.111297E-03  0.509E-02    0.15       1.0  T
  10   -119.1901978 -0.227346E-03  0.417E-02    0.15       1.0  T
  11   -119.1905318 -0.334035E-03  0.226E-02    0.15       1.0  T
  12   -119.1906521 -0.120325E-03  0.733E-03    0.15       1.7  T
  13   -119.1906590 -0.688676E-05  0.516E-03    0.15       2.4  T
  14   -119.1906644 -0.533369E-05  0.239E-03    0.15       5.1  T
  15   -119.1906653 -0.915652E-06  0.150E-03    0.15       8.2  T
  16   -119.1906657 -0.386623E-06  0.872E-04    0.15      14.0  T
  17   -119.1906659 -0.193105E-06  0.205E-04    0.15      59.6  T
  18   -119.1906659 -0.991480E-08  0.733E-05    0.15     166.7  T
  19   -119.1906659 -0.812392E-09  0.463E-05    0.15     263.9  T
     SCC iter.                  ...        0 min,  2.380 sec
     gradient                   ...        0 min,  0.094 sec
 * total energy  :  -118.3314744 Eh     change       -0.6054518E-03 Eh
   gradient norm :     0.0063427 Eh/α   predicted    -0.5318429E-03 ( -12.16%)
   displ. norm   :     0.5392445 α      lambda       -0.6237458E-03
   maximum displ.:     0.2125179 α      in ANC's #4, #27, #6, ...

........................................................................
.............................. CYCLE   19 ..............................
........................................................................

 iter      E             dE          RMSdq      gap      omega  full diag
   1   -119.1781170 -0.119178E+03  0.205E-01    0.12       0.0  T
   2   -103.8095927  0.153685E+02  0.704E+00    0.06       1.0  T
   3   -117.5125657 -0.137030E+02  0.241E+00    0.13       1.0  T
   4   -119.1309300 -0.161836E+01  0.459E-01    0.12       1.0  T
   5   -118.6952199  0.435710E+00  0.132E+00    0.09       1.0  T
   6   -119.0820651 -0.386845E+00  0.646E-01    0.10       1.0  T
   7   -119.1868541 -0.104789E+00  0.964E-02    0.13       1.0  T
   8   -119.1880233 -0.116915E-02  0.664E-02    0.13       1.0  T
   9   -119.1879219  0.101332E-03  0.676E-02    0.13       1.0  T
  10   -119.1884883 -0.566331E-03  0.502E-02    0.13       1.0  T
  11   -119.1889457 -0.457466E-03  0.280E-02    0.13       1.0  T
  12   -119.1891355 -0.189762E-03  0.800E-03    0.13       1.5  T
  13   -119.1891440 -0.852333E-05  0.530E-03    0.13       2.3  T
  14   -119.1891488 -0.476014E-05  0.317E-03    0.13       3.9  T
  15   -119.1891509 -0.212917E-05  0.155E-03    0.13       7.9  T
  16   -119.1891512 -0.253529E-06  0.117E-03    0.13      10.4  T
  17   -119.1891513 -0.144131E-06  0.912E-04    0.13      13.4  T
  18   -119.1891515 -0.195593E-06  0.330E-04    0.13      37.1  T
  19   -119.1891515 -0.240290E-07  0.142E-04    0.13      86.3  T
  20   -119.1891515 -0.471478E-08  0.536E-05    0.13     228.1  T
     SCC iter.                  ...        0 min,  2.552 sec
     gradient                   ...        0 min,  0.094 sec
 * total energy  :  -118.3319308 Eh     change       -0.4563937E-03 Eh
   gradient norm :     0.0081315 Eh/α   predicted    -0.4025652E-03 ( -11.79%)
   displ. norm   :     0.4200482 α      lambda       -0.4130324E-03
   maximum displ.:     0.1848712 α      in ANC's #4, #27, #6, ...

........................................................................
.............................. CYCLE   20 ..............................
........................................................................

 iter      E             dE          RMSdq      gap      omega  full diag
   1   -119.1782488 -0.119178E+03  0.206E-01    0.10       0.0  T
   2    -99.8160517  0.193622E+02  0.765E+00    0.15       1.0  T
   3   -118.6560269 -0.188400E+02  0.137E+00    0.12       1.0  T
   4   -119.0804493 -0.424422E+00  0.623E-01    0.09       1.0  T
   5   -119.0523724  0.280768E-01  0.764E-01    0.13       1.0  T
   6   -118.9570048  0.953676E-01  0.912E-01    0.12       1.0  T
   7   -119.1874716 -0.230467E+00  0.952E-02    0.10       1.0  T
   8   -119.1884107 -0.939078E-03  0.702E-02    0.11       1.0  T
   9   -119.1882608  0.149898E-03  0.719E-02    0.11       1.0  T
  10   -119.1890675 -0.806729E-03  0.481E-02    0.11       1.0  T
  11   -119.1894347 -0.367220E-03  0.309E-02    0.11       1.0  T
  12   -119.1896660 -0.231323E-03  0.107E-02    0.11       1.1  T
  13   -119.1896755 -0.951547E-05  0.886E-03    0.11       1.4  T
  14   -119.1896914 -0.159027E-04  0.458E-03    0.11       2.7  T
  15   -119.1896953 -0.380591E-05  0.264E-03    0.11       4.6  T
  16   -119.1896971 -0.180736E-05  0.549E-04    0.11      22.2  T
  17   -119.1896971 -0.470211E-07  0.333E-04    0.11      36.6  T
  18   -119.1896971 -0.222081E-07  0.167E-04    0.11      73.0  T
  19   -119.1896971 -0.715312E-08  0.396E-05    0.11     308.3  T
     SCC iter.                  ...        0 min,  2.296 sec
     gradient                   ...        0 min,  0.149 sec
 * total energy  :  -118.3322267 Eh     change       -0.2958909E-03 Eh
   gradient norm :     0.0097299 Eh/α   predicted    -0.2429556E-03 ( -17.89%)
   displ. norm   :     0.4141146 α      lambda       -0.3607252E-03
   maximum displ.:     0.1927945 α      in ANC's #4, #27, #6, ...
 * RMSD in coord.:     0.9989685 α      energy gain  -0.9646451E-01 Eh

generating ANC from model Hessian ...
Using Lindh-Hessian (1995)
 Shifting diagonal of input Hessian by    1.1022271997067234E-002
 Lowest  eigenvalues of input Hessian
    0.010000    0.010646    0.010725    0.010792    0.010976    0.011009
    0.000000    0.000000    0.000000    0.000000    0.000000    0.000000
    0.011023    0.011031    0.011084    0.011117    0.011141    0.011172
 Highest eigenvalues
    1.627867    1.864271    1.929508    2.034285    2.156480    2.340336


........................................................................
.............................. CYCLE   21 ..............................
........................................................................

 iter      E             dE          RMSdq      gap      omega  full diag
   1   -119.1826494 -0.119183E+03  0.136E-01    0.10       0.0  T
   2   -105.6700169  0.135126E+02  0.650E+00    0.17       1.0  T
   3   -118.9193878 -0.132494E+02  0.982E-01    0.14       1.0  T
   4   -119.1177018 -0.198314E+00  0.503E-01    0.09       1.0  T
   5   -119.0750285  0.426733E-01  0.671E-01    0.08       1.0  T
   6   -118.7936833  0.281345E+00  0.118E+00    0.09       1.0  T
   7   -119.1867160 -0.393033E+00  0.671E-02    0.10       1.0  T
   8   -119.1874594 -0.743472E-03  0.432E-02    0.10       1.0  T
   9   -119.1873362  0.123249E-03  0.472E-02    0.10       1.0  T
  10   -119.1875448 -0.208582E-03  0.381E-02    0.10       1.0  T
  11   -119.1878790 -0.334285E-03  0.162E-02    0.10       1.0  T
  12   -119.1879162 -0.371429E-04  0.112E-02    0.10       1.1  T
  13   -119.1879255 -0.926911E-05  0.953E-03    0.10       1.3  T
  14   -119.1879408 -0.153398E-04  0.582E-03    0.10       2.1  T
  15   -119.1879490 -0.822416E-05  0.174E-03    0.10       7.0  T
  16   -119.1879496 -0.621116E-06  0.774E-04    0.10      15.8  T
  17   -119.1879498 -0.117887E-06  0.391E-04    0.10      31.3  T
  18   -119.1879498 -0.335125E-07  0.170E-04    0.10      72.1  T
  19   -119.1879498 -0.569811E-08  0.849E-05    0.10     144.0  T
     SCC iter.                  ...        0 min,  2.325 sec
     gradient                   ...        0 min,  0.110 sec
 * total energy  :  -118.3325011 Eh     change       -0.2743761E-03 Eh
   gradient norm :     0.0104238 Eh/α   predicted     0.0000000E+00 (-100.00%)
   displ. norm   :     0.1341540 α      lambda       -0.4326878E-03
   maximum displ.:     0.0536043 α      in ANC's #31, #46, #15, ...

........................................................................
.............................. CYCLE   22 ..............................
........................................................................

 iter      E             dE          RMSdq      gap      omega  full diag
   1   -119.1884488 -0.119188E+03  0.538E-02    0.10       0.0  T
   2   -118.4160061  0.772443E+00  0.167E+00    0.18       1.0  T
   3   -119.1679145 -0.751908E+00  0.299E-01    0.12       1.0  T
   4   -119.1370131  0.309014E-01  0.428E-01    0.10       1.0  T
   5   -119.1843839 -0.473708E-01  0.138E-01    0.11       1.0  T
   6   -119.1867009 -0.231705E-02  0.963E-02    0.11       1.0  T
   7   -119.1818271  0.487389E-02  0.162E-01    0.11       1.0  T
   8   -119.1881256 -0.629858E-02  0.613E-02    0.11       1.0  T
   9   -119.1888365 -0.710853E-03  0.346E-02    0.11       1.0  T
  10   -119.1890985 -0.262008E-03  0.153E-02    0.11       1.0  T
  11   -119.1891622 -0.636640E-04  0.217E-03    0.11       5.6  T
  12   -119.1891615  0.681981E-06  0.266E-03    0.11       4.6  T
  13   -119.1891631 -0.157886E-05  0.111E-03    0.11      11.0  T
  14   -119.1891634 -0.325354E-06  0.208E-04    0.11      58.8  T
  15   -119.1891634 -0.442193E-08  0.159E-04    0.11      76.6  T
  16   -119.1891634 -0.501483E-08  0.775E-05    0.11     157.6  T
     SCC iter.                  ...        0 min,  1.961 sec
     gradient                   ...        0 min,  0.090 sec
 * total energy  :  -118.3322909 Eh     change        0.2102007E-03 Eh
   gradient norm :     0.0145197 Eh/α   predicted    -0.2202388E-03 (-204.78%)
   displ. norm   :     0.1954813 α      lambda       -0.1208260E-02
   maximum displ.:     0.0910359 α      in ANC's #31, #15, #1, ...

........................................................................
.............................. CYCLE   23 ..............................
........................................................................

 iter      E             dE          RMSdq      gap      omega  full diag
   1   -119.1918723 -0.119192E+03  0.533E-02    0.10       0.0  T
   2   -118.0472468  0.114463E+01  0.201E+00    0.11       1.0  T
   3   -119.1826900 -0.113544E+01  0.206E-01    0.10       1.0  T
   4   -119.1737477  0.894230E-02  0.261E-01    0.09       1.0  T
   5   -119.1852691 -0.115214E-01  0.165E-01    0.10       1.0  T
   6   -119.1012583  0.840108E-01  0.571E-01    0.08       1.0  T
   7   -119.1922974 -0.910391E-01  0.385E-02    0.10       1.0  T
   8   -119.1923555 -0.581057E-04  0.332E-02    0.10       1.0  T
   9   -119.1925686 -0.213122E-03  0.185E-02    0.10       1.0  T
  10   -119.1926155 -0.469488E-04  0.121E-02    0.10       1.0  T
  11   -119.1926492 -0.336767E-04  0.431E-03    0.10       2.8  T
  12   -119.1926523 -0.304996E-05  0.246E-03    0.10       5.0  T
  13   -119.1926534 -0.112672E-05  0.149E-03    0.10       8.2  T
  14   -119.1926539 -0.498837E-06  0.443E-04    0.10      27.6  T
  15   -119.1926539 -0.458936E-07  0.139E-04    0.10      87.7  T
  16   -119.1926539 -0.297649E-08  0.746E-05    0.10     163.7  T
     SCC iter.                  ...        0 min,  1.982 sec
     gradient                   ...        0 min,  0.097 sec
 * total energy  :  -118.3329318 Eh     change       -0.6409168E-03 Eh
   gradient norm :     0.0059352 Eh/α   predicted    -0.6272160E-03 (  -2.14%)
   displ. norm   :     0.1606663 α      lambda       -0.2213945E-03
   maximum displ.:     0.0833128 α      in ANC's #31, #15, #27, ...

........................................................................
.............................. CYCLE   24 ..............................
........................................................................

 iter      E             dE          RMSdq      gap      omega  full diag
   1   -119.1907908 -0.119191E+03  0.326E-02    0.10       0.0  T
   2   -118.8092393  0.381551E+00  0.117E+00    0.11       1.0  T
   3   -119.1845473 -0.375308E+00  0.155E-01    0.09       1.0  T
   4   -119.1809637  0.358362E-02  0.187E-01    0.09       1.0  T
   5   -119.1881917 -0.722802E-02  0.107E-01    0.10       1.0  T
   6   -119.1742640  0.139278E-01  0.246E-01    0.09       1.0  T
   7   -119.1907807 -0.165167E-01  0.318E-02    0.10       1.0  T
   8   -119.1909971 -0.216404E-03  0.131E-02    0.10       1.0  T
   9   -119.1910394 -0.423644E-04  0.478E-03    0.10       2.6  T
  10   -119.1910393  0.125750E-06  0.454E-03    0.10       2.7  T
  11   -119.1910448 -0.553242E-05  0.854E-04    0.10      14.3  T
  12   -119.1910450 -0.166559E-06  0.326E-04    0.10      37.5  T
  13   -119.1910450 -0.184650E-07  0.212E-04    0.10      57.6  T
  14   -119.1910450 -0.862552E-08  0.872E-05    0.10     140.2  T
  15   -119.1910450 -0.160107E-08  0.395E-05    0.10     309.5  T
     SCC iter.                  ...        0 min,  1.902 sec
     gradient                   ...        0 min,  0.108 sec
 * total energy  :  -118.3331212 Eh     change       -0.1893993E-03 Eh
   gradient norm :     0.0040324 Eh/α   predicted    -0.1135580E-03 ( -40.04%)
   displ. norm   :     0.5237926 α      lambda       -0.5651389E-03
   maximum displ.:     0.2364240 α      in ANC's #31, #15, #27, ...

........................................................................
.............................. CYCLE   25 ..............................
........................................................................

 iter      E             dE          RMSdq      gap      omega  full diag
   1   -119.1818826 -0.119182E+03  0.125E-01    0.09       0.0  T
   2   -112.9413538  0.624053E+01  0.464E+00    0.11       1.0  T
   3   -118.6942681 -0.575291E+01  0.131E+00    0.13       1.0  T
   4   -119.1598039 -0.465536E+00  0.302E-01    0.08       1.0  T
   5   -119.1318439  0.279599E-01  0.481E-01    0.11       1.0  T
   6   -119.1143586  0.174853E-01  0.503E-01    0.09       1.0  T
   7   -119.1812012 -0.668426E-01  0.130E-01    0.09       1.0  T
   8   -119.1847009 -0.349971E-02  0.610E-02    0.09       1.0  T
   9   -119.1855117 -0.810782E-03  0.292E-02    0.09       1.0  T
  10   -119.1855012  0.104959E-04  0.293E-02    0.09       1.0  T
  11   -119.1857015 -0.200372E-03  0.117E-02    0.09       1.0  T
  12   -119.1857244 -0.229022E-04  0.699E-03    0.09       1.7  T
  13   -119.1857311 -0.666587E-05  0.494E-03    0.09       2.5  T
  14   -119.1857366 -0.551407E-05  0.200E-03    0.09       6.1  T
  15   -119.1857376 -0.102669E-05  0.544E-04    0.09      22.4  T
  16   -119.1857377 -0.564571E-07  0.295E-04    0.09      41.4  T
  17   -119.1857377 -0.169635E-07  0.163E-04    0.09      74.8  T
  18   -119.1857377 -0.648801E-08  0.547E-05    0.09     223.4  T
     SCC iter.                  ...        0 min,  2.361 sec
     gradient                   ...        0 min,  0.109 sec
 * total energy  :  -118.3334230 Eh     change       -0.3018040E-03 Eh
   gradient norm :     0.0160706 Eh/α   predicted    -0.3600970E-03 (  19.31%)
   displ. norm   :     0.1962904 α      lambda       -0.3669795E-03
   maximum displ.:     0.0919707 α      in ANC's #15, #27, #5, ...

........................................................................
.............................. CYCLE   26 ..............................
........................................................................

 iter      E             dE          RMSdq      gap      omega  full diag
   1   -119.1866861 -0.119187E+03  0.627E-02    0.08       0.0  T
   2   -117.8553291  0.133136E+01  0.220E+00    0.10       1.0  T
   3   -119.1831914 -0.132786E+01  0.140E-01    0.08       1.0  T
   4   -119.1836540 -0.462512E-03  0.128E-01    0.09       1.0  T
   5   -119.1128977  0.707562E-01  0.518E-01    0.08       1.0  T
   6   -119.1853918 -0.724941E-01  0.896E-02    0.09       1.0  T
   7   -119.1864852 -0.109337E-02  0.655E-02    0.09       1.0  T
   8   -119.1876196 -0.113446E-02  0.181E-02    0.09       1.0  T
   9   -119.1876808 -0.611264E-04  0.883E-03    0.09       1.4  T
  10   -119.1876819 -0.118174E-05  0.826E-03    0.09       1.5  T
  11   -119.1877007 -0.187574E-04  0.158E-03    0.09       7.7  T
  12   -119.1877011 -0.350729E-06  0.855E-04    0.09      14.3  T
  13   -119.1877012 -0.140783E-06  0.331E-04    0.09      37.0  T
  14   -119.1877012 -0.236459E-07  0.150E-04    0.09      81.2  T
  15   -119.1877012 -0.280747E-08  0.110E-04    0.09     110.9  T
     SCC iter.                  ...        0 min,  2.011 sec
     gradient                   ...        0 min,  0.097 sec
 * total energy  :  -118.3336849 Eh     change       -0.2619124E-03 Eh
   gradient norm :     0.0082237 Eh/α   predicted    -0.1905595E-03 ( -27.24%)
   displ. norm   :     0.4625941 α      lambda       -0.4571441E-03
   maximum displ.:     0.2071563 α      in ANC's #15, #27, #5, ...

........................................................................
.............................. CYCLE   27 ..............................
........................................................................

 iter      E             dE          RMSdq      gap      omega  full diag
   1   -119.1825998 -0.119183E+03  0.160E-01    0.08       0.0  T
   2   -105.6576012  0.135250E+02  0.657E+00    0.03       1.0  T
   3   -117.8341503 -0.121765E+02  0.216E+00    0.11       1.0  T
   4   -119.1730389 -0.133889E+01  0.238E-01    0.07       1.0  T
   5   -118.7744471  0.398592E+00  0.123E+00    0.09       1.0  T
   6   -119.1316476 -0.357200E+00  0.481E-01    0.10       1.0  T
   7   -119.1826991 -0.510515E-01  0.156E-01    0.09       1.0  T
   8   -119.1883311 -0.563202E-02  0.613E-02    0.08       1.0  T
   9   -119.1892490 -0.917896E-03  0.211E-02    0.08       1.0  T
  10   -119.1891180  0.131020E-03  0.297E-02    0.08       1.0  T
  11   -119.1892473 -0.129247E-03  0.201E-02    0.08       1.0  T
  12   -119.1893238 -0.765389E-04  0.112E-02    0.08       1.1  T
  13   -119.1893464 -0.225844E-04  0.660E-03    0.08       1.9  T
  14   -119.1893557 -0.934379E-05  0.300E-03    0.08       4.1  T
  15   -119.1893578 -0.211165E-05  0.113E-03    0.08      10.8  T
  16   -119.1893581 -0.288498E-06  0.504E-04    0.08      24.2  T
  17   -119.1893582 -0.414724E-07  0.320E-04    0.08      38.1  T
  18   -119.1893582 -0.243934E-07  0.122E-04    0.08     100.3  T
  19   -119.1893582 -0.269330E-08  0.711E-05    0.08     171.8  T
     SCC iter.                  ...        0 min,  2.611 sec
     gradient                   ...        0 min,  0.081 sec
 * total energy  :  -118.3340640 Eh     change       -0.3790245E-03 Eh
   gradient norm :     0.0059581 Eh/α   predicted    -0.2774860E-03 ( -26.79%)
   displ. norm   :     0.6437205 α      lambda       -0.5457635E-03
   maximum displ.:     0.2838137 α      in ANC's #15, #5, #27, ...

........................................................................
.............................. CYCLE   28 ..............................
........................................................................

 iter      E             dE          RMSdq      gap      omega  full diag
   1   -119.1758161 -0.119176E+03  0.227E-01    0.08       0.0  T
   2    -99.2396421  0.199362E+02  0.790E+00    0.01       1.0  T
   3   -117.5112704 -0.182716E+02  0.242E+00    0.13       1.0  T
   4   -119.1487882 -0.163752E+01  0.379E-01    0.06       1.0  T
   5   -118.3268009  0.821987E+00  0.175E+00    0.12       1.0  T
   6   -119.0167992 -0.689998E+00  0.809E-01    0.07       1.0  T
   7   -119.1790487 -0.162249E+00  0.194E-01    0.09       1.0  T
   8   -119.1877463 -0.869759E-02  0.805E-02    0.08       1.0  T
   9   -119.1892314 -0.148508E-02  0.343E-02    0.08       1.0  T
  10   -119.1890119  0.219441E-03  0.435E-02    0.08       1.0  T
  11   -119.1894216 -0.409711E-03  0.200E-02    0.08       1.0  T
  12   -119.1894896 -0.679879E-04  0.117E-02    0.08       1.0  T
  13   -119.1895204 -0.307622E-04  0.496E-03    0.08       2.5  T
  14   -119.1895244 -0.401633E-05  0.315E-03    0.08       3.9  T
  15   -119.1895268 -0.236428E-05  0.118E-03    0.08      10.4  T
  16   -119.1895270 -0.246219E-06  0.661E-04    0.08      18.5  T
  17   -119.1895271 -0.769463E-07  0.405E-04    0.08      30.2  T
  18   -119.1895271 -0.266347E-07  0.248E-04    0.08      49.3  T
  19   -119.1895271 -0.160796E-07  0.393E-05    0.08     310.9  T
  20   -119.1895271 -0.176101E-09  0.295E-05    0.08     414.2  T
     SCC iter.                  ...        0 min,  2.670 sec
     gradient                   ...        0 min,  0.101 sec
 * total energy  :  -118.3345062 Eh     change       -0.4422066E-03 Eh
   gradient norm :     0.0061512 Eh/α   predicted    -0.3859598E-03 ( -12.72%)
   displ. norm   :     0.5763953 α      lambda       -0.4846817E-03
   maximum displ.:     0.2466333 α      in ANC's #15, #5, #13, ...

........................................................................
.............................. CYCLE   29 ..............................
........................................................................

 iter      E             dE          RMSdq      gap      omega  full diag
   1   -119.1832840 -0.119183E+03  0.188E-01    0.08       0.0  T
   2   -102.1729981  0.170103E+02  0.731E+00    0.03       1.0  T
   3   -117.4675741 -0.152946E+02  0.243E+00    0.12       1.0  T
   4   -119.1713870 -0.170381E+01  0.276E-01    0.07       1.0  T
   5   -118.3507429  0.820644E+00  0.173E+00    0.11       1.0  T
   6   -119.0620278 -0.711285E+00  0.705E-01    0.08       1.0  T
   7   -119.1871512 -0.125123E+00  0.141E-01    0.09       1.0  T
   8   -119.1919571 -0.480588E-02  0.549E-02    0.08       1.0  T
   9   -119.1925991 -0.642058E-03  0.247E-02    0.08       1.0  T
  10   -119.1924049  0.194214E-03  0.356E-02    0.08       1.0  T
  11   -119.1926500 -0.245121E-03  0.194E-02    0.08       1.0  T
  12   -119.1927115 -0.614531E-04  0.119E-02    0.08       1.0  T
  13   -119.1927388 -0.273130E-04  0.652E-03    0.08       1.9  T
  14   -119.1927452 -0.645064E-05  0.432E-03    0.08       2.8  T
  15   -119.1927497 -0.441808E-05  0.167E-03    0.08       7.3  T
  16   -119.1927502 -0.501458E-06  0.992E-04    0.08      12.3  T
  17   -119.1927503 -0.179741E-06  0.585E-04    0.08      20.9  T
  18   -119.1927504 -0.669793E-07  0.307E-04    0.08      39.8  T
  19   -119.1927504 -0.246638E-07  0.656E-05    0.08     186.1  T
  20   -119.1927504 -0.841595E-09  0.343E-05    0.08     355.8  T
     SCC iter.                  ...        0 min,  2.621 sec
     gradient                   ...        0 min,  0.088 sec
 * total energy  :  -118.3348831 Eh     change       -0.3768905E-03 Eh
   gradient norm :     0.0082584 Eh/α   predicted    -0.3228550E-03 ( -14.34%)
   displ. norm   :     0.6099820 α      lambda       -0.4492381E-03
   maximum displ.:     0.2637463 α      in ANC's #15, #5, #13, ...

........................................................................
.............................. CYCLE   30 ..............................
........................................................................

 iter      E             dE          RMSdq      gap      omega  full diag
   1   -119.1820947 -0.119182E+03  0.182E-01    0.09       0.0  T
   2   -104.0096963  0.151724E+02  0.702E+00    0.02       1.0  T
   3   -117.4082251 -0.133985E+02  0.248E+00    0.14       1.0  T
   4   -119.1344601 -0.172624E+01  0.460E-01    0.07       1.0  T
   5   -118.9185757  0.215884E+00  0.988E-01    0.11       1.0  T
   6   -118.9195849 -0.100919E-02  0.996E-01    0.08       1.0  T
   7   -119.1874418 -0.267857E+00  0.114E-01    0.09       1.0  T
   8   -119.1907933 -0.335152E-02  0.366E-02    0.09       1.0  T
   9   -119.1908003 -0.701209E-05  0.354E-02    0.09       1.0  T
  10   -119.1909301 -0.129779E-03  0.282E-02    0.09       1.0  T
  11   -119.1910994 -0.169348E-03  0.136E-02    0.08       1.0  T
  12   -119.1911298 -0.303486E-04  0.800E-03    0.08       1.5  T
  13   -119.1911428 -0.129991E-04  0.409E-03    0.08       3.0  T
  14   -119.1911441 -0.126783E-05  0.343E-03    0.08       3.6  T
  15   -119.1911464 -0.238041E-05  0.185E-03    0.08       6.6  T
  16   -119.1911471 -0.652226E-06  0.104E-03    0.08      11.8  T
  17   -119.1911474 -0.280268E-06  0.251E-04    0.08      48.7  T
  18   -119.1911474 -0.135451E-07  0.112E-04    0.08     109.5  T
  19   -119.1911474 -0.317378E-08  0.285E-05    0.08     428.0  T
     SCC iter.                  ...        0 min,  2.577 sec
     gradient                   ...        0 min,  0.089 sec
 * total energy  :  -118.3352947 Eh     change       -0.4116499E-03 Eh
   gradient norm :     0.0095608 Eh/α   predicted    -0.3081990E-03 ( -25.13%)
   displ. norm   :     0.7893103 α      lambda       -0.9251186E-03
   maximum displ.:     0.3271523 α      in ANC's #5, #15, #13, ...

........................................................................
.............................. CYCLE   31 ..............................
........................................................................

 iter      E             dE          RMSdq      gap      omega  full diag
   1   -119.1754243 -0.119175E+03  0.254E-01    0.09       0.0  T
   2    -97.2931528  0.218823E+02  0.843E+00    0.03       1.0  T
   3   -117.1929717 -0.198998E+02  0.272E+00    0.18       1.0  T
   4   -118.6154469 -0.142248E+01  0.144E+00    0.02       1.0  T
   5   -118.8301414 -0.214694E+00  0.113E+00    0.14       1.0  T
   6   -119.0420179 -0.211877E+00  0.752E-01    0.07       1.0  T
   7   -119.1870674 -0.145049E+00  0.150E-01    0.09       1.0  T
   8   -119.1913812 -0.431387E-02  0.794E-02    0.09       1.0  T
   9   -119.1923105 -0.929267E-03  0.541E-02    0.09       1.0  T
  10   -119.1926477 -0.337166E-03  0.389E-02    0.09       1.0  T
  11   -119.1930580 -0.410277E-03  0.657E-03    0.09       1.9  T
  12   -119.1930499  0.804084E-05  0.837E-03    0.09       1.5  T
  13   -119.1930500 -0.451767E-07  0.835E-03    0.09       1.5  T
  14   -119.1930646 -0.146414E-04  0.361E-03    0.09       3.4  T
  15   -119.1930669 -0.229138E-05  0.198E-03    0.09       6.2  T
  16   -119.1930674 -0.503823E-06  0.146E-03    0.09       8.3  T
  17   -119.1930677 -0.343147E-06  0.941E-04    0.09      13.0  T
  18   -119.1930679 -0.187553E-06  0.424E-04    0.09      28.8  T
  19   -119.1930680 -0.354274E-07  0.154E-04    0.09      79.2  T
  20   -119.1930680 -0.431517E-08  0.541E-05    0.09     225.9  T
     SCC iter.                  ...        0 min,  2.579 sec
     gradient                   ...        0 min,  0.112 sec
 * total energy  :  -118.3357788 Eh     change       -0.4841341E-03 Eh
   gradient norm :     0.0101433 Eh/α   predicted    -0.7507425E-03 (  55.07%)
   displ. norm   :     0.1873927 α      lambda       -0.3255125E-03
   maximum displ.:     0.0734692 α      in ANC's #15, #5, #16, ...

........................................................................
.............................. CYCLE   32 ..............................
........................................................................

 iter      E             dE          RMSdq      gap      omega  full diag
   1   -119.1897084 -0.119190E+03  0.571E-02    0.09       0.0  T
   2   -117.1569919  0.203272E+01  0.266E+00    0.09       1.0  T
   3   -119.1486192 -0.199163E+01  0.388E-01    0.08       1.0  T
   4   -119.1742566 -0.256374E-01  0.242E-01    0.10       1.0  T
   5   -119.1700513  0.420537E-02  0.276E-01    0.08       1.0  T
   6   -119.1342307  0.358205E-01  0.452E-01    0.11       1.0  T
   7   -119.1903975 -0.561667E-01  0.263E-02    0.09       1.0  T
   8   -119.1905687 -0.171192E-03  0.851E-03    0.09       1.4  T
   9   -119.1905720 -0.335810E-05  0.672E-03    0.09       1.8  T
  10   -119.1905700  0.202716E-05  0.698E-03    0.09       1.7  T
  11   -119.1905821 -0.120983E-04  0.176E-03    0.09       7.0  T
  12   -119.1905826 -0.505530E-06  0.103E-03    0.09      11.8  T
  13   -119.1905828 -0.197457E-06  0.582E-04    0.09      21.0  T
  14   -119.1905829 -0.531398E-07  0.382E-04    0.09      32.0  T
  15   -119.1905829 -0.203251E-07  0.262E-04    0.09      46.7  T
  16   -119.1905829 -0.128911E-07  0.140E-04    0.09      87.0  T
  17   -119.1905829 -0.437221E-08  0.580E-05    0.09     210.6  T
     SCC iter.                  ...        0 min,  2.439 sec
     gradient                   ...        0 min,  0.083 sec
 * total energy  :  -118.3359772 Eh     change       -0.1983448E-03 Eh
   gradient norm :     0.0085298 Eh/α   predicted    -0.1684733E-03 ( -15.06%)
   displ. norm   :     0.4547192 α      lambda       -0.5287279E-03
   maximum displ.:     0.1997452 α      in ANC's #27, #31, #15, ...

........................................................................
.............................. CYCLE   33 ..............................
........................................................................

 iter      E             dE          RMSdq      gap      omega  full diag
   1   -119.1857378 -0.119186E+03  0.299E-01    0.09       0.0  T
   2    -95.6957904  0.234899E+02  0.865E+00    0.04       1.0  T
   3   -118.3795001 -0.226837E+02  0.212E+00    0.13       1.0  T
   4   -118.9459728 -0.566473E+00  0.977E-01    0.09       1.0  T
   5   -119.1030584 -0.157086E+00  0.616E-01    0.10       1.0  T
   6   -119.0303477  0.727107E-01  0.789E-01    0.04       1.0  T
   7   -119.1737842 -0.143437E+00  0.359E-01    0.11       1.0  T
   8   -119.2062233 -0.324391E-01  0.975E-02    0.09       1.0  T
   9   -119.2086723 -0.244904E-02  0.204E-02    0.09       1.0  T
  10   -119.2086128  0.595032E-04  0.228E-02    0.09       1.0  T
  11   -119.2087244 -0.111549E-03  0.847E-03    0.09       1.4  T
  12   -119.2087352 -0.108485E-04  0.494E-03    0.09       2.5  T
  13   -119.2087381 -0.292441E-05  0.341E-03    0.09       3.6  T
  14   -119.2087400 -0.189269E-05  0.215E-03    0.09       5.7  T
  15   -119.2087409 -0.861265E-06  0.122E-03    0.09      10.0  T
  16   -119.2087412 -0.294129E-06  0.660E-04    0.09      18.5  T
  17   -119.2087413 -0.751043E-07  0.377E-04    0.09      32.4  T
  18   -119.2087413 -0.230151E-07  0.156E-04    0.09      78.3  T
  19   -119.2087413 -0.354989E-08  0.570E-05    0.09     214.2  T
     SCC iter.                  ...        0 min,  2.521 sec
     gradient                   ...        0 min,  0.077 sec
 * total energy  :  -118.3350783 Eh     change        0.8988597E-03 Eh
   gradient norm :     0.0308810 Eh/α   predicted    -0.3190309E-03 (-135.49%)
   displ. norm   :     0.2768180 α      lambda       -0.1613147E-02
   maximum displ.:     0.1168351 α      in ANC's #31, #15, #27, ...

........................................................................
.............................. CYCLE   34 ..............................
........................................................................

 iter      E             dE          RMSdq      gap      omega  full diag
   1   -119.1875771 -0.119188E+03  0.189E-01    0.10       0.0  T
   2   -103.5085641  0.156790E+02  0.719E+00    0.02       1.0  T
   3   -117.9359041 -0.144273E+02  0.209E+00    0.16       1.0  T
   4   -119.1663707 -0.123047E+01  0.333E-01    0.07       1.0  T
   5   -118.7215481  0.444823E+00  0.130E+00    0.13       1.0  T
   6   -118.7872177 -0.656696E-01  0.121E+00    0.08       1.0  T
   7   -119.1931071 -0.405889E+00  0.117E-01    0.10       1.0  T
   8   -119.1959878 -0.288074E-02  0.579E-02    0.10       1.0  T
   9   -119.1965038 -0.515959E-03  0.371E-02    0.09       1.0  T
  10   -119.1964938  0.100033E-04  0.377E-02    0.10       1.0  T
  11   -119.1968246 -0.330867E-03  0.134E-02    0.09       1.0  T
  12   -119.1968385 -0.138205E-04  0.991E-03    0.09       1.2  T
  13   -119.1968479 -0.940878E-05  0.785E-03    0.09       1.6  T
  14   -119.1968571 -0.922778E-05  0.523E-03    0.09       2.3  T
  15   -119.1968642 -0.709995E-05  0.122E-03    0.09      10.0  T
  16   -119.1968645 -0.343411E-06  0.411E-04    0.09      29.7  T
  17   -119.1968646 -0.279544E-07  0.277E-04    0.09      44.1  T
  18   -119.1968646 -0.122993E-07  0.174E-04    0.09      70.2  T
  19   -119.1968646 -0.634186E-08  0.698E-05    0.09     174.9  T
     SCC iter.                  ...        0 min,  2.450 sec
     gradient                   ...        0 min,  0.096 sec
 * total energy  :  -118.3360846 Eh     change       -0.1006289E-02 Eh
   gradient norm :     0.0081285 Eh/α   predicted    -0.8683728E-03 ( -13.71%)
   displ. norm   :     0.4691870 α      lambda       -0.6309186E-03
   maximum displ.:     0.1956798 α      in ANC's #15, #5, #13, ...

........................................................................
.............................. CYCLE   35 ..............................
........................................................................

 iter      E             dE          RMSdq      gap      omega  full diag
   1   -119.1784554 -0.119178E+03  0.164E-01    0.10       0.0  T
   2   -108.1736644  0.110048E+02  0.618E+00    0.05       1.0  T
   3   -118.7518075 -0.105781E+02  0.124E+00    0.16       1.0  T
   4   -119.0642631 -0.312456E+00  0.654E-01    0.06       1.0  T
   5   -119.1379556 -0.736925E-01  0.432E-01    0.11       1.0  T
   6   -118.5029701  0.634986E+00  0.155E+00    0.08       1.0  T
   7   -119.1845823 -0.681612E+00  0.688E-02    0.10       1.0  T
   8   -119.1856861 -0.110379E-02  0.315E-02    0.10       1.0  T
   9   -119.1858129 -0.126868E-03  0.176E-02    0.10       1.0  T
  10   -119.1858750 -0.620277E-04  0.722E-03    0.10       1.7  T
  11   -119.1858869 -0.119105E-04  0.302E-03    0.10       4.0  T
  12   -119.1858859  0.929867E-06  0.359E-03    0.10       3.4  T
  13   -119.1858870 -0.105968E-05  0.300E-03    0.10       4.1  T
  14   -119.1858884 -0.143978E-05  0.171E-03    0.10       7.1  T
  15   -119.1858889 -0.436469E-06  0.983E-04    0.10      12.4  T
  16   -119.1858891 -0.197036E-06  0.423E-04    0.10      28.8  T
  17   -119.1858891 -0.394359E-07  0.139E-04    0.10      88.0  T
  18   -119.1858891 -0.471444E-08  0.437E-05    0.10     279.5  T
     SCC iter.                  ...        0 min,  2.366 sec
     gradient                   ...        0 min,  0.082 sec
 * total energy  :  -118.3361152 Eh     change       -0.3056009E-04 Eh
   gradient norm :     0.0142769 Eh/α   predicted    -0.3849056E-03 (1159.50%)
   displ. norm   :     0.2267155 α      lambda       -0.4350193E-03
   maximum displ.:     0.0977028 α      in ANC's #5, #10, #16, ...

........................................................................
.............................. CYCLE   36 ..............................
........................................................................

 iter      E             dE          RMSdq      gap      omega  full diag
   1   -119.1900379 -0.119190E+03  0.541E-02    0.10       0.0  T
   2   -117.8558194  0.133422E+01  0.218E+00    0.10       1.0  T
   3   -119.1548473 -0.129903E+01  0.366E-01    0.09       1.0  T
   4   -119.1742502 -0.194029E-01  0.246E-01    0.11       1.0  T
   5   -119.1868132 -0.125630E-01  0.128E-01    0.09       1.0  T
   6   -119.1055122  0.813010E-01  0.545E-01    0.13       1.0  T
   7   -119.1905566 -0.850444E-01  0.313E-02    0.10       1.0  T
   8   -119.1907986 -0.242082E-03  0.959E-03    0.10       1.3  T
   9   -119.1907809  0.177388E-04  0.123E-02    0.10       1.0  T
  10   -119.1908011 -0.201515E-04  0.778E-03    0.10       1.6  T
  11   -119.1908132 -0.121544E-04  0.361E-03    0.10       3.4  T
  12   -119.1908162 -0.298529E-05  0.144E-03    0.10       8.5  T
  13   -119.1908165 -0.307051E-06  0.966E-04    0.10      12.6  T
  14   -119.1908167 -0.193362E-06  0.445E-04    0.10      27.5  T
  15   -119.1908167 -0.444520E-07  0.160E-04    0.10      76.2  T
  16   -119.1908167 -0.657231E-08  0.357E-05    0.10     341.9  T
     SCC iter.                  ...        0 min,  2.114 sec
     gradient                   ...        0 min,  0.081 sec
 * total energy  :  -118.3363897 Eh     change       -0.2745203E-03 Eh
   gradient norm :     0.0052745 Eh/α   predicted    -0.2286930E-03 ( -16.69%)
   displ. norm   :     0.1889000 α      lambda       -0.1721258E-03
   maximum displ.:     0.0734954 α      in ANC's #5, #10, #3, ...

........................................................................
.............................. CYCLE   37 ..............................
........................................................................

 iter      E             dE          RMSdq      gap      omega  full diag
   1   -119.1946003 -0.119195E+03  0.549E-02    0.10       0.0  T
   2   -117.9649674  0.122963E+01  0.209E+00    0.09       1.0  T
   3   -119.1519752 -0.118701E+01  0.404E-01    0.09       1.0  T
   4   -119.1735340 -0.215588E-01  0.282E-01    0.12       1.0  T
   5   -119.1906508 -0.171168E-01  0.135E-01    0.10       1.0  T
   6   -119.1463179  0.443329E-01  0.416E-01    0.12       1.0  T
   7   -119.1950921 -0.487742E-01  0.337E-02    0.10       1.0  T
   8   -119.1953475 -0.255421E-03  0.123E-02    0.10       1.0  T
   9   -119.1953694 -0.219164E-04  0.840E-03    0.10       1.5  T
  10   -119.1953819 -0.124302E-04  0.488E-03    0.10       2.5  T
  11   -119.1953872 -0.534497E-05  0.210E-03    0.10       5.8  T
  12   -119.1953880 -0.818294E-06  0.118E-03    0.10      10.4  T
  13   -119.1953882 -0.201593E-06  0.813E-04    0.10      15.0  T
  14   -119.1953884 -0.136345E-06  0.400E-04    0.10      30.5  T
  15   -119.1953884 -0.311385E-07  0.217E-04    0.10      56.3  T
  16   -119.1953884 -0.120536E-07  0.418E-05    0.10     292.4  T
  17   -119.1953884 -0.431157E-09  0.584E-06    0.10    2093.1  T
     SCC iter.                  ...        0 min,  2.287 sec
     gradient                   ...        0 min,  0.100 sec
 * total energy  :  -118.3365051 Eh     change       -0.1153857E-03 Eh
   gradient norm :     0.0029284 Eh/α   predicted    -0.8913682E-04 ( -22.75%)
   displ. norm   :     0.4955274 α      lambda       -0.2188994E-03
   maximum displ.:     0.2189622 α      in ANC's #5, #10, #6, ...

........................................................................
.............................. CYCLE   38 ..............................
........................................................................

 iter      E             dE          RMSdq      gap      omega  full diag
   1   -119.1952203 -0.119195E+03  0.442E-02    0.12       0.0  T
   2   -118.3811849  0.814035E+00  0.167E+00    0.01       1.0  T
   3   -119.1800225 -0.798838E+00  0.258E-01    0.12       1.0  T
   4   -119.1691305  0.108919E-01  0.308E-01    0.12       1.0  T
   5   -119.1904795 -0.213489E-01  0.141E-01    0.11       1.0  T
   6   -119.1591544  0.313251E-01  0.362E-01    0.11       1.0  T
   7   -119.1954550 -0.363007E-01  0.325E-02    0.11       1.0  T
   8   -119.1956785 -0.223482E-03  0.739E-03    0.11       1.7  T
   9   -119.1956582  0.203264E-04  0.108E-02    0.11       1.1  T
  10   -119.1956862 -0.280292E-04  0.411E-03    0.11       3.0  T
  11   -119.1956886 -0.242667E-05  0.271E-03    0.11       4.5  T
  12   -119.1956906 -0.194818E-05  0.470E-04    0.11      26.0  T
  13   -119.1956906 -0.312536E-07  0.226E-04    0.11      54.0  T
  14   -119.1956906 -0.122352E-07  0.962E-05    0.11     127.0  T
  15   -119.1956906 -0.434525E-09  0.834E-05    0.11     146.6  T
     SCC iter.                  ...        0 min,  1.964 sec
     gradient                   ...        0 min,  0.119 sec
 * total energy  :  -118.3366919 Eh     change       -0.1867917E-03 Eh
   gradient norm :     0.0034477 Eh/α   predicted    -0.1363263E-03 ( -27.02%)
   displ. norm   :     0.6172394 α      lambda       -0.3126719E-03
   maximum displ.:     0.2635593 α      in ANC's #5, #10, #6, ...

........................................................................
.............................. CYCLE   39 ..............................
........................................................................

 iter      E             dE          RMSdq      gap      omega  full diag
   1   -119.1939675 -0.119194E+03  0.508E-02    0.13       0.0  T
   2   -117.1860505  0.200792E+01  0.259E+00    0.04       1.0  T
   3   -119.1905691 -0.200452E+01  0.129E-01    0.12       1.0  T
   4   -119.1415014  0.490677E-01  0.432E-01    0.14       1.0  T
   5   -119.1763973 -0.348958E-01  0.268E-01    0.12       1.0  T
   6   -119.1459605  0.304368E-01  0.419E-01    0.12       1.0  T
   7   -119.1941076 -0.481472E-01  0.486E-02    0.12       1.0  T
   8   -119.1946101 -0.502446E-03  0.128E-02    0.12       1.0  T
   9   -119.1945901  0.199752E-04  0.148E-02    0.12       1.0  T
  10   -119.1946338 -0.437529E-04  0.784E-03    0.12       1.6  T
  11   -119.1946477 -0.138329E-04  0.338E-03    0.12       3.6  T
  12   -119.1946506 -0.291275E-05  0.624E-04    0.12      19.6  T
  13   -119.1946506 -0.223071E-08  0.581E-04    0.12      21.0  T
  14   -119.1946506 -0.626448E-07  0.346E-04    0.12      35.3  T
  15   -119.1946507 -0.696514E-08  0.304E-04    0.12      40.2  T
  16   -119.1946507 -0.161783E-07  0.187E-04    0.12      65.4  T
  17   -119.1946507 -0.537668E-08  0.122E-04    0.12      99.7  T
     SCC iter.                  ...        0 min,  2.152 sec
     gradient                   ...        0 min,  0.090 sec
 * total energy  :  -118.3369326 Eh     change       -0.2407521E-03 Eh
   gradient norm :     0.0037389 Eh/α   predicted    -0.2159012E-03 ( -10.32%)
   displ. norm   :     0.6066837 α      lambda       -0.2310865E-03
   maximum displ.:     0.2651457 α      in ANC's #5, #10, #6, ...

........................................................................
.............................. CYCLE   40 ..............................
........................................................................

 iter      E             dE          RMSdq      gap      omega  full diag
   1   -119.1907530 -0.119191E+03  0.653E-02    0.14       0.0  T
   2   -117.0782347  0.211252E+01  0.267E+00    0.07       1.0  T
   3   -119.1049213 -0.202669E+01  0.570E-01    0.14       1.0  T
   4   -119.1802199 -0.752985E-01  0.212E-01    0.13       1.0  T
   5   -119.1700847  0.101352E-01  0.283E-01    0.14       1.0  T
   6   -119.1567738  0.133109E-01  0.361E-01    0.13       1.0  T
   7   -119.1916509 -0.348770E-01  0.353E-02    0.13       1.0  T
   8   -119.1918887 -0.237794E-03  0.171E-02    0.13       1.0  T
   9   -119.1919119 -0.232056E-04  0.141E-02    0.13       1.0  T
  10   -119.1919527 -0.408744E-04  0.710E-03    0.13       1.7  T
  11   -119.1919656 -0.128899E-04  0.150E-03    0.13       8.1  T
  12   -119.1919660 -0.332446E-06  0.103E-03    0.13      11.8  T
  13   -119.1919660 -0.694320E-07  0.899E-04    0.13      13.6  T
  14   -119.1919662 -0.164469E-06  0.438E-04    0.13      27.9  T
  15   -119.1919662 -0.421700E-07  0.159E-04    0.13      76.8  T
  16   -119.1919662 -0.606666E-08  0.500E-05    0.13     244.5  T
     SCC iter.                  ...        0 min,  2.050 sec
     gradient                   ...        0 min,  0.093 sec
 * total energy  :  -118.3371086 Eh     change       -0.1759610E-03 Eh
   gradient norm :     0.0050553 Eh/α   predicted    -0.1580746E-03 ( -10.16%)
   displ. norm   :     0.5425302 α      lambda       -0.2869537E-03
   maximum displ.:     0.2259927 α      in ANC's #10, #5, #17, ...

........................................................................
.............................. CYCLE   41 ..............................
........................................................................

 iter      E             dE          RMSdq      gap      omega  full diag
   1   -119.1911719 -0.119191E+03  0.753E-02    0.15       0.0  T
   2   -117.2745957  0.191658E+01  0.261E+00    0.04       1.0  T
   3   -119.1379800 -0.186338E+01  0.443E-01    0.13       1.0  T
   4   -119.1870447 -0.490647E-01  0.145E-01    0.14       1.0  T
   5   -119.1335138  0.535308E-01  0.453E-01    0.11       1.0  T
   6   -119.1914730 -0.579592E-01  0.780E-02    0.14       1.0  T
   7   -119.1919456 -0.472554E-03  0.649E-02    0.14       1.0  T
   8   -119.1922511 -0.305564E-03  0.458E-02    0.14       1.0  T
   9   -119.1926823 -0.431179E-03  0.221E-02    0.14       1.0  T
  10   -119.1927702 -0.878456E-04  0.128E-02    0.14       1.0  T
  11   -119.1928141 -0.439768E-04  0.254E-03    0.14       4.8  T
  12   -119.1928132  0.931701E-06  0.299E-03    0.14       4.1  T
  13   -119.1928149 -0.171394E-05  0.165E-03    0.14       7.4  T
  14   -119.1928155 -0.571087E-06  0.717E-04    0.14      17.0  T
  15   -119.1928156 -0.136248E-06  0.173E-04    0.14      70.7  T
  16   -119.1928156 -0.704632E-08  0.628E-05    0.14     194.7  T
     SCC iter.                  ...        0 min,  2.101 sec
     gradient                   ...        0 min,  0.104 sec
 * total energy  :  -118.3372950 Eh     change       -0.1863734E-03 Eh
   gradient norm :     0.0069843 Eh/α   predicted    -0.1857120E-03 (  -0.35%)
   displ. norm   :     0.5012297 α      lambda       -0.2832495E-03
   maximum displ.:     0.2330579 α      in ANC's #10, #5, #17, ...

........................................................................
.............................. CYCLE   42 ..............................
........................................................................

 iter      E             dE          RMSdq      gap      omega  full diag
   1   -119.1900931 -0.119190E+03  0.820E-02    0.16       0.0  T
   2   -115.9913833  0.319871E+01  0.328E+00    0.10       1.0  T
   3   -118.9885051 -0.299712E+01  0.855E-01    0.15       1.0  T
   4   -119.1875747 -0.199070E+00  0.131E-01    0.15       1.0  T
   5   -119.0961192  0.914556E-01  0.589E-01    0.15       1.0  T
   6   -119.1597152 -0.635961E-01  0.361E-01    0.15       1.0  T
   7   -119.1914417 -0.317265E-01  0.490E-02    0.15       1.0  T
   8   -119.1915741 -0.132376E-03  0.429E-02    0.15       1.0  T
   9   -119.1919539 -0.379803E-03  0.213E-02    0.15       1.0  T
  10   -119.1920136 -0.596723E-04  0.153E-02    0.15       1.0  T
  11   -119.1920728 -0.592192E-04  0.472E-03    0.15       2.6  T
  12   -119.1920769 -0.416695E-05  0.284E-03    0.15       4.3  T
  13   -119.1920775 -0.606053E-06  0.238E-03    0.15       5.1  T
  14   -119.1920788 -0.123553E-05  0.997E-04    0.15      12.2  T
  15   -119.1920790 -0.188567E-06  0.485E-04    0.15      25.2  T
  16   -119.1920790 -0.562058E-07  0.142E-04    0.15      85.8  T
  17   -119.1920790 -0.373294E-08  0.813E-05    0.15     150.3  T
     SCC iter.                  ...        0 min,  2.282 sec
     gradient                   ...        0 min,  0.105 sec
 * total energy  :  -118.3375229 Eh     change       -0.2278873E-03 Eh
   gradient norm :     0.0074233 Eh/α   predicted    -0.1772087E-03 ( -22.24%)
   displ. norm   :     0.5558031 α      lambda       -0.4020029E-03
   maximum displ.:     0.2589978 α      in ANC's #10, #5, #17, ...
 * RMSD in coord.:     0.8842339 α      energy gain  -0.5296119E-02 Eh

generating ANC from model Hessian ...
Using Lindh-Hessian (1995)
 Shifting diagonal of input Hessian by    1.0713726115274162E-002
 Lowest  eigenvalues of input Hessian
    0.010000    0.010143    0.010445    0.010669    0.010704    0.000000
    0.000000    0.000000    0.000000    0.000000    0.000000    0.010729
    0.010737    0.010781    0.010811    0.010827    0.010879    0.010981
 Highest eigenvalues
    1.634222    1.861025    1.927885    2.037869    2.155782    2.352848


........................................................................
.............................. CYCLE   43 ..............................
........................................................................

 iter      E             dE          RMSdq      gap      omega  full diag
   1   -119.1883043 -0.119188E+03  0.132E-01    0.17       0.0  T
   2   -115.1946937  0.399361E+01  0.374E+00    0.08       1.0  T
   3   -118.9551610 -0.376047E+01  0.936E-01    0.17       1.0  T
   4   -119.1665616 -0.211401E+00  0.318E-01    0.14       1.0  T
   5   -119.1875605 -0.209989E-01  0.163E-01    0.16       1.0  T
   6   -119.0762916  0.111269E+00  0.649E-01    0.14       1.0  T
   7   -119.1908581 -0.114566E+00  0.985E-02    0.15       1.0  T
   8   -119.1917438 -0.885732E-03  0.780E-02    0.15       1.0  T
   9   -119.1930806 -0.133675E-02  0.374E-02    0.15       1.0  T
  10   -119.1934065 -0.325944E-03  0.158E-02    0.16       1.0  T
  11   -119.1934756 -0.690984E-04  0.427E-03    0.16       2.9  T
  12   -119.1934758 -0.172339E-06  0.441E-03    0.16       2.8  T
  13   -119.1934786 -0.283767E-05  0.241E-03    0.16       5.1  T
  14   -119.1934799 -0.129578E-05  0.620E-04    0.16      19.7  T
  15   -119.1934800 -0.864515E-07  0.238E-04    0.16      51.3  T
  16   -119.1934800 -0.453987E-08  0.189E-04    0.16      64.6  T
  17   -119.1934800 -0.583576E-08  0.123E-04    0.16      99.3  T
     SCC iter.                  ...        0 min,  2.116 sec
     gradient                   ...        0 min,  0.098 sec
 * total energy  :  -118.3378330 Eh     change       -0.3101607E-03 Eh
   gradient norm :     0.0091868 Eh/α   predicted     0.0000000E+00 (-100.00%)
   displ. norm   :     0.1329168 α      lambda       -0.4209750E-03
   maximum displ.:     0.0577406 α      in ANC's #43, #47, #49, ...

........................................................................
.............................. CYCLE   44 ..............................
........................................................................

 iter      E             dE          RMSdq      gap      omega  full diag
   1   -119.1910141 -0.119191E+03  0.751E-02    0.15       0.0  T
   2   -115.8231246  0.336789E+01  0.339E+00    0.06       1.0  T
   3   -119.1234889 -0.330036E+01  0.503E-01    0.10       1.0  T
   4   -119.1715976 -0.481087E-01  0.274E-01    0.16       1.0  T
   5   -119.1759392 -0.434158E-02  0.257E-01    0.13       1.0  T
   6   -119.1757979  0.141305E-03  0.245E-01    0.13       1.0  T
   7   -119.1898743 -0.140765E-01  0.101E-01    0.14       1.0  T
   8   -119.1918803 -0.200599E-02  0.527E-02    0.14       1.0  T
   9   -119.1922401 -0.359806E-03  0.391E-02    0.14       1.0  T
  10   -119.1924825 -0.242386E-03  0.251E-02    0.14       1.0  T
  11   -119.1926215 -0.138967E-03  0.109E-02    0.14       1.1  T
  12   -119.1926406 -0.190598E-04  0.698E-03    0.14       1.7  T
  13   -119.1926475 -0.698124E-05  0.477E-03    0.14       2.6  T
  14   -119.1926521 -0.457130E-05  0.228E-03    0.14       5.4  T
  15   -119.1926532 -0.109673E-05  0.102E-03    0.14      11.9  T
  16   -119.1926534 -0.235174E-06  0.394E-04    0.14      31.0  T
  17   -119.1926535 -0.355535E-07  0.159E-04    0.14      76.7  T
  18   -119.1926535 -0.526276E-08  0.766E-05    0.14     159.4  T
     SCC iter.                  ...        0 min,  2.335 sec
     gradient                   ...        0 min,  0.086 sec
 * total energy  :  -118.3370575 Eh     change        0.7754858E-03 Eh
   gradient norm :     0.0201325 Eh/α   predicted    -0.2142097E-03 (-127.62%)
   displ. norm   :     0.1045051 α      lambda       -0.1825189E-02
   maximum displ.:     0.0663388 α      in ANC's #43, #47, #36, ...

........................................................................
.............................. CYCLE   45 ..............................
........................................................................

 iter      E             dE          RMSdq      gap      omega  full diag
   1   -119.1939777 -0.119194E+03  0.630E-02    0.15       0.0  T
   2   -117.8018790  0.139210E+01  0.222E+00    0.16       1.0  T
   3   -119.1498936 -0.134801E+01  0.402E-01    0.13       1.0  T
   4   -119.1792137 -0.293201E-01  0.239E-01    0.17       1.0  T
   5   -119.1922638 -0.130501E-01  0.118E-01    0.15       1.0  T
   6   -119.1591288  0.331350E-01  0.358E-01    0.16       1.0  T
   7   -119.1940026 -0.348738E-01  0.640E-02    0.16       1.0  T
   8   -119.1948576 -0.854952E-03  0.285E-02    0.16       1.0  T
   9   -119.1949790 -0.121449E-03  0.189E-02    0.16       1.0  T
  10   -119.1950279 -0.489335E-04  0.130E-02    0.16       1.0  T
  11   -119.1950624 -0.344963E-04  0.670E-03    0.16       1.8  T
  12   -119.1950675 -0.509900E-05  0.513E-03    0.16       2.4  T
  13   -119.1950729 -0.539563E-05  0.265E-03    0.15       4.6  T
  14   -119.1950748 -0.186950E-05  0.383E-04    0.15      31.9  T
  15   -119.1950748 -0.402552E-07  0.573E-05    0.15     213.4  T
  16   -119.1950749 -0.472255E-09  0.319E-05    0.15     383.2  T
     SCC iter.                  ...        0 min,  2.041 sec
     gradient                   ...        0 min,  0.087 sec
 * total energy  :  -118.3379948 Eh     change       -0.9372333E-03 Eh
   gradient norm :     0.0031324 Eh/α   predicted    -0.9225670E-03 (  -1.56%)
   displ. norm   :     0.1130270 α      lambda       -0.2043706E-03
   maximum displ.:     0.0513424 α      in ANC's #36, #35, #5, ...

........................................................................
.............................. CYCLE   46 ..............................
........................................................................

 iter      E             dE          RMSdq      gap      omega  full diag
   1   -119.1909669 -0.119191E+03  0.121E-01    0.16       0.0  T
   2   -110.4097184  0.878125E+01  0.545E+00    0.08       1.0  T
   3   -119.0225519 -0.861283E+01  0.791E-01    0.13       1.0  T
   4   -119.1526092 -0.130057E+00  0.396E-01    0.18       1.0  T
   5   -119.1775866 -0.249775E-01  0.291E-01    0.15       1.0  T
   6   -119.0086045  0.168982E+00  0.802E-01    0.10       1.0  T
   7   -119.1933431 -0.184739E+00  0.826E-02    0.16       1.0  T
   8   -119.1947692 -0.142606E-02  0.329E-02    0.16       1.0  T
   9   -119.1949979 -0.228710E-03  0.176E-02    0.16       1.0  T
  10   -119.1950168 -0.189322E-04  0.143E-02    0.16       1.0  T
  11   -119.1950476 -0.307491E-04  0.810E-03    0.16       1.5  T
  12   -119.1950598 -0.121644E-04  0.417E-03    0.16       2.9  T
  13   -119.1950623 -0.250928E-05  0.285E-03    0.16       4.3  T
  14   -119.1950637 -0.142389E-05  0.169E-03    0.16       7.2  T
  15   -119.1950644 -0.661686E-06  0.610E-04    0.16      20.0  T
  16   -119.1950644 -0.939059E-07  0.128E-04    0.16      95.4  T
  17   -119.1950644 -0.159136E-08  0.100E-04    0.16     122.2  T
     SCC iter.                  ...        0 min,  2.138 sec
     gradient                   ...        0 min,  0.094 sec
 * total energy  :  -118.3378965 Eh     change        0.9827811E-04 Eh
   gradient norm :     0.0050883 Eh/α   predicted    -0.1034916E-03 (-205.30%)
   displ. norm   :     0.0868550 α      lambda       -0.1979763E-03
   maximum displ.:     0.0317285 α      in ANC's #5, #7, #14, ...

........................................................................
.............................. CYCLE   47 ..............................
........................................................................

 iter      E             dE          RMSdq      gap      omega  full diag
   1   -119.1940340 -0.119194E+03  0.577E-02    0.16       0.0  T
   2   -117.7270632  0.146697E+01  0.229E+00    0.06       1.0  T
   3   -119.1454897 -0.141843E+01  0.412E-01    0.19       1.0  T
   4   -119.1883583 -0.428686E-01  0.152E-01    0.15       1.0  T
   5   -119.1585773  0.297810E-01  0.370E-01    0.15       1.0  T
   6   -119.1755927 -0.170154E-01  0.272E-01    0.16       1.0  T
   7   -119.1946542 -0.190614E-01  0.341E-02    0.16       1.0  T
   8   -119.1948399 -0.185734E-03  0.199E-02    0.16       1.0  T
   9   -119.1949132 -0.733278E-04  0.117E-02    0.16       1.0  T
  10   -119.1949171 -0.384560E-05  0.108E-02    0.16       1.1  T
  11   -119.1949347 -0.176502E-04  0.684E-03    0.16       1.8  T
  12   -119.1949454 -0.106921E-04  0.285E-03    0.16       4.3  T
  13   -119.1949464 -0.980616E-06  0.211E-03    0.16       5.8  T
  14   -119.1949475 -0.105601E-05  0.784E-04    0.16      15.6  T
  15   -119.1949476 -0.148178E-06  0.265E-04    0.16      46.0  T
  16   -119.1949476 -0.182485E-07  0.700E-05    0.16     174.5  T
  17   -119.1949476 -0.123282E-08  0.220E-05    0.16     555.0  T
     SCC iter.                  ...        0 min,  2.056 sec
     gradient                   ...        0 min,  0.091 sec
 * total energy  :  -118.3380993 Eh     change       -0.2028118E-03 Eh
   gradient norm :     0.0047531 Eh/α   predicted    -0.9973524E-04 ( -50.82%)
   displ. norm   :     0.4327314 α      lambda       -0.8689409E-03
   maximum displ.:     0.1609727 α      in ANC's #5, #7, #16, ...

........................................................................
.............................. CYCLE   48 ..............................
........................................................................

 iter      E             dE          RMSdq      gap      omega  full diag
   1   -119.1719586 -0.119172E+03  0.276E-01    0.15       0.0  T
   2    -92.0801120  0.270918E+02  0.937E+00    0.09       1.0  T
   3   -118.0101611 -0.259300E+02  0.215E+00    0.22       1.0  T
   4   -118.1292765 -0.119115E+00  0.193E+00    0.03       1.0  T
   5   -119.0622934 -0.933017E+00  0.699E-01    0.17       1.0  T
   6   -118.3014175  0.760876E+00  0.178E+00    0.08       1.0  T
   7   -119.1891060 -0.887688E+00  0.128E-01    0.15       1.0  T
   8   -119.1900234 -0.917449E-03  0.108E-01    0.14       1.0  T
   9   -119.1901269 -0.103490E-03  0.998E-02    0.14       1.0  T
  10   -119.1904286 -0.301693E-03  0.921E-02    0.15       1.0  T
  11   -119.1917390 -0.131044E-02  0.606E-02    0.15       1.0  T
  12   -119.1924166 -0.677609E-03  0.334E-02    0.15       1.0  T
  13   -119.1924688 -0.521935E-04  0.308E-02    0.15       1.0  T
  14   -119.1926051 -0.136258E-03  0.198E-02    0.15       1.0  T
  15   -119.1926790 -0.739590E-04  0.878E-03    0.15       1.4  T
  16   -119.1926934 -0.143133E-04  0.444E-03    0.15       2.8  T
  17   -119.1926981 -0.478825E-05  0.137E-03    0.15       8.9  T
  18   -119.1926986 -0.492548E-06  0.375E-04    0.15      32.6  T
  19   -119.1926986 -0.507096E-08  0.342E-04    0.15      35.7  T
  20   -119.1926987 -0.178067E-07  0.219E-04    0.15      55.7  T
  21   -119.1926987 -0.855540E-08  0.109E-04    0.15     111.6  T
  22   -119.1926987 -0.268756E-08  0.385E-05    0.15     317.2  T
     SCC iter.                  ...        0 min,  2.875 sec
     gradient                   ...        0 min,  0.093 sec
 * total energy  :  -118.3373805 Eh     change        0.7187811E-03 Eh
   gradient norm :     0.0122240 Eh/α   predicted    -0.5158300E-03 (-171.76%)
   displ. norm   :     0.1396232 α      lambda       -0.1010098E-02
   maximum displ.:     0.0552067 α      in ANC's #35, #36, #44, ...

........................................................................
.............................. CYCLE   49 ..............................
........................................................................

 iter      E             dE          RMSdq      gap      omega  full diag
   1   -119.1857346 -0.119186E+03  0.177E-01    0.16       0.0  T
   2   -102.9385744  0.162472E+02  0.729E+00    0.03       1.0  T
   3   -119.0553289 -0.161168E+02  0.716E-01    0.15       1.0  T
   4   -119.0695926 -0.142637E-01  0.673E-01    0.17       1.0  T
   5   -119.1204581 -0.508656E-01  0.564E-01    0.14       1.0  T
   6   -118.7758955  0.344563E+00  0.119E+00    0.06       1.0  T
   7   -119.1874739 -0.411578E+00  0.161E-01    0.17       1.0  T
   8   -119.1935804 -0.610650E-02  0.510E-02    0.16       1.0  T
   9   -119.1940204 -0.439977E-03  0.344E-02    0.16       1.0  T
  10   -119.1940927 -0.723237E-04  0.292E-02    0.16       1.0  T
  11   -119.1942091 -0.116325E-03  0.178E-02    0.16       1.0  T
  12   -119.1942700 -0.609818E-04  0.738E-03    0.16       1.7  T
  13   -119.1942821 -0.120797E-04  0.304E-03    0.16       4.0  T
  14   -119.1942829 -0.812627E-06  0.251E-03    0.16       4.9  T
  15   -119.1942840 -0.106733E-05  0.155E-03    0.16       7.9  T
  16   -119.1942844 -0.401074E-06  0.964E-04    0.16      12.7  T
  17   -119.1942846 -0.208116E-06  0.391E-04    0.16      31.2  T
  18   -119.1942847 -0.396741E-07  0.752E-05    0.16     162.4  T
  19   -119.1942847 -0.112605E-08  0.388E-05    0.16     315.0  T
     SCC iter.                  ...        0 min,  2.289 sec
     gradient                   ...        0 min,  0.098 sec
 * total energy  :  -118.3381881 Eh     change       -0.8076058E-03 Eh
   gradient norm :     0.0073057 Eh/α   predicted    -0.5148923E-03 ( -36.24%)
   displ. norm   :     0.1940985 α      lambda       -0.8581000E-03
   maximum displ.:     0.0753618 α      in ANC's #36, #35, #27, ...

........................................................................
.............................. CYCLE   50 ..............................
........................................................................

 iter      E             dE          RMSdq      gap      omega  full diag
   1   -119.1766311 -0.119177E+03  0.261E-01    0.16       0.0  T
   2    -92.4595896  0.267170E+02  0.918E+00    0.26       1.0  T
   3   -119.0497759 -0.265902E+02  0.745E-01    0.13       1.0  T
   4   -118.8891841  0.160592E+00  0.104E+00    0.21       1.0  T
   5   -118.4363298  0.452854E+00  0.164E+00    0.03       1.0  T
   6   -119.0988327 -0.662503E+00  0.592E-01    0.18       1.0  T
   7   -119.1010516 -0.221891E-02  0.588E-01    0.16       1.0  T
   8   -119.1937362 -0.926846E-01  0.684E-02    0.16       1.0  T
   9   -119.1940373 -0.301077E-03  0.619E-02    0.17       1.0  T
  10   -119.1943128 -0.275490E-03  0.530E-02    0.17       1.0  T
  11   -119.1946617 -0.348968E-03  0.353E-02    0.17       1.0  T
  12   -119.1948333 -0.171606E-03  0.220E-02    0.16       1.0  T
  13   -119.1949016 -0.682614E-04  0.142E-02    0.16       1.0  T
  14   -119.1949250 -0.234289E-04  0.107E-02    0.16       1.1  T
  15   -119.1949509 -0.259246E-04  0.468E-03    0.16       2.6  T
  16   -119.1949553 -0.438583E-05  0.236E-03    0.16       5.2  T
  17   -119.1949566 -0.122652E-05  0.939E-04    0.16      13.0  T
  18   -119.1949567 -0.193764E-06  0.419E-04    0.16      29.2  T
  19   -119.1949568 -0.168904E-07  0.330E-04    0.16      37.0  T
  20   -119.1949568 -0.188325E-07  0.192E-04    0.16      63.5  T
  21   -119.1949568 -0.891534E-08  0.746E-05    0.16     163.7  T
     SCC iter.                  ...        0 min,  2.601 sec
     gradient                   ...        0 min,  0.092 sec
 * total energy  :  -118.3382012 Eh     change       -0.1310810E-04 Eh
   gradient norm :     0.0020010 Eh/α   predicted    -0.4452108E-03 (3296.46%)
   displ. norm   :     0.2167862 α      lambda       -0.1797473E-03
   maximum displ.:     0.0874972 α      in ANC's #5, #7, #6, ...

   *** GEOMETRY OPTIMIZATION CONVERGED AFTER 50 ITERATIONS ***

------------------------------------------------------------------------
 total energy gain   :        -0.1024390 Eh      -64.2814 kcal/mol
 total RMSD          :         1.5068690 a0        0.7974 Å
 total power (kW/mol):        -5.3790714 (step)   -2.0770 (real)
------------------------------------------------------------------------

 ANCopt (total)                0 d,  0 h,  2 min,  9.491 sec
 optimizer setup                ...        0 min,  0.000 sec (  0.000%)
 model hessian                  ...        0 min,  0.072 sec (  0.055%)
 ANC generation                 ...        0 min,  0.081 sec (  0.063%)
 coordinate transformation      ...        0 min,  0.009 sec (  0.007%)
 single point calculation       ...        2 min,  9.175 sec ( 99.756%)
 optimization log               ...        0 min,  0.020 sec (  0.015%)
 hessian update                 ...        0 min,  0.026 sec (  0.020%)
 rational function              ...        0 min,  0.065 sec (  0.050%)

================
 final structure:
================
67
 xtb: 6.6.1 (unknown)
C           54.63828291637231       14.88323359608426       52.17620422496616
C           54.19942299426931       15.83756280963259       51.07000165876303
S           53.76646172259738       15.02194403244415       49.49742514055193
H           54.84735123114618       15.42390417075103       53.10637312487624
H           53.85236974796620       14.14501407469023       52.36993939322615
H           55.54450279399234       14.34588404364116       51.87912602347762
H           53.32595661509630       16.40791798942924       51.42130251065651
H           55.00182987406307       16.56531411913467       50.88318989598291
C           47.43083328472721        9.63453124436032       49.21237277875355
C           48.74550430251903       10.03845039554805       49.87624697378133
S           49.73645877794281       10.95187124348806       48.64798614218068
H           46.78497120773891        9.07293992445110       49.89460823527892
H           46.89583740771551       10.52718963751851       48.88071284250682
H           47.63380024548306        9.01719539590552       48.33362659708756
H           48.52303808080389       10.66193012749706       50.75396037477267
H           49.25829064217586        9.13420022926353       50.23128955626771
C           57.37977620342630        8.43686671848107       47.78686422613301
C           56.26633631198015        7.91381688465215       46.88231416385684
S           55.08233352297431        9.20214726053174       46.36879655379114
H           58.05497242083958        7.62987363916084       48.09124722648684
H           57.96526597800991        9.19657327947778       47.26178872639151
H           56.95260974343188        8.89353313305935       48.68616859059535
H           56.71608546426536        7.50427701941612       45.96702153560665
H           55.75308629303505        7.08226592375269       47.38700698499348
C           57.49260235289375       10.18072688800583       51.97661746586014
C           56.49186264590411        9.08584704654102       52.34808746525650
S           54.82284769328596        9.73757116384862       52.68192224207205
H           57.51904910664253       10.93971292017071       52.76362354600673
H           58.50258951464562        9.77344422446705       51.85174803627741
H           57.19251646139561       10.66961803048844       51.03942652419975
H           56.48712625397608        8.31560108190284       51.56163317474756
H           56.83489311834452        8.59825339222663       53.27222096605831
C           57.74505412827173       15.90271350335535       47.81848932976784
C           56.44691519465800       15.45782825768430       47.14642686152349
S           56.67521326332457       13.78447711360921       46.44714451257326
H           57.99385515004978       15.23141114287779       48.64435583796169
H           58.56731695854199       15.86613918283137       47.09928799664393
H           57.67206708468056       16.92456492096578       48.20755035509148
H           55.62216410375275       15.52919853367998       47.87784718738543
H           56.22469909686095       16.15561230494206       46.32436676938579
C           49.99386977539235       17.20519459701378       52.05073795414746
C           49.35389775260339       17.37665786057874       50.66761286646428
C           49.59839420242218       16.19214941909505       49.79031674292536
N           48.74411948594572       15.11231976927321       49.76718386421960
C           49.25517527594496       14.20593362869798       48.88814441560925
N           50.37404706118862       14.64692549703760       48.37886762445967
C           50.61119352728457       15.87126755392322       48.92983774121056
H           49.60034129184215       16.31457265206453       52.54317355653997
H           51.07844793241219       17.10888245276835       51.96271286700464
H           49.77072622507296       18.07212616845550       52.67196348297030
H           48.27736744564542       17.52735272455204       50.79094736395969
H           49.76207069263266       18.27446261484106       50.19244608646053
H           47.87326759729071       15.05750717366540       50.25660023523079
H           48.81965752641248       13.22764631739636       48.70289149399643
H           51.50836345184324       16.42868106823537       48.70025745070458
Fe          51.94722421703099       10.88981092565522       49.22523573586326
Fe          53.73121567164052       12.79398134728328       49.61792596723814
Fe          54.14882004872701       10.11101565011851       48.18751048049042
Fe          53.91251912409950       10.46754802134270       50.68360153280584
S           55.48235842721503       11.42957721335613       49.45520334744644
S           52.90945427246824        8.95919355857347       49.49255857223721
S           52.40203217808357       11.98343659359372       51.08829406572914
S           52.99493156615270       11.93211368126601       47.45171228336059
Ni          55.20806631820699       12.42816015764917       47.46498216096297
C           52.11955605669561       12.14772994046478       45.83131945165675
O           52.13593988106269       13.30594444636571       45.38778646289920
O           51.59484654501296       11.12911445700169       45.35899165153627

 Bond Distances (Angstroems)
 ---------------------------
C1-C2=1.5255         C1-H4=1.0960         C1-H5=1.0955         C1-H6=1.0946         C2-C1=1.5255         C2-S3=1.8236         
C2-H7=1.1008         C2-H8=1.0993         S3-C2=1.8236         S3-Fe57=2.2315       H4-C1=1.0960         H5-C1=1.0955         
H6-C1=1.0946         H7-C2=1.1008         H8-C2=1.0993         C9-C10=1.5272        C9-H12=1.0945        C9-H13=1.0923        
C9-H14=1.0929        C10-C9=1.5272        C10-S11=1.8234       C10-H15=1.0994       C10-H16=1.0985       S11-C10=1.8234       
S11-Fe56=2.2857      H12-C9=1.0945        H13-C9=1.0923        H14-C9=1.0929        H15-C10=1.0994       H16-C10=1.0985       
C17-C18=1.5269       C17-H20=1.0953       C17-H21=1.0935       C17-H22=1.0953       C18-C17=1.5269       C18-S19=1.8236       
C18-H23=1.0990       C18-H24=1.0998       S19-C18=1.8236       S19-Fe58=2.2372      H20-C17=1.0953       H21-C17=1.0935       
H22-C17=1.0953       H23-C18=1.0990       H24-C18=1.0998       C25-C26=1.5291       C25-H28=1.0937       C25-H29=1.0962       
C25-H30=1.0988       C26-C25=1.5291       C26-S27=1.8226       C26-H31=1.1008       C26-H32=1.0997       S27-C26=1.8226       
S27-Fe59=2.3141      H28-C25=1.0937       H29-C25=1.0962       H30-C25=1.0988       H31-C26=1.1008       H32-C26=1.0997       
C33-C34=1.5280       C33-H36=1.0930       C33-H37=1.0930       C33-H38=1.0958       C34-C33=1.5280       C34-S35=1.8279       
C34-H39=1.1047       C34-H40=1.1009       S35-C34=1.8279       S35-Ni64=2.2423      H36-C33=1.0930       H37-C33=1.0930       
H38-C33=1.0958       H39-C34=1.1047       H40-C34=1.1009       C41-C42=1.5336       C41-H48=1.0911       C41-H49=1.0924       
C41-H50=1.0896       C42-C41=1.5336       C42-C43=1.4942       C42-H51=1.0940       C42-H52=1.0947       C43-C42=1.4942       
C43-N44=1.3771       C43-C47=1.3672       N44-C43=1.3771       N44-C45=1.3621       N44-H53=1.0005       C45-N44=1.3621       
C45-N46=1.3060       C45-H54=1.0868       N46-C45=1.3060       N46-C47=1.3634       C47-C43=1.3672       C47-N46=1.3634       
C47-H55=1.0809       H48-C41=1.0911       H49-C41=1.0924       H50-C41=1.0896       H51-C42=1.0940       H52-C42=1.0947       
H53-N44=1.0005       H54-C45=1.0868       H55-C47=1.0809       Fe56-S11=2.2857      Fe56-Fe57=2.6387     Fe56-Fe58=2.5555     
Fe56-Fe59=2.4834     Fe56-S61=2.1736      Fe56-S62=2.2077      Fe56-S63=2.3086      Fe57-S3=2.2315       Fe57-Fe56=2.6387     
Fe57-Fe58=3.0690     Fe57-Fe59=2.5653     Fe57-S60=2.2259      Fe57-S62=2.1414      Fe57-S63=2.4449      Fe57-Ni64=2.6363     
Fe58-S19=2.2372      Fe58-Fe56=2.5555     Fe58-Fe57=3.0690     Fe58-Fe59=2.5325     Fe58-S60=2.2636      Fe58-S61=2.1368      
Fe58-S63=2.2780      Fe58-Ni64=2.6482     Fe59-S27=2.3141      Fe59-Fe56=2.4834     Fe59-Fe57=2.5653     Fe59-Fe58=2.5325     
Fe59-S60=2.2133      Fe59-S61=2.1679      Fe59-S62=2.1779      S60-Fe57=2.2259      S60-Fe58=2.2636      S60-Fe59=2.2133      
S60-Ni64=2.2435      S61-Fe56=2.1736      S61-Fe58=2.1368      S61-Fe59=2.1679      S62-Fe56=2.2077      S62-Fe57=2.1414      
S62-Fe59=2.1779      S63-Fe56=2.3086      S63-Fe57=2.4449      S63-Fe58=2.2780      S63-Ni64=2.2681      S63-C65=1.8543       
Ni64-S35=2.2423      Ni64-Fe57=2.6363     Ni64-Fe58=2.6482     Ni64-S60=2.2435      Ni64-S63=2.2681      C65-S63=1.8543       
C65-O66=1.2403       C65-O67=1.2394       O66-C65=1.2403       O67-C65=1.2394       
 C  H  Rav=1.0954 sigma=0.0045  Rmin=1.0809  Rmax=1.1047    32
 C  C  Rav=1.5040 sigma=0.0529  Rmin=1.3672  Rmax=1.5336     8
 N  H  Rav=1.0005 sigma=0.0000  Rmin=1.0005  Rmax=1.0005     1
 N  C  Rav=1.3522 sigma=0.0273  Rmin=1.3060  Rmax=1.3771     4
 O  C  Rav=1.2398 sigma=0.0005  Rmin=1.2394  Rmax=1.2403     2
 S  C  Rav=1.8292 sigma=0.0113  Rmin=1.8226  Rmax=1.8543     6
 Fe S  Rav=2.2380 sigma=0.0758  Rmin=2.1368  Rmax=2.4449    16
 Fe Fe Rav=2.6407 sigma=0.1970  Rmin=2.4834  Rmax=3.0690     6
 Ni S  Rav=2.2513 sigma=0.0119  Rmin=2.2423  Rmax=2.2681     3
 Ni Fe Rav=2.6423 sigma=0.0060  Rmin=2.6363  Rmax=2.6482     2

 selected bond angles (degree)
 --------------------
H4-C1-C2=111.20                H5-C1-C2=110.09                H5-C1-H4=108.61                H6-C1-C2=110.39                
H6-C1-H4=108.33                H6-C1-H5=108.13                S3-C2-C1=114.45                H7-C2-C1=108.72                
H7-C2-S3=108.58                H8-C2-C1=109.11                H8-C2-S3=108.84                H8-C2-H7=106.88                
Fe57-S3-C2=113.81              H12-C9-C10=111.88              H13-C9-C10=109.72              H13-C9-H12=108.64              
H14-C9-C10=109.82              H14-C9-H12=108.72              H14-C9-H13=107.97              S11-C10-C9=107.91              
H15-C10-C9=108.84              H15-C10-S11=111.33             H16-C10-C9=108.94              H16-C10-S11=112.11             
H16-C10-H15=107.65             

 selected dihedral angles (degree)
 ---------------------------------
S3-C2-C1-H4=182.23            S3-C2-C1-H5=302.65            S3-C2-C1-H6= 61.95            H7-C2-C1-H4=303.80            
H7-C2-C1-H5= 64.22            H7-C2-C1-H6=183.52            H8-C2-C1-H4= 60.03            H8-C2-C1-H5=180.46            
H8-C2-C1-H6=299.75            Fe57-S3-C2-C1=  7.20          Fe57-S3-C2-H7=245.55          Fe57-S3-C2-H8=129.55          
S11-C10-C9-H12=179.62         S11-C10-C9-H13=300.27         S11-C10-C9-H14= 58.79         H15-C10-C9-H12=300.55         
H15-C10-C9-H13= 61.20         H15-C10-C9-H14=179.73         H16-C10-C9-H12= 57.67         H16-C10-C9-H13=178.32         
H16-C10-C9-H14=296.85         

 CMA Distance (Angstroems)
 ---------------------------
R(CMA):  5.3639
           -------------------------------------------------
          |                Final Singlepoint                |
           -------------------------------------------------

          ...................................................
          :                      SETUP                      :
          :.................................................:
          :  # basis functions                 286          :
          :  # atomic orbitals                 272          :
          :  # shells                          148          :
          :  # electrons                       219          :
          :  # halogen bonds                     0          :
          :  max. iterations                   250          :
          :  Hamiltonian                  GFN1-xTB          :
          :  restarted?                      false          :
          :  GBSA solvation                   true          :
          :  PC potential                    false          :
          :  electronic temp.          300.0000000     K    :
          :  accuracy                    1.0000000          :
          :  -> integral cutoff          0.2500000E+02      :
          :  -> integral neglect         0.1000000E-07      :
          :  -> SCF convergence          0.1000000E-05 Eh   :
          :  -> wf. convergence          0.2000000E-04 e    :
          :  Broyden damping             0.4000000          :
          ...................................................

 iter      E             dE          RMSdq      gap      omega  full diag
   1   -119.1949568 -0.119195E+03  0.133E-05    0.16       0.0  T
   2   -119.1949567  0.735516E-07  0.505E-04    0.16      24.2  T
   3   -119.1949568 -0.733147E-07  0.359E-05    0.16     340.5  T
   4   -119.1949568 -0.395062E-11  0.314E-05    0.16     389.0  T

   *** convergence criteria satisfied after 4 iterations ***

         #    Occupation            Energy/Eh            Energy/eV
      -------------------------------------------------------------
         1        2.0000           -0.7665879             -20.8599
       ...           ...                  ...                  ...
       104        2.0000           -0.2189176              -5.9571
       105        2.0000           -0.2175013              -5.9185
       106        1.9999           -0.2152693              -5.8578
       107        1.9997           -0.2140661              -5.8250
       108        1.9973           -0.2118978              -5.7660
       109        1.9680           -0.2095268              -5.7015
       110        0.9854           -0.2031298              -5.5274 (HOMO)
       111        0.0326           -0.1970990              -5.3633 (LUMO)
       112        0.0164           -0.1964313              -5.3452
       113        0.0006           -0.1933161              -5.2604
       114        0.0000           -0.1851359              -5.0378
       115                         -0.1845375              -5.0215
       ...                                ...                  ...
       272                         14.0030758             381.0431
      -------------------------------------------------------------
                  HL-Gap            0.0060307 Eh            0.1641 eV
             Fermi-level           -0.2033031 Eh           -5.5322 eV

 SCC (total)                   0 d,  0 h,  0 min,  0.761 sec
 SCC setup                      ...        0 min,  0.003 sec (  0.367%)
 Dispersion                     ...        0 min,  0.001 sec (  0.169%)
 classical contributions        ...        0 min,  0.000 sec (  0.065%)
 integral evaluation            ...        0 min,  0.037 sec (  4.901%)
 iterations                     ...        0 min,  0.503 sec ( 66.126%)
 molecular gradient             ...        0 min,  0.099 sec ( 13.049%)
 printout                       ...        0 min,  0.116 sec ( 15.314%)

         :::::::::::::::::::::::::::::::::::::::::::::::::::::
         ::                     SUMMARY                     ::
         :::::::::::::::::::::::::::::::::::::::::::::::::::::
         :: total energy            -118.338201229122 Eh    ::
         :: total w/o Gsasa/hb      -118.334087861674 Eh    ::
         :: gradient norm              0.002001202897 Eh/a0 ::
         :: HOMO-LUMO gap              0.164104918368 eV    ::
         ::.................................................::
         :: SCC energy              -119.194956794560 Eh    ::
         :: -> electrostatic           1.126572893086 Eh    ::
         :: -> Gsolv                  -0.701367722044 Eh    ::
         ::    -> Gelec               -0.697254354596 Eh    ::
         ::    -> Gsasa               -0.005281128451 Eh    ::
         ::    -> Ghb                 -0.003077845668 Eh    ::
         ::    -> Gshift               0.004245606671 Eh    ::
         :: repulsion energy           0.921446497854 Eh    ::
         :: dispersion energy         -0.064690932416 Eh    ::
         :: halogen bond corr.         0.000000000000 Eh    ::
         :: add. restraining           0.000000000000 Eh    ::
         :: total charge              -4.000000000000 e     ::
         :::::::::::::::::::::::::::::::::::::::::::::::::::::

           -------------------------------------------------
          |                Property Printout                |
           -------------------------------------------------

    * Orbital Energies and Occupations

         #    Occupation            Energy/Eh            Energy/eV
      -------------------------------------------------------------
         1        2.0000           -0.7665879             -20.8599
       ...           ...                  ...                  ...
        98        2.0000           -0.2257447              -6.1428
        99        2.0000           -0.2255510              -6.1376
       100        2.0000           -0.2240478              -6.0967
       101        2.0000           -0.2210944              -6.0163
       102        2.0000           -0.2200661              -5.9883
       103        2.0000           -0.2192972              -5.9674
       104        2.0000           -0.2189176              -5.9571
       105        2.0000           -0.2175013              -5.9185
       106        1.9999           -0.2152693              -5.8578
       107        1.9997           -0.2140661              -5.8250
       108        1.9973           -0.2118978              -5.7660
       109        1.9680           -0.2095268              -5.7015
       110        0.9854           -0.2031298              -5.5274 (HOMO)
       111        0.0326           -0.1970990              -5.3633 (LUMO)
       112        0.0164           -0.1964313              -5.3452
       113        0.0006           -0.1933161              -5.2604
       114        0.0000           -0.1851359              -5.0378
       115                         -0.1845375              -5.0215
       116                         -0.1823742              -4.9627
       117                         -0.1709419              -4.6516
       118                         -0.1649164              -4.4876
       119                         -0.1600597              -4.3554
       120                         -0.1569714              -4.2714
       121                         -0.1098048              -2.9879
       ...                                ...                  ...
       272                         14.0030758             381.0431
      -------------------------------------------------------------
                  HL-Gap            0.0060307 Eh            0.1641 eV
             Fermi-level           -0.2033031 Eh           -5.5322 eV

  Mulliken/CM5 charges         n(s)   n(p)   n(d)
     1C    -0.05007 -0.19880   1.001  3.049  0.000
     2C     0.01210 -0.08181   1.026  2.962  0.000
     3S    -0.28265 -0.37736   1.900  4.390 -0.008
     4H    -0.01948  0.03102   1.019  0.000  0.000
     5H     0.00031  0.05348   1.000  0.000  0.000
     6H     0.00025  0.05213   1.000  0.000  0.000
     7H    -0.03986  0.01508   1.040  0.000  0.000
     8H    -0.03774  0.01705   1.038  0.000  0.000
     9C    -0.06772 -0.21572   1.004  3.064  0.000
    10C     0.01596 -0.07810   1.025  2.959  0.000
    11S    -0.33200 -0.41585   1.902  4.440 -0.010
    12H    -0.01145  0.03916   1.011  0.000  0.000
    13H    -0.01059  0.04180   1.011  0.000  0.000
    14H    -0.00977  0.04254   1.010  0.000  0.000
    15H    -0.03448  0.02006   1.034  0.000  0.000
    16H    -0.02444  0.03021   1.024  0.000  0.000
    17C    -0.05480 -0.20326   1.001  3.054  0.000
    18C     0.01408 -0.07999   1.025  2.961  0.000
    19S    -0.31258 -0.40197   1.901  4.420 -0.009
    20H    -0.01770  0.03288   1.018  0.000  0.000
    21H    -0.00876  0.04313   1.009  0.000  0.000
    22H     0.01047  0.06347   0.990  0.000  0.000
    23H    -0.04439  0.01068   1.044  0.000  0.000
    24H    -0.03125  0.02320   1.031  0.000  0.000
    25C    -0.05921 -0.20671   1.003  3.057  0.000
    26C     0.02371 -0.06988   1.022  2.954  0.000
    27S    -0.38427 -0.46022   1.902  4.493 -0.011
    28H    -0.01861  0.03346   1.019  0.000  0.000
    29H    -0.02204  0.02845   1.022  0.000  0.000
    30H    -0.00887  0.04650   1.009  0.000  0.000
    31H    -0.03040  0.02389   1.030  0.000  0.000
    32H    -0.04996  0.00508   1.050  0.000  0.000
    33C    -0.05995 -0.20781   1.002  3.058  0.000
    34C     0.02358 -0.06953   1.027  2.949  0.000
    35S    -0.34850 -0.42420   1.877  4.483 -0.011
    36H    -0.00804  0.04405   1.008  0.000  0.000
    37H    -0.02144  0.03079   1.021  0.000  0.000
    38H    -0.01639  0.03409   1.016  0.000  0.000
    39H    -0.02736  0.02982   1.027  0.000  0.000
    40H    -0.05140  0.00323   1.051  0.000  0.000
    41C    -0.06862 -0.21819   1.004  3.064  0.000
    42C    -0.04175 -0.14300   1.022  3.020  0.000
    43C     0.05187  0.11240   1.046  2.902  0.000
    44N    -0.28926 -0.64653   1.431  3.859  0.000
    45C     0.23345  0.33350   0.986  2.781  0.000
    46N    -0.39792 -0.58496   1.555  3.843  0.000
    47C     0.07484  0.10439   1.013  2.912  0.000
    48H     0.02150  0.07429   0.978  0.000  0.000
    49H     0.02598  0.07813   0.974  0.000  0.000
    50H     0.02223  0.07363   0.978  0.000  0.000
    51H     0.01995  0.07767   0.980  0.000  0.000
    52H     0.02290  0.07850   0.977  0.000  0.000
    53H     0.23286  0.43035   0.767  0.000  0.000
    54H    -0.01298  0.06216   1.013  0.000  0.000
    55H    -0.01583  0.05076   1.016  0.000  0.000
    56Fe   -0.03615  0.21963   0.148  0.940  6.948
    57Fe   -0.02100  0.22989   0.131  0.904  6.986
    58Fe   -0.02538  0.23870   0.130  0.933  6.962
    59Fe   -0.03759  0.23249   0.153  0.971  6.913
    60S    -0.00015 -0.25067   1.857  4.161 -0.017
    61S    -0.17060 -0.40079   1.867  4.322 -0.018
    62S    -0.16565 -0.38854   1.866  4.318 -0.018
    63S     0.10871 -0.09459   1.860  4.029  0.002
    64Ni   -0.28656 -0.12517   0.570  0.654  9.063
    65C     0.58551  0.66123   0.976  2.438  0.000
    66O    -0.72037 -0.75743   1.753  4.967  0.000
    67O    -0.71430 -0.75189   1.752  4.962  0.000

Wiberg/Mayer (AO) data.
largest (>0.10) Wiberg bond orders for each atom

 ---------------------------------------------------------------------------
     #   Z sym  total        # sym  WBO       # sym  WBO       # sym  WBO
 ---------------------------------------------------------------------------
     1   6 C    3.992 --     2 C    1.017     4 H    0.984     6 H    0.984
                             5 H    0.977
     2   6 C    3.979 --     1 C    1.017     8 H    0.987     7 H    0.982
                             3 S    0.951
     3  16 S    2.072 --     2 C    0.951    57 Fe   0.707
     4   1 H    1.009 --     1 C    0.984
     5   1 H    1.045 --     1 C    0.977
     6   1 H    1.023 --     1 C    0.984
     7   1 H    1.032 --     2 C    0.982
     8   1 H    1.031 --     2 C    0.987
     9   6 C    3.991 --    10 C    1.017    13 H    0.988    14 H    0.988
                            12 H    0.985
    10   6 C    3.985 --     9 C    1.017    15 H    0.988    16 H    0.986
                            11 S    0.962
    11  16 S    1.964 --    10 C    0.962    56 Fe   0.634    54 H    0.106
    12   1 H    1.009 --     9 C    0.985
    13   1 H    1.032 --     9 C    0.988
    14   1 H    1.035 --     9 C    0.988
    15   1 H    1.027 --    10 C    0.988
    16   1 H    1.024 --    10 C    0.986
    17   6 C    3.992 --    18 C    1.016    21 H    0.988    20 H    0.986
                            22 H    0.976
    18   6 C    3.984 --    17 C    1.016    23 H    0.986    24 H    0.986
                            19 S    0.958
    19  16 S    2.014 --    18 C    0.958    58 Fe   0.718
    20   1 H    1.010 --    17 C    0.986
    21   1 H    1.023 --    17 C    0.988
    22   1 H    1.035 --    17 C    0.976
    23   1 H    1.034 --    18 C    0.986
    24   1 H    1.024 --    18 C    0.986
    25   6 C    3.989 --    26 C    1.015    28 H    0.988    29 H    0.985
                            30 H    0.968
    26   6 C    3.984 --    25 C    1.015    32 H    0.986    31 H    0.985
                            27 S    0.970
    27  16 S    1.875 --    26 C    0.970    59 Fe   0.648
    28   1 H    1.031 --    25 C    0.988
    29   1 H    1.011 --    25 C    0.985
    30   1 H    1.067 --    25 C    0.968
    31   1 H    1.023 --    26 C    0.985
    32   1 H    1.034 --    26 C    0.986
    33   6 C    3.992 --    34 C    1.016    37 H    0.988    36 H    0.988
                            38 H    0.985
    34   6 C    3.985 --    33 C    1.016    40 H    0.988    35 S    0.971
                            39 H    0.966
    35  16 S    1.895 --    34 C    0.971    64 Ni   0.734
    36   1 H    1.031 --    33 C    0.988
    37   1 H    1.035 --    33 C    0.988
    38   1 H    1.012 --    33 C    0.985
    39   1 H    1.071 --    34 C    0.966
    40   1 H    1.033 --    34 C    0.988
    41   6 C    3.997 --    42 C    1.000    48 H    0.989    50 H    0.988
                            49 H    0.985
    42   6 C    3.998 --    43 C    1.014    41 C    1.000    51 H    0.977
                            52 H    0.977
    43   6 C    3.910 --    47 C    1.569    44 N    1.143    42 C    1.014
                            45 C    0.107
    44   7 N    3.446 --    45 C    1.208    43 C    1.143    53 H    0.913
    45   6 C    3.916 --    46 N    1.559    44 N    1.208    54 H    0.950
                            43 C    0.107
    46   7 N    3.001 --    45 C    1.559    47 C    1.270
    47   6 C    3.965 --    43 C    1.569    46 N    1.270    55 H    0.974
    48   1 H    1.008 --    41 C    0.989
    49   1 H    1.014 --    41 C    0.985
    50   1 H    1.005 --    41 C    0.988
    51   1 H    1.007 --    42 C    0.977
    52   1 H    1.009 --    42 C    0.977
    53   1 H    0.949 --    44 N    0.913
    54   1 H    1.097 --    45 C    0.950    11 S    0.106
    55   1 H    1.061 --    47 C    0.974
    56  26 Fe   5.495 --    59 Fe   0.904    61 S    0.804    62 S    0.781
                            58 Fe   0.775    11 S    0.634    57 Fe   0.613
                            63 S    0.521    64 Ni   0.204
    57  26 Fe   4.926 --    62 S    0.891    59 Fe   0.732     3 S    0.707
                            60 S    0.682    56 Fe   0.613    58 Fe   0.389
                            64 Ni   0.331    63 S    0.293
    58  26 Fe   5.202 --    61 S    0.873    56 Fe   0.775    19 S    0.718
                            59 Fe   0.709    60 S    0.618    63 S    0.497
                            57 Fe   0.389    64 Ni   0.375
    59  26 Fe   5.767 --    56 Fe   0.904    61 S    0.814    62 S    0.806
                            57 Fe   0.732    58 Fe   0.709    60 S    0.690
                            27 S    0.648    64 Ni   0.259
    60  16 S    2.772 --    59 Fe   0.690    57 Fe   0.682    58 Fe   0.618
                            64 Ni   0.590
    61  16 S    2.629 --    58 Fe   0.873    59 Fe   0.814    56 Fe   0.804
    62  16 S    2.629 --    57 Fe   0.891    59 Fe   0.806    56 Fe   0.781
    63  16 S    2.802 --    65 C    0.760    64 Ni   0.524    56 Fe   0.521
                            58 Fe   0.497    57 Fe   0.293
    64  28 Ni   3.288 --    35 S    0.734    60 S    0.590    63 S    0.524
                            58 Fe   0.375    57 Fe   0.331    59 Fe   0.259
                            56 Fe   0.204
    65   6 C    3.856 --    67 O    1.498    66 O    1.490    63 S    0.760
    66   8 O    1.766 --    65 C    1.490    67 O    0.164
    67   8 O    1.771 --    65 C    1.498    66 O    0.164
 ---------------------------------------------------------------------------

Topologies differ in total number of bonds
Writing topology from bond orders to xtbtopo.mol

 dipole moment from electron density (au)
     X       Y       Z   
-405.6391 -89.0299-363.4170  total (Debye): 1402.670

           -------------------------------------------------
          |                Geometry Summary                 |
           -------------------------------------------------

      molecular mass/u    :      856.1030469
   center of mass at/Å    :       53.3845238      11.9933218      49.0353018
  moments of inertia/u·Å² :        0.6662801E+04   0.8733012E+04   0.9769277E+04
rotational constants/cm⁻¹ :        0.2530112E-02   0.1930334E-02   0.1725576E-02

 * 65 selected distances

     #   Z          #   Z                                           value/Å
     1   6 C        2   6 C                                       1.5254595
     1   6 C        4   1 H                                       1.0960149
     1   6 C        5   1 H                                       1.0955186
     1   6 C        6   1 H                                       1.0946391
     2   6 C        7   1 H                                       1.1007548
     2   6 C        8   1 H                                       1.0992623
     9   6 C       10   6 C                                       1.5271673
     9   6 C       12   1 H                                       1.0945173
     9   6 C       13   1 H                                       1.0922720
     9   6 C       14   1 H                                       1.0929292
    10   6 C       15   1 H                                       1.0993631
    10   6 C       16   1 H                                       1.0984870
    17   6 C       18   6 C                                       1.5269384
    17   6 C       20   1 H                                       1.0953433
    17   6 C       21   1 H                                       1.0934609
    17   6 C       22   1 H                                       1.0953374
    18   6 C       23   1 H                                       1.0989804
    18   6 C       24   1 H                                       1.0998262
    25   6 C       26   6 C                                       1.5291279
    25   6 C       28   1 H                                       1.0936809
    25   6 C       29   1 H                                       1.0961505
    25   6 C       30   1 H                                       1.0988144
    26   6 C       31   1 H                                       1.1008233
    26   6 C       32   1 H                                       1.0997456
    33   6 C       34   6 C                                       1.5279908
    33   6 C       36   1 H                                       1.0929797
    33   6 C       37   1 H                                       1.0930254
    33   6 C       38   1 H                                       1.0958449
    34   6 C       39   1 H                                       1.1046647
    34   6 C       40   1 H                                       1.1009385
    41   6 C       42   6 C                                       1.5336229
    42   6 C       43   6 C                                       1.4941512
    43   6 C       44   7 N                                       1.3770813
    44   7 N       45   6 C                                       1.3621397
    45   6 C       46   7 N                                       1.3060287
    43   6 C       47   6 C                                       1.3671694
    46   7 N       47   6 C                                       1.3633856
    41   6 C       48   1 H                                       1.0911302
    41   6 C       49   1 H                                       1.0923985
    41   6 C       50   1 H                                       1.0896260
    42   6 C       51   1 H                                       1.0940009
    42   6 C       52   1 H                                       1.0947339
    44   7 N       53   1 H                                       1.0004579 (min)
    45   6 C       54   1 H                                       1.0867569
    47   6 C       55   1 H                                       1.0808936
     3  16 S       57  26 Fe                                      2.2314976
    19  16 S       58  26 Fe                                      2.2372328
    56  26 Fe      59  26 Fe                                      2.4834496
    58  26 Fe      59  26 Fe                                      2.5324741 (max)
    57  26 Fe      60  16 S                                       2.2258884
    58  26 Fe      60  16 S                                       2.2636200
    59  26 Fe      60  16 S                                       2.2133365
    56  26 Fe      61  16 S                                       2.1736220
    58  26 Fe      61  16 S                                       2.1367904
    59  26 Fe      61  16 S                                       2.1679152
    56  26 Fe      62  16 S                                       2.2076808
    57  26 Fe      62  16 S                                       2.1414235
    59  26 Fe      62  16 S                                       2.1779040
    56  26 Fe      63  16 S                                       2.3085650
    58  26 Fe      63  16 S                                       2.2779940
    60  16 S       64  28 Ni                                      2.2435208
    63  16 S       64  28 Ni                                      2.2680839
    63  16 S       65   6 C                                       1.8543048
    65   6 C       66   8 O                                       1.2403431
    65   6 C       67   8 O                                       1.2393512

 * 9 distinct bonds (by element types)

   Z      Z             #   av. dist./Å        max./Å        min./Å
   1 H    6 C          32     1.0954036     1.1046647     1.0808936
   6 C    6 C           8     1.5039534     1.5336229     1.3671694
   1 H    7 N           1     1.0004579     1.0004579     1.0004579
   6 C    7 N           4     1.3521588     1.3770813     1.3060287
   6 C    8 O           2     1.2398472     1.2403431     1.2393512
   6 C   16 S           1     1.8543048     1.8543048     1.8543048
  16 S   26 Fe         13     2.2125746     2.3085650     2.1367904
  26 Fe  26 Fe          2     2.5079619     2.5324741     2.4834496
  16 S   28 Ni          2     2.2558023     2.2680839     2.2435208


optimized geometry written to: xtbopt.xyz
Note: The following floating-point exceptions are signalling: IEEE_UNDERFLOW_FLAG IEEE_DENORMAL
normal termination of xtb


           -------------------------------------------------
          | TOTAL ENERGY             -118.338201229122 Eh   |
          | GRADIENT NORM               0.002001202897 Eh/α |
          | HOMO-LUMO GAP               0.164104918368 eV   |
           -------------------------------------------------

------------------------------------------------------------------------
 * finished run on 2026/09/12 at 19:11:57.637     
------------------------------------------------------------------------
 total:
 * wall-time:     0 d,  0 h,  2 min, 17.639 sec
 *  cpu-time:     0 d,  0 h,  3 min, 13.080 sec
 * ratio c/w:     1.403 speedup
 SCF:
 * wall-time:     0 d,  0 h,  0 min,  7.336 sec
 *  cpu-time:     0 d,  0 h,  0 min,  8.710 sec
 * ratio c/w:     1.187 speedup
 ANC optimizer:
 * wall-time:     0 d,  0 h,  2 min, 10.257 sec
 *  cpu-time:     0 d,  0 h,  3 min,  4.079 sec
 * ratio c/w:     1.413 speedup

