67
 energy: -118.338201229122 gnorm: 0.002001202897 xtb: 6.6.1 (unknown)
C           54.63828291637231       14.88323359608426       52.17620422496616
C           54.19942299426931       15.83756280963259       51.07000165876303
S           53.76646172259738       15.02194403244415       49.49742514055193
H           54.84735123114618       15.42390417075103       53.10637312487624
H           53.85236974796620       14.14501407469023       52.36993939322615
H           55.54450279399234       14.34588404364116       51.87912602347762
H           53.32595661509630       16.40791798942924       51.42130251065651
H           55.00182987406307       16.56531411913467       50.88318989598291
C           47.43083328472721        9.63453124436032       49.21237277875355
C           48.74550430251903       10.03845039554805       49.87624697378133
S           49.73645877794281       10.95187124348806       48.64798614218068
H           46.78497120773891        9.07293992445110       49.89460823527892
H           46.89583740771551       10.52718963751851       48.88071284250682
H           47.63380024548306        9.01719539590552       48.33362659708756
H           48.52303808080389       10.66193012749706       50.75396037477267
H           49.25829064217586        9.13420022926353       50.23128955626771
C           57.37977620342630        8.43686671848107       47.78686422613301
C           56.26633631198015        7.91381688465215       46.88231416385684
S           55.08233352297431        9.20214726053174       46.36879655379114
H           58.05497242083958        7.62987363916084       48.09124722648684
H           57.96526597800991        9.19657327947778       47.26178872639151
H           56.95260974343188        8.89353313305935       48.68616859059535
H           56.71608546426536        7.50427701941612       45.96702153560665
H           55.75308629303505        7.08226592375269       47.38700698499348
C           57.49260235289375       10.18072688800583       51.97661746586014
C           56.49186264590411        9.08584704654102       52.34808746525650
S           54.82284769328596        9.73757116384862       52.68192224207205
H           57.51904910664253       10.93971292017071       52.76362354600673
H           58.50258951464562        9.77344422446705       51.85174803627741
H           57.19251646139561       10.66961803048844       51.03942652419975
H           56.48712625397608        8.31560108190284       51.56163317474756
H           56.83489311834452        8.59825339222663       53.27222096605831
C           57.74505412827173       15.90271350335535       47.81848932976784
C           56.44691519465800       15.45782825768430       47.14642686152349
S           56.67521326332457       13.78447711360921       46.44714451257326
H           57.99385515004978       15.23141114287779       48.64435583796169
H           58.56731695854199       15.86613918283137       47.09928799664393
H           57.67206708468056       16.92456492096578       48.20755035509148
H           55.62216410375275       15.52919853367998       47.87784718738543
H           56.22469909686095       16.15561230494206       46.32436676938579
C           49.99386977539235       17.20519459701378       52.05073795414746
C           49.35389775260339       17.37665786057874       50.66761286646428
C           49.59839420242218       16.19214941909505       49.79031674292536
N           48.74411948594572       15.11231976927321       49.76718386421960
C           49.25517527594496       14.20593362869798       48.88814441560925
N           50.37404706118862       14.64692549703760       48.37886762445967
C           50.61119352728457       15.87126755392322       48.92983774121056
H           49.60034129184215       16.31457265206453       52.54317355653997
H           51.07844793241219       17.10888245276835       51.96271286700464
H           49.77072622507296       18.07212616845550       52.67196348297030
H           48.27736744564542       17.52735272455204       50.79094736395969
H           49.76207069263266       18.27446261484106       50.19244608646053
H           47.87326759729071       15.05750717366540       50.25660023523079
H           48.81965752641248       13.22764631739636       48.70289149399643
H           51.50836345184324       16.42868106823537       48.70025745070458
Fe          51.94722421703099       10.88981092565522       49.22523573586326
Fe          53.73121567164052       12.79398134728328       49.61792596723814
Fe          54.14882004872701       10.11101565011851       48.18751048049042
Fe          53.91251912409950       10.46754802134270       50.68360153280584
S           55.48235842721503       11.42957721335613       49.45520334744644
S           52.90945427246824        8.95919355857347       49.49255857223721
S           52.40203217808357       11.98343659359372       51.08829406572914
S           52.99493156615270       11.93211368126601       47.45171228336059
Ni          55.20806631820699       12.42816015764917       47.46498216096297
C           52.11955605669561       12.14772994046478       45.83131945165675
O           52.13593988106269       13.30594444636571       45.38778646289920
O           51.59484654501296       11.12911445700169       45.35899165153627
