      -----------------------------------------------------------      
     |                   =====================                   |     
     |                           x T B                           |     
     |                   =====================                   |     
     |                         S. Grimme                         |     
     |          Mulliken Center for Theoretical Chemistry        |     
     |                    University of Bonn                     |     
      -----------------------------------------------------------      

   * xtb version 6.6.1 (unknown) compiled by 'builduser@buildhost' on 2023-08-07

   xtb is free software: you can redistribute it and/or modify it under
   the terms of the GNU Lesser General Public License as published by
   the Free Software Foundation, either version 3 of the License, or
   (at your option) any later version.
   
   xtb is distributed in the hope that it will be useful,
   but WITHOUT ANY WARRANTY; without even the implied warranty of
   MERCHANTABILITY or FITNESS FOR A PARTICULAR PURPOSE.  See the
   GNU Lesser General Public License for more details.
   
   Cite this work as:
   * C. Bannwarth, E. Caldeweyher, S. Ehlert, A. Hansen, P. Pracht,
     J. Seibert, S. Spicher, S. Grimme, WIREs Comput. Mol. Sci., 2020, 11,
     e01493. DOI: 10.1002/wcms.1493
   
   for GFN2-xTB:
   * C. Bannwarth, S. Ehlert and S. Grimme., J. Chem. Theory Comput., 2019,
     15, 1652-1671. DOI: 10.1021/acs.jctc.8b01176
   for GFN1-xTB:
   * S. Grimme, C. Bannwarth, P. Shushkov, J. Chem. Theory Comput., 2017,
     13, 1989-2009. DOI: 10.1021/acs.jctc.7b00118
   for GFN0-xTB:
   * P. Pracht, E. Caldeweyher, S. Ehlert, S. Grimme, ChemRxiv, 2019, preprint.
     DOI: 10.26434/chemrxiv.8326202.v1
   for GFN-FF:
   * S. Spicher and S. Grimme, Angew. Chem. Int. Ed., 2020, 59, 15665-15673.
     DOI: 10.1002/anie.202004239
   
   for ALPB and GBSA implicit solvation:
   * S. Ehlert, M. Stahn, S. Spicher, S. Grimme, J. Chem. Theory Comput.,
     2021, 17, 4250-4261. DOI: 10.1021/acs.jctc.1c00471
   
   for DFT-D4:
   * E. Caldeweyher, C. Bannwarth and S. Grimme, J. Chem. Phys., 2017,
     147, 034112. DOI: 10.1063/1.4993215
   * E. Caldeweyher, S. Ehlert, A. Hansen, H. Neugebauer, S. Spicher,
     C. Bannwarth and S. Grimme, J. Chem. Phys., 2019, 150, 154122.
     DOI: 10.1063/1.5090222
   * E. Caldeweyher, J.-M. Mewes, S. Ehlert and S. Grimme, Phys. Chem. Chem. Phys.
     2020, 22, 8499-8512. DOI: 10.1039/D0CP00502A
   
   for sTDA-xTB:
   * S. Grimme and C. Bannwarth, J. Chem. Phys., 2016, 145, 054103.
     DOI: 10.1063/1.4959605
   
   in the mass-spec context:
   * V. Asgeirsson, C. Bauer and S. Grimme, Chem. Sci., 2017, 8, 4879.
     DOI: 10.1039/c7sc00601b
   * J. Koopman and S. Grimme, ACS Omega 2019, 4, 12, 15120-15133.
     DOI: 10.1021/acsomega.9b02011
   
   for metadynamics refer to:
   * S. Grimme, J. Chem. Theory Comput., 2019, 155, 2847-2862
     DOI: 10.1021/acs.jctc.9b00143
   
   for SPH calculations refer to:
   * S. Spicher and S. Grimme, J. Chem. Theory Comput., 2021, 17, 1701-1714
     DOI: 10.1021/acs.jctc.0c01306
   
   with help from (in alphabetical order)
   P. Atkinson, C. Bannwarth, F. Bohle, G. Brandenburg, E. Caldeweyher
   M. Checinski, S. Dohm, S. Ehlert, S. Ehrlich, I. Gerasimov, C. Hölzer
   A. Katbashev, J. Koopman, C. Lavigne, S. Lehtola, F. März, M. Müller,
   F. Musil, H. Neugebauer, J. Pisarek, C. Plett, P. Pracht, F. Pultar,
   J. Seibert, P. Shushkov, S. Spicher, M. Stahn, M. Steiner, T. Strunk,
   J. Stückrath, T. Rose, and J. Unsleber
   
 * started run on 2026/09/13 at 13:38:57.714     

           -------------------------------------------------
          |                Calculation Setup                |
           -------------------------------------------------

          program call               : xtb structure.xyz --gfn 1 --chrg -3 --uhf 1 --alpb water
          coordinate file            : structure.xyz
          omp threads                :                     8

   ID    Z sym.   atoms
    1    6 C      1, 2, 9, 10, 17, 18, 25, 26, 33, 34, 41-43, 45, 47, 65
    2   16 S      3, 11, 19, 27, 35, 60-63
    3    1 H      4-8, 12-16, 20-24, 28-32, 36-40, 48-55, 68
    4    7 N      44, 46
    5   26 Fe     56-59
    6   28 Ni     64
    7    8 O      66, 67

molecular fragmentation (1/2 indicates fragments):
11111111111111111111111111111111111111112222222222222221111111212222
# atoms in fragment 1/2:    48    20
 fragment masses (1/2) :      683.90      173.21
CMA distance (Bohr)    :   8.056
constraining FC (au)   :  0.0500

           -------------------------------------------------
          |                 G F N 1 - x T B                 |
           -------------------------------------------------

        Reference                      10.1021/acs.jctc.7b00118
      * Hamiltonian:
        H0-scaling (s, p, d)           1.850000    2.250000    2.000000
        zeta-weighting                 0.000000
      * Dispersion:
        s8                             2.400000
        a1                             0.630000
        a2                             5.000000
        s9                             0.000000
      * Repulsion:
        kExp                           1.500000
        rExp                           1.000000
      * Coulomb:
        alpha                          2.000000
        third order                    atomic
        anisotropic                    false
      * Halogen bond correction:
        rad-scale                      1.300000
        damping                        0.440000

      * Solvation model:               ALPB
        Solvent                        water
        Parameter file                 internal GFN1-xTB/ALPB
        Dielectric constant                8.0200E+01
        Reference state                gsolv [1 M gas/solution]
        Free energy shift                  4.2456E-03 Eh       2.6642E+00 kcal/mol
        Temperature                        2.9815E+02 K
        Density                            1.0000E+00 kg/L
        Solvent mass                       1.8000E+01 g/mol
        Interaction kernel             P16
        Born radius scaling (c1)           1.9452E+00
        Born radii integrator          GBOBC
        Born offset                        0.0000E+00 a0       0.0000E+00 AA
        H-bond correction              true
        Ion screening                  false
        Surface tension                    1.0000E-05 Eh       1.5569E+01 dyn/cm
        Grid points                               230 per atom

          ...................................................
          :                      SETUP                      :
          :.................................................:
          :  # basis functions                 288          :
          :  # atomic orbitals                 274          :
          :  # shells                          150          :
          :  # electrons                       219          :
          :  # halogen bonds                     0          :
          :  max. iterations                   250          :
          :  Hamiltonian                  GFN1-xTB          :
          :  restarted?                      false          :
          :  GBSA solvation                   true          :
          :  PC potential                    false          :
          :  electronic temp.          300.0000000     K    :
          :  accuracy                    1.0000000          :
          :  -> integral cutoff          0.2500000E+02      :
          :  -> integral neglect         0.1000000E-07      :
          :  -> SCF convergence          0.1000000E-05 Eh   :
          :  -> wf. convergence          0.2000000E-04 e    :
          :  Broyden damping             0.4000000          :
          ...................................................

 iter      E             dE          RMSdq      gap      omega  full diag
   1    -93.5677916 -0.935678E+02  0.144E+01    0.39       0.0  T
   2     35.2006959  0.128768E+03  0.248E+01    0.09       1.0  T
   3    -79.7551974 -0.114956E+03  0.123E+01    0.25       1.0  T
   4    -56.6779351  0.230773E+02  0.136E+01    0.01       1.0  T
   5    -62.3751993 -0.569726E+01  0.130E+01    0.05       1.0  T
   6    -78.0952033 -0.157200E+02  0.109E+01    0.18       1.0  T
   7   -108.7450969 -0.306499E+02  0.772E+00    0.24       1.0  T
   8    -75.4741658  0.332709E+02  0.113E+01    0.22       1.0  T
   9    -90.0641028 -0.145899E+02  0.976E+00    0.04       1.0  T
  10    -96.3871668 -0.632306E+01  0.869E+00    0.08       1.0  T
  11   -109.6372852 -0.132501E+02  0.598E+00    0.14       1.0  T
  12   -116.7735732 -0.713629E+01  0.305E+00    0.13       1.0  T
  13    -93.6414863  0.231321E+02  0.956E+00    0.33       1.0  T
  14    -95.3329867 -0.169150E+01  0.916E+00    0.28       1.0  T
  15    -95.6107957 -0.277809E+00  0.905E+00    0.26       1.0  T
  16   -109.0973998 -0.134866E+02  0.656E+00    0.11       1.0  T
  17   -105.8472659  0.325013E+01  0.708E+00    0.13       1.0  T
  18    -86.7814164  0.190658E+02  0.106E+01    0.22       1.0  T
  19    -90.0590491 -0.327763E+01  0.101E+01    0.26       1.0  T
  20   -102.2360659 -0.121770E+02  0.816E+00    0.20       1.0  T
  21    -98.1730996  0.406297E+01  0.870E+00    0.23       1.0  T
  22   -100.0709787 -0.189788E+01  0.828E+00    0.15       1.0  T
  23    -99.1923250  0.878654E+00  0.864E+00    0.20       1.0  T
  24    -99.2116354 -0.193104E-01  0.863E+00    0.20       1.0  T
  25    -99.0822729  0.129363E+00  0.870E+00    0.21       1.0  T
  26   -103.0205348 -0.393826E+01  0.768E+00    0.11       1.0  T
  27   -102.8851544  0.135380E+00  0.779E+00    0.08       1.0  T
  28   -105.4192993 -0.253414E+01  0.719E+00    0.09       1.0  T
  29   -109.7207507 -0.430145E+01  0.602E+00    0.09       1.0  T
  30   -115.9015442 -0.618079E+01  0.377E+00    0.09       1.0  T
  31   -115.4356479  0.465896E+00  0.396E+00    0.02       1.0  T
  32   -115.6122586 -0.176611E+00  0.376E+00    0.12       1.0  T
  33   -117.7926638 -0.218041E+01  0.251E+00    0.12       1.0  T
  34   -118.7578276 -0.965164E+00  0.157E+00    0.16       1.0  T
  35   -118.9223623 -0.164535E+00  0.134E+00    0.20       1.0  T
  36   -119.2053882 -0.283026E+00  0.822E-01    0.20       1.0  T
  37   -119.3136789 -0.108291E+00  0.467E-01    0.22       1.0  T
  38   -119.3155914 -0.191243E-02  0.416E-01    0.22       1.0  T
  39   -119.3178684 -0.227703E-02  0.411E-01    0.21       1.0  T
  40   -119.3222701 -0.440165E-02  0.391E-01    0.21       1.0  T
  41   -119.3436641 -0.213940E-01  0.254E-01    0.21       1.0  T
  42   -119.3491783 -0.551429E-02  0.167E-01    0.22       1.0  T
  43   -119.3505842 -0.140582E-02  0.127E-01    0.22       1.0  T
  44   -119.3524347 -0.185052E-02  0.893E-02    0.22       1.0  T
  45   -119.3525315 -0.967742E-04  0.848E-02    0.22       1.0  T
  46   -119.3528299 -0.298475E-03  0.479E-02    0.22       1.0  T
  47   -119.3531523 -0.322360E-03  0.224E-02    0.23       1.0  T
  48   -119.3532318 -0.795195E-04  0.109E-02    0.23       1.1  T
  49   -119.3532451 -0.132490E-04  0.701E-03    0.23       1.7  T
  50   -119.3532522 -0.716526E-05  0.340E-03    0.23       3.6  T
  51   -119.3532535 -0.126448E-05  0.227E-03    0.23       5.3  T
  52   -119.3532543 -0.817820E-06  0.141E-03    0.23       8.6  T
  53   -119.3532548 -0.471884E-06  0.412E-04    0.23      29.4  T
  54   -119.3532548 -0.311596E-07  0.196E-04    0.23      62.0  T
  55   -119.3532548 -0.249166E-08  0.151E-04    0.23      80.2  T

   *** convergence criteria satisfied after 55 iterations ***

         #    Occupation            Energy/Eh            Energy/eV
      -------------------------------------------------------------
         1        2.0000           -0.8059023             -21.9297
       ...           ...                  ...                  ...
       104        2.0000           -0.2468510              -6.7172
       105        1.9999           -0.2456315              -6.6840
       106        1.9992           -0.2433304              -6.6214
       107        1.9980           -0.2424554              -6.5975
       108        1.9784           -0.2401894              -6.5359
       109        1.7615           -0.2376721              -6.4674
       110        1.2484           -0.2355746              -6.4103 (HOMO)
       111        0.0119           -0.2272565              -6.1840 (LUMO)
       112        0.0027           -0.2258268              -6.1451
       113                         -0.2152094              -5.8561
       114                         -0.2126658              -5.7869
       115                         -0.2114249              -5.7532
       ...                                ...                  ...
       274                         13.9754827             380.2922
      -------------------------------------------------------------
                  HL-Gap            0.0083180 Eh            0.2263 eV
             Fermi-level           -0.2340099 Eh           -6.3677 eV

 SCC (total)                   0 d,  0 h,  0 min,  6.896 sec
 SCC setup                      ...        0 min,  0.003 sec (  0.039%)
 Dispersion                     ...        0 min,  0.001 sec (  0.019%)
 classical contributions        ...        0 min,  0.000 sec (  0.005%)
 integral evaluation            ...        0 min,  0.034 sec (  0.494%)
 iterations                     ...        0 min,  6.673 sec ( 96.767%)
 molecular gradient             ...        0 min,  0.076 sec (  1.107%)
 printout                       ...        0 min,  0.108 sec (  1.567%)

         :::::::::::::::::::::::::::::::::::::::::::::::::::::
         ::                     SUMMARY                     ::
         :::::::::::::::::::::::::::::::::::::::::::::::::::::
         :: total energy            -118.496571312095 Eh    ::
         :: total w/o Gsasa/hb      -118.490260182836 Eh    ::
         :: gradient norm              0.159340251958 Eh/a0 ::
         :: HOMO-LUMO gap              0.226345588041 eV    ::
         ::.................................................::
         :: SCC energy              -119.353254812290 Eh    ::
         :: -> electrostatic           0.704304437700 Eh    ::
         :: -> Gsolv                  -0.390719496294 Eh    ::
         ::    -> Gelec               -0.384408367035 Eh    ::
         ::    -> Gsasa               -0.005746195183 Eh    ::
         ::    -> Ghb                 -0.004810540747 Eh    ::
         ::    -> Gshift               0.004245606671 Eh    ::
         :: repulsion energy           0.922157545418 Eh    ::
         :: dispersion energy         -0.065474045223 Eh    ::
         :: halogen bond corr.         0.000000000000 Eh    ::
         :: add. restraining           0.000000000000 Eh    ::
         :: total charge              -2.999999999774 e     ::
         :::::::::::::::::::::::::::::::::::::::::::::::::::::

           -------------------------------------------------
          |                Property Printout                |
           -------------------------------------------------

    * Orbital Energies and Occupations

         #    Occupation            Energy/Eh            Energy/eV
      -------------------------------------------------------------
         1        2.0000           -0.8059023             -21.9297
       ...           ...                  ...                  ...
        98        2.0000           -0.2543338              -6.9208
        99        2.0000           -0.2535472              -6.8994
       100        2.0000           -0.2524187              -6.8687
       101        2.0000           -0.2494905              -6.7890
       102        2.0000           -0.2482169              -6.7543
       103        2.0000           -0.2476192              -6.7381
       104        2.0000           -0.2468510              -6.7172
       105        1.9999           -0.2456315              -6.6840
       106        1.9992           -0.2433304              -6.6214
       107        1.9980           -0.2424554              -6.5975
       108        1.9784           -0.2401894              -6.5359
       109        1.7615           -0.2376721              -6.4674
       110        1.2484           -0.2355746              -6.4103 (HOMO)
       111        0.0119           -0.2272565              -6.1840 (LUMO)
       112        0.0027           -0.2258268              -6.1451
       113                         -0.2152094              -5.8561
       114                         -0.2126658              -5.7869
       115                         -0.2114249              -5.7532
       116                         -0.2092014              -5.6927
       117                         -0.2006352              -5.4596
       118                         -0.1982188              -5.3938
       119                         -0.1939799              -5.2785
       120                         -0.1889804              -5.1424
       121                         -0.1701864              -4.6310
       ...                                ...                  ...
       274                         13.9754827             380.2922
      -------------------------------------------------------------
                  HL-Gap            0.0083180 Eh            0.2263 eV
             Fermi-level           -0.2340099 Eh           -6.3677 eV

  Mulliken/CM5 charges         n(s)   n(p)   n(d)
     1C    -0.05522 -0.20395   1.003  3.052  0.000
     2C     0.01654 -0.07738   1.027  2.956  0.000
     3S    -0.26300 -0.35772   1.899  4.372 -0.008
     4H    -0.01015  0.04035   1.010  0.000  0.000
     5H     0.00714  0.06030   0.993  0.000  0.000
     6H     0.00687  0.05876   0.993  0.000  0.000
     7H    -0.02874  0.02620   1.029  0.000  0.000
     8H    -0.02629  0.02851   1.026  0.000  0.000
     9C    -0.07135 -0.21936   1.005  3.066  0.000
    10C     0.01886 -0.07521   1.025  2.956  0.000
    11S    -0.31484 -0.39869   1.901  4.424 -0.011
    12H    -0.00423  0.04638   1.004  0.000  0.000
    13H    -0.00402  0.04838   1.004  0.000  0.000
    14H    -0.00337  0.04894   1.003  0.000  0.000
    15H    -0.02537  0.02916   1.025  0.000  0.000
    16H    -0.01628  0.03837   1.016  0.000  0.000
    17C    -0.05948 -0.20794   1.003  3.057  0.000
    18C     0.01681 -0.07726   1.026  2.957  0.000
    19S    -0.28645 -0.37584   1.900  4.395 -0.009
    20H    -0.00889  0.04169   1.009  0.000  0.000
    21H    -0.00150  0.05039   1.002  0.000  0.000
    22H     0.01581  0.06882   0.984  0.000  0.000
    23H    -0.03218  0.02288   1.032  0.000  0.000
    24H    -0.02100  0.03345   1.021  0.000  0.000
    25C    -0.06369 -0.21119   1.004  3.059  0.000
    26C     0.02361 -0.06998   1.024  2.952  0.000
    27S    -0.34675 -0.42270   1.901  4.457 -0.011
    28H    -0.01089  0.04117   1.011  0.000  0.000
    29H    -0.01365  0.03684   1.014  0.000  0.000
    30H    -0.00139  0.05398   1.001  0.000  0.000
    31H    -0.02149  0.03280   1.021  0.000  0.000
    32H    -0.03805  0.01699   1.038  0.000  0.000
    33C    -0.06397 -0.21182   1.003  3.061  0.000
    34C     0.02251 -0.07061   1.029  2.948  0.000
    35S    -0.32989 -0.40560   1.876  4.465 -0.012
    36H    -0.00177  0.05032   1.002  0.000  0.000
    37H    -0.01309  0.03914   1.013  0.000  0.000
    38H    -0.00889  0.04159   1.009  0.000  0.000
    39H    -0.01933  0.03786   1.019  0.000  0.000
    40H    -0.04018  0.01445   1.040  0.000  0.000
    41C    -0.07079 -0.22036   1.005  3.065  0.000
    42C    -0.04342 -0.14468   1.023  3.021  0.000
    43C     0.05720  0.11773   1.048  2.895  0.000
    44N    -0.28446 -0.64173   1.431  3.853  0.000
    45C     0.23218  0.33223   0.986  2.782  0.000
    46N    -0.40790 -0.59509   1.556  3.851  0.000
    47C     0.07123  0.10077   1.014  2.915  0.000
    48H     0.02322  0.07600   0.977  0.000  0.000
    49H     0.02694  0.07908   0.973  0.000  0.000
    50H     0.02531  0.07672   0.975  0.000  0.000
    51H     0.02335  0.08107   0.977  0.000  0.000
    52H     0.02624  0.08184   0.974  0.000  0.000
    53H     0.23716  0.43466   0.763  0.000  0.000
    54H    -0.00553  0.06961   1.006  0.000  0.000
    55H    -0.00940  0.05719   1.009  0.000  0.000
    56Fe   -0.03048  0.22530   0.153  0.935  6.943
    57Fe   -0.01711  0.23378   0.140  0.900  6.977
    58Fe   -0.02126  0.24282   0.133  0.926  6.962
    59Fe   -0.03109  0.23899   0.159  0.977  6.894
    60S    -0.00151 -0.25203   1.859  4.160 -0.017
    61S    -0.14576 -0.37595   1.867  4.297 -0.019
    62S    -0.14154 -0.36443   1.867  4.294 -0.019
    63S     0.08137 -0.12211   1.867  4.032  0.019
    64Ni   -0.24108 -0.07969   0.570  0.642  9.029
    65C     0.60060  0.67499   1.005  2.394  0.000
    66O    -0.56021 -0.66933   1.658  4.902  0.000
    67O    -0.64037 -0.67830   1.746  4.894  0.000
    68H     0.32437  0.39847   0.676  0.000  0.000

Wiberg/Mayer (AO) data.
largest (>0.10) Wiberg bond orders for each atom

 ---------------------------------------------------------------------------
     #   Z sym  total        # sym  WBO       # sym  WBO       # sym  WBO
 ---------------------------------------------------------------------------
     1   6 C    3.993 --     2 C    1.018     4 H    0.984     6 H    0.984
                             5 H    0.977
     2   6 C    3.983 --     1 C    1.018     8 H    0.986     7 H    0.982
                             3 S    0.956
     3  16 S    2.124 --     2 C    0.956    57 Fe   0.759
     4   1 H    1.009 --     1 C    0.984
     5   1 H    1.037 --     1 C    0.977
     6   1 H    1.018 --     1 C    0.984
     7   1 H    1.028 --     2 C    0.982
     8   1 H    1.028 --     2 C    0.986
     9   6 C    3.991 --    10 C    1.018    13 H    0.988    14 H    0.988
                            12 H    0.985
    10   6 C    3.989 --     9 C    1.018    15 H    0.987    16 H    0.985
                            11 S    0.966
    11  16 S    2.004 --    10 C    0.966    56 Fe   0.680
    12   1 H    1.008 --     9 C    0.985
    13   1 H    1.027 --     9 C    0.988
    14   1 H    1.030 --     9 C    0.988
    15   1 H    1.024 --    10 C    0.987
    16   1 H    1.021 --    10 C    0.985
    17   6 C    3.993 --    18 C    1.017    21 H    0.988    20 H    0.986
                            22 H    0.976
    18   6 C    3.988 --    17 C    1.017    24 H    0.986    23 H    0.986
                            19 S    0.962
    19  16 S    2.078 --    18 C    0.962    58 Fe   0.766    64 Ni   0.105
    20   1 H    1.009 --    17 C    0.986
    21   1 H    1.020 --    17 C    0.988
    22   1 H    1.029 --    17 C    0.976
    23   1 H    1.030 --    18 C    0.986
    24   1 H    1.021 --    18 C    0.986
    25   6 C    3.989 --    26 C    1.017    28 H    0.988    29 H    0.985
                            30 H    0.969
    26   6 C    3.987 --    25 C    1.017    32 H    0.986    31 H    0.984
                            27 S    0.972
    27  16 S    1.942 --    26 C    0.972    59 Fe   0.698
    28   1 H    1.027 --    25 C    0.988
    29   1 H    1.010 --    25 C    0.985
    30   1 H    1.056 --    25 C    0.969
    31   1 H    1.020 --    26 C    0.984
    32   1 H    1.030 --    26 C    0.986
    33   6 C    3.993 --    34 C    1.018    37 H    0.988    36 H    0.988
                            38 H    0.985
    34   6 C    3.987 --    33 C    1.018    40 H    0.987    35 S    0.972
                            39 H    0.967
    35  16 S    1.926 --    34 C    0.972    64 Ni   0.765
    36   1 H    1.027 --    33 C    0.988
    37   1 H    1.030 --    33 C    0.988
    38   1 H    1.010 --    33 C    0.985
    39   1 H    1.063 --    34 C    0.967
    40   1 H    1.029 --    34 C    0.987
    41   6 C    3.997 --    42 C    1.000    48 H    0.989    50 H    0.988
                            49 H    0.985
    42   6 C    3.998 --    43 C    1.015    41 C    1.000    51 H    0.977
                            52 H    0.977
    43   6 C    3.915 --    47 C    1.571    44 N    1.147    42 C    1.015
                            45 C    0.108
    44   7 N    3.454 --    45 C    1.214    43 C    1.147    53 H    0.911
    45   6 C    3.919 --    46 N    1.557    44 N    1.214    54 H    0.951
                            43 C    0.108
    46   7 N    2.998 --    45 C    1.557    47 C    1.269
    47   6 C    3.965 --    43 C    1.571    46 N    1.269    55 H    0.974
    48   1 H    1.007 --    41 C    0.989
    49   1 H    1.013 --    41 C    0.985
    50   1 H    1.005 --    41 C    0.988
    51   1 H    1.006 --    42 C    0.977
    52   1 H    1.009 --    42 C    0.977
    53   1 H    0.947 --    44 N    0.911
Note: The following floating-point exceptions are signalling: IEEE_UNDERFLOW_FLAG IEEE_DENORMAL
normal termination of xtb
    54   1 H    1.086 --    45 C    0.951
    55   1 H    1.053 --    47 C    0.974
    56  26 Fe   5.334 --    59 Fe   0.815    61 S    0.802    62 S    0.783
                            58 Fe   0.722    11 S    0.680    57 Fe   0.550
                            63 S    0.486    64 Ni   0.215
    57  26 Fe   4.973 --    62 S    0.888     3 S    0.759    59 Fe   0.709
                            60 S    0.680    56 Fe   0.550    58 Fe   0.389
                            64 Ni   0.312    63 S    0.297
    58  26 Fe   5.148 --    61 S    0.871    19 S    0.766    56 Fe   0.722
                            59 Fe   0.677    60 S    0.618    63 S    0.470
                            57 Fe   0.389    64 Ni   0.362
    59  26 Fe   5.696 --    61 S    0.828    56 Fe   0.815    62 S    0.807
                            57 Fe   0.709    27 S    0.698    60 S    0.681
                            58 Fe   0.677    64 Ni   0.265
    60  16 S    2.760 --    59 Fe   0.681    57 Fe   0.680    58 Fe   0.618
                            64 Ni   0.587
    61  16 S    2.646 --    58 Fe   0.871    59 Fe   0.828    56 Fe   0.802
    62  16 S    2.640 --    57 Fe   0.888    59 Fe   0.807    56 Fe   0.783
    63  16 S    2.755 --    65 C    0.786    64 Ni   0.496    56 Fe   0.486
                            58 Fe   0.470    57 Fe   0.297
    64  28 Ni   3.292 --    35 S    0.765    60 S    0.587    63 S    0.496
                            58 Fe   0.362    57 Fe   0.312    59 Fe   0.265
                            56 Fe   0.215    19 S    0.105
    65   6 C    3.771 --    67 O    1.573    66 O    1.228    63 S    0.786
    66   8 O    2.046 --    65 C    1.228    68 H    0.569    67 O    0.142
    67   8 O    1.859 --    65 C    1.573    66 O    0.142
    68   1 H    0.754 --    66 O    0.569
 ---------------------------------------------------------------------------

Topologies differ in total number of bonds
Writing topology from bond orders to xtbtopo.mol

 dipole moment from electron density (au)
     X       Y       Z   
-305.7186 -64.4000-274.9322  total (Debye): 1057.803


           -------------------------------------------------
          | TOTAL ENERGY             -118.496571312095 Eh   |
          | GRADIENT NORM               0.159340251958 Eh/α |
          | HOMO-LUMO GAP               0.226345588041 eV   |
           -------------------------------------------------

------------------------------------------------------------------------
 * finished run on 2026/09/13 at 13:39:04.661     
------------------------------------------------------------------------
 total:
 * wall-time:     0 d,  0 h,  0 min,  6.946 sec
 *  cpu-time:     0 d,  0 h,  0 min,  7.958 sec
 * ratio c/w:     1.146 speedup
 SCF:
 * wall-time:     0 d,  0 h,  0 min,  6.898 sec
 *  cpu-time:     0 d,  0 h,  0 min,  7.684 sec
 * ratio c/w:     1.114 speedup

