      -----------------------------------------------------------      
     |                   =====================                   |     
     |                           x T B                           |     
     |                   =====================                   |     
     |                         S. Grimme                         |     
     |          Mulliken Center for Theoretical Chemistry        |     
     |                    University of Bonn                     |     
      -----------------------------------------------------------      

   * xtb version 6.6.1 (unknown) compiled by 'builduser@buildhost' on 2023-08-07

   xtb is free software: you can redistribute it and/or modify it under
   the terms of the GNU Lesser General Public License as published by
   the Free Software Foundation, either version 3 of the License, or
   (at your option) any later version.
   
   xtb is distributed in the hope that it will be useful,
   but WITHOUT ANY WARRANTY; without even the implied warranty of
   MERCHANTABILITY or FITNESS FOR A PARTICULAR PURPOSE.  See the
   GNU Lesser General Public License for more details.
   
   Cite this work as:
   * C. Bannwarth, E. Caldeweyher, S. Ehlert, A. Hansen, P. Pracht,
     J. Seibert, S. Spicher, S. Grimme, WIREs Comput. Mol. Sci., 2020, 11,
     e01493. DOI: 10.1002/wcms.1493
   
   for GFN2-xTB:
   * C. Bannwarth, S. Ehlert and S. Grimme., J. Chem. Theory Comput., 2019,
     15, 1652-1671. DOI: 10.1021/acs.jctc.8b01176
   for GFN1-xTB:
   * S. Grimme, C. Bannwarth, P. Shushkov, J. Chem. Theory Comput., 2017,
     13, 1989-2009. DOI: 10.1021/acs.jctc.7b00118
   for GFN0-xTB:
   * P. Pracht, E. Caldeweyher, S. Ehlert, S. Grimme, ChemRxiv, 2019, preprint.
     DOI: 10.26434/chemrxiv.8326202.v1
   for GFN-FF:
   * S. Spicher and S. Grimme, Angew. Chem. Int. Ed., 2020, 59, 15665-15673.
     DOI: 10.1002/anie.202004239
   
   for ALPB and GBSA implicit solvation:
   * S. Ehlert, M. Stahn, S. Spicher, S. Grimme, J. Chem. Theory Comput.,
     2021, 17, 4250-4261. DOI: 10.1021/acs.jctc.1c00471
   
   for DFT-D4:
   * E. Caldeweyher, C. Bannwarth and S. Grimme, J. Chem. Phys., 2017,
     147, 034112. DOI: 10.1063/1.4993215
   * E. Caldeweyher, S. Ehlert, A. Hansen, H. Neugebauer, S. Spicher,
     C. Bannwarth and S. Grimme, J. Chem. Phys., 2019, 150, 154122.
     DOI: 10.1063/1.5090222
   * E. Caldeweyher, J.-M. Mewes, S. Ehlert and S. Grimme, Phys. Chem. Chem. Phys.
     2020, 22, 8499-8512. DOI: 10.1039/D0CP00502A
   
   for sTDA-xTB:
   * S. Grimme and C. Bannwarth, J. Chem. Phys., 2016, 145, 054103.
     DOI: 10.1063/1.4959605
   
   in the mass-spec context:
   * V. Asgeirsson, C. Bauer and S. Grimme, Chem. Sci., 2017, 8, 4879.
     DOI: 10.1039/c7sc00601b
   * J. Koopman and S. Grimme, ACS Omega 2019, 4, 12, 15120-15133.
     DOI: 10.1021/acsomega.9b02011
   
   for metadynamics refer to:
   * S. Grimme, J. Chem. Theory Comput., 2019, 155, 2847-2862
     DOI: 10.1021/acs.jctc.9b00143
   
   for SPH calculations refer to:
   * S. Spicher and S. Grimme, J. Chem. Theory Comput., 2021, 17, 1701-1714
     DOI: 10.1021/acs.jctc.0c01306
   
   with help from (in alphabetical order)
   P. Atkinson, C. Bannwarth, F. Bohle, G. Brandenburg, E. Caldeweyher
   M. Checinski, S. Dohm, S. Ehlert, S. Ehrlich, I. Gerasimov, C. Hölzer
   A. Katbashev, J. Koopman, C. Lavigne, S. Lehtola, F. März, M. Müller,
   F. Musil, H. Neugebauer, J. Pisarek, C. Plett, P. Pracht, F. Pultar,
   J. Seibert, P. Shushkov, S. Spicher, M. Stahn, M. Steiner, T. Strunk,
   J. Stückrath, T. Rose, and J. Unsleber
   
 * started run on 2026/09/13 at 13:39:42.962     

           -------------------------------------------------
          |                Calculation Setup                |
           -------------------------------------------------

          program call               : xtb structure.xyz --gfn 1 --chrg -3 --uhf 1 --alpb water
          coordinate file            : structure.xyz
          omp threads                :                     8

   ID    Z sym.   atoms
    1    6 C      1, 2, 9, 10, 17, 18, 25, 26, 33, 34, 41-43, 45, 47, 65
    2   16 S      3, 11, 19, 27, 35, 60-63
    3    1 H      4-8, 12-16, 20-24, 28-32, 36-40, 48-55, 68
    4    7 N      44, 46
    5   26 Fe     56-59, 64
    6    8 O      66, 67

molecular fragmentation (1/2 indicates fragments):
11111111111111111111111111111111111111111111111111111111111111111112
# atoms in fragment 1/2:    67     1
 fragment masses (1/2) :      853.25        1.01
CMA distance (Bohr)    :  10.666
constraining FC (au)   :  0.0500

           -------------------------------------------------
          |                 G F N 1 - x T B                 |
           -------------------------------------------------

        Reference                      10.1021/acs.jctc.7b00118
      * Hamiltonian:
        H0-scaling (s, p, d)           1.850000    2.250000    2.000000
        zeta-weighting                 0.000000
      * Dispersion:
        s8                             2.400000
        a1                             0.630000
        a2                             5.000000
        s9                             0.000000
      * Repulsion:
        kExp                           1.500000
        rExp                           1.000000
      * Coulomb:
        alpha                          2.000000
        third order                    atomic
        anisotropic                    false
      * Halogen bond correction:
        rad-scale                      1.300000
        damping                        0.440000

      * Solvation model:               ALPB
        Solvent                        water
        Parameter file                 internal GFN1-xTB/ALPB
        Dielectric constant                8.0200E+01
        Reference state                gsolv [1 M gas/solution]
        Free energy shift                  4.2456E-03 Eh       2.6642E+00 kcal/mol
        Temperature                        2.9815E+02 K
        Density                            1.0000E+00 kg/L
        Solvent mass                       1.8000E+01 g/mol
        Interaction kernel             P16
        Born radius scaling (c1)           1.9452E+00
        Born radii integrator          GBOBC
        Born offset                        0.0000E+00 a0       0.0000E+00 AA
        H-bond correction              true
        Ion screening                  false
        Surface tension                    1.0000E-05 Eh       1.5569E+01 dyn/cm
        Grid points                               230 per atom

          ...................................................
          :                      SETUP                      :
          :.................................................:
          :  # basis functions                 288          :
          :  # atomic orbitals                 274          :
          :  # shells                          150          :
          :  # electrons                       217          :
          :  # halogen bonds                     0          :
          :  max. iterations                   250          :
          :  Hamiltonian                  GFN1-xTB          :
          :  restarted?                      false          :
          :  GBSA solvation                   true          :
          :  PC potential                    false          :
          :  electronic temp.          300.0000000     K    :
          :  accuracy                    1.0000000          :
          :  -> integral cutoff          0.2500000E+02      :
          :  -> integral neglect         0.1000000E-07      :
          :  -> SCF convergence          0.1000000E-05 Eh   :
          :  -> wf. convergence          0.2000000E-04 e    :
          :  Broyden damping             0.4000000          :
          ...................................................

 iter      E             dE          RMSdq      gap      omega  full diag
   1    -86.0258600 -0.860259E+02  0.154E+01    0.27       0.0  T
   2     59.8005137  0.145826E+03  0.282E+01    0.09       1.0  T
   3    -92.9976031 -0.152798E+03  0.194E+01    0.30       1.0  T
   4    -43.7698720  0.492277E+02  0.149E+01    0.09       1.0  T
   5    -60.0825859 -0.163127E+02  0.129E+01    0.07       1.0  T
   6    -91.4584888 -0.313759E+02  0.107E+01    0.22       1.0  T
   7    -70.7625965  0.206959E+02  0.120E+01    0.23       1.0  T
   8    -63.1218368  0.764076E+01  0.123E+01    0.14       1.0  T
   9    -75.0239713 -0.119021E+02  0.115E+01    0.41       1.0  T
  10    -90.6545169 -0.156305E+02  0.968E+00    0.09       1.0  T
  11   -107.1806981 -0.165262E+02  0.638E+00    0.11       1.0  T
  12   -111.8559225 -0.467522E+01  0.526E+00    0.10       1.0  T
  13   -107.1527402  0.470318E+01  0.664E+00    0.16       1.0  T
  14   -113.0767322 -0.592399E+01  0.483E+00    0.09       1.0  T
  15   -112.8503542  0.226378E+00  0.492E+00    0.10       1.0  T
  16   -112.1855617  0.664792E+00  0.502E+00    0.11       1.0  T
  17   -113.7384908 -0.155293E+01  0.446E+00    0.05       1.0  T
  18   -113.3138962  0.424595E+00  0.461E+00    0.04       1.0  T
  19   -113.1964759  0.117420E+00  0.464E+00    0.03       1.0  T
  20    -80.5614543  0.326350E+02  0.115E+01    0.04       1.0  T
  21    -95.1693803 -0.146079E+02  0.899E+00    0.06       1.0  T
  22    -86.3444110  0.882497E+01  0.105E+01    0.15       1.0  T
  23    -84.0691067  0.227530E+01  0.109E+01    0.07       1.0  T
  24    -83.9152322  0.153874E+00  0.109E+01    0.06       1.0  T
  25   -104.8782760 -0.209630E+02  0.728E+00    0.03       1.0  T
  26    -99.1791427  0.569913E+01  0.798E+00    0.09       1.0  T
  27   -108.3241233 -0.914498E+01  0.621E+00    0.02       1.0  T
  28   -104.7803310  0.354379E+01  0.698E+00    0.02       1.0  T
  29   -104.5955713  0.184760E+00  0.697E+00    0.02       1.0  T
  30   -103.7114864  0.884085E+00  0.716E+00    0.04       1.0  T
  31   -107.4714120 -0.375993E+01  0.638E+00    0.07       1.0  T
  32   -108.6129864 -0.114157E+01  0.599E+00    0.07       1.0  T
  33   -113.8332199 -0.522023E+01  0.407E+00    0.05       1.0  T
  34   -115.8860014 -0.205278E+01  0.315E+00    0.07       1.0  T
  35   -116.9495814 -0.106358E+01  0.243E+00    0.09       1.0  T
  36   -117.3151748 -0.365593E+00  0.210E+00    0.09       1.0  T
  37   -117.1241099  0.191065E+00  0.220E+00    0.08       1.0  T
  38   -117.6467532 -0.522643E+00  0.147E+00    0.08       1.0  T
  39   -117.4232366  0.223517E+00  0.178E+00    0.08       1.0  T
  40   -117.7455935 -0.322357E+00  0.136E+00    0.08       1.0  T
  41   -118.1924312 -0.446838E+00  0.322E-01    0.12       1.0  T
  42   -118.1975365 -0.510535E-02  0.234E-01    0.11       1.0  T
  43   -118.1701770  0.273595E-01  0.399E-01    0.11       1.0  T
  44   -118.2033331 -0.331562E-01  0.139E-01    0.11       1.0  T
  45   -118.2019243  0.140886E-02  0.156E-01    0.12       1.0  T
  46   -118.2044475 -0.252323E-02  0.109E-01    0.11       1.0  T
  47   -118.2063605 -0.191298E-02  0.746E-02    0.11       1.0  T
  48   -118.2069458 -0.585357E-03  0.572E-02    0.11       1.0  T
  49   -118.2077219 -0.776034E-03  0.166E-02    0.11       1.0  T
  50   -118.2076687  0.531295E-04  0.212E-02    0.11       1.0  T
  51   -118.2077328 -0.640336E-04  0.143E-02    0.11       1.0  T
  52   -118.2077574 -0.245876E-04  0.966E-03    0.11       1.3  T
  53   -118.2077640 -0.660396E-05  0.778E-03    0.11       1.6  T
  54   -118.2077758 -0.117892E-04  0.339E-03    0.11       3.6  T
  55   -118.2077783 -0.249820E-05  0.132E-03    0.11       9.2  T
  56   -118.2077785 -0.231904E-06  0.816E-04    0.11      14.9  T
  57   -118.2077785 -0.526914E-07  0.687E-04    0.11      17.6  T
  58   -118.2077787 -0.121874E-06  0.101E-04    0.11     120.6  T
  59   -118.2077787 -0.875744E-09  0.749E-05    0.11     162.0  T

   *** convergence criteria satisfied after 59 iterations ***

         #    Occupation            Energy/Eh            Energy/eV
      -------------------------------------------------------------
         1        2.0000           -0.8049019             -21.9025
       ...           ...                  ...                  ...
       103        2.0000           -0.2693520              -7.3294
       104        1.9997           -0.2670827              -7.2677
       105        1.9983           -0.2653191              -7.2197
       106        1.9042           -0.2613886              -7.1127
       107        1.8463           -0.2608863              -7.0991
       108        1.7534           -0.2603470              -7.0844
       109        1.3637           -0.2589742              -7.0470 (HOMO)
       110        0.1344           -0.2548431              -6.9346 (LUMO)
       111        0.0000           -0.2465052              -6.7077
       112        0.0000           -0.2432983              -6.6205
       113                         -0.2408568              -6.5540
       114                         -0.2377003              -6.4682
       ...                                ...                  ...
       274                         13.1753501             358.5195
      -------------------------------------------------------------
                  HL-Gap            0.0041311 Eh            0.1124 eV
             Fermi-level           -0.2579376 Eh           -7.0188 eV

 SCC (total)                   0 d,  0 h,  0 min,  7.138 sec
 SCC setup                      ...        0 min,  0.004 sec (  0.052%)
 Dispersion                     ...        0 min,  0.002 sec (  0.022%)
 classical contributions        ...        0 min,  0.000 sec (  0.002%)
 integral evaluation            ...        0 min,  0.039 sec (  0.547%)
 iterations                     ...        0 min,  6.887 sec ( 96.476%)
 molecular gradient             ...        0 min,  0.091 sec (  1.280%)
 printout                       ...        0 min,  0.116 sec (  1.619%)

         :::::::::::::::::::::::::::::::::::::::::::::::::::::
         ::                     SUMMARY                     ::
         :::::::::::::::::::::::::::::::::::::::::::::::::::::
         :: total energy            -117.364417502919 Eh    ::
         :: total w/o Gsasa/hb      -117.361551939727 Eh    ::
         :: gradient norm              0.073189645760 Eh/a0 ::
         :: HOMO-LUMO gap              0.112412453767 eV    ::
         ::.................................................::
         :: SCC energy              -118.207778666623 Eh    ::
         :: -> electrostatic           0.671366963077 Eh    ::
         :: -> Gsolv                  -0.372755813691 Eh    ::
         ::    -> Gelec               -0.369890250498 Eh    ::
         ::    -> Gsasa               -0.004996875609 Eh    ::
         ::    -> Ghb                 -0.002114294254 Eh    ::
         ::    -> Gshift               0.004245606671 Eh    ::
         :: repulsion energy           0.909113367918 Eh    ::
         :: dispersion energy         -0.065752204214 Eh    ::
         :: halogen bond corr.         0.000000000000 Eh    ::
         :: add. restraining           0.000000000000 Eh    ::
         :: total charge              -3.000000000000 e     ::
         :::::::::::::::::::::::::::::::::::::::::::::::::::::

           -------------------------------------------------
          |                Property Printout                |
           -------------------------------------------------

    * Orbital Energies and Occupations

         #    Occupation            Energy/Eh            Energy/eV
      -------------------------------------------------------------
         1        2.0000           -0.8049019             -21.9025
       ...           ...                  ...                  ...
        97        2.0000           -0.2788496              -7.5879
        98        2.0000           -0.2773546              -7.5472
        99        2.0000           -0.2750846              -7.4854
       100        2.0000           -0.2736461              -7.4463
       101        2.0000           -0.2715065              -7.3881
       102        2.0000           -0.2706061              -7.3636
       103        2.0000           -0.2693520              -7.3294
       104        1.9997           -0.2670827              -7.2677
       105        1.9983           -0.2653191              -7.2197
       106        1.9042           -0.2613886              -7.1127
       107        1.8463           -0.2608863              -7.0991
       108        1.7534           -0.2603470              -7.0844
       109        1.3637           -0.2589742              -7.0470 (HOMO)
       110        0.1344           -0.2548431              -6.9346 (LUMO)
       111        0.0000           -0.2465052              -6.7077
       112        0.0000           -0.2432983              -6.6205
       113                         -0.2408568              -6.5540
       114                         -0.2377003              -6.4682
       115                         -0.2331549              -6.3445
       116                         -0.2303515              -6.2682
       117                         -0.2178834              -5.9289
       118                         -0.2156826              -5.8690
       119                         -0.2124013              -5.7797
       120                         -0.1868581              -5.0847
       ...                                ...                  ...
       274                         13.1753501             358.5195
      -------------------------------------------------------------
                  HL-Gap            0.0041311 Eh            0.1124 eV
             Fermi-level           -0.2579376 Eh           -7.0188 eV

  Mulliken/CM5 charges         n(s)   n(p)   n(d)
     1C    -0.06674 -0.21502   1.005  3.061  0.000
     2C     0.01339 -0.08054   1.030  2.957  0.000
     3S    -0.26834 -0.35460   1.899  4.375 -0.006
     4H     0.00110  0.05172   0.999  0.000  0.000
     5H     0.01176  0.06440   0.988  0.000  0.000
     6H     0.00618  0.05820   0.994  0.000  0.000
     7H    -0.01307  0.04397   1.013  0.000  0.000
     8H    -0.01772  0.03755   1.018  0.000  0.000
     9C    -0.07240 -0.22035   1.006  3.067  0.000
    10C     0.01982 -0.07429   1.027  2.954  0.000
    11S    -0.28504 -0.37126   1.897  4.398 -0.010
    12H     0.00043  0.05102   1.000  0.000  0.000
    13H    -0.00081  0.05145   1.001  0.000  0.000
    14H     0.00270  0.05502   0.997  0.000  0.000
    15H    -0.02155  0.03304   1.022  0.000  0.000
    16H    -0.00516  0.04953   1.005  0.000  0.000
    17C    -0.06778 -0.21548   1.005  3.062  0.000
    18C     0.02180 -0.07194   1.025  2.953  0.000
    19S    -0.30109 -0.38176   1.897  4.415 -0.011
    20H    -0.00562  0.04494   1.006  0.000  0.000
    21H    -0.00385  0.04820   1.004  0.000  0.000
    22H     0.00782  0.06232   0.992  0.000  0.000
    23H    -0.02680  0.02827   1.027  0.000  0.000
    24H    -0.01310  0.04128   1.013  0.000  0.000
    25C    -0.06799 -0.21563   1.005  3.063  0.000
    26C     0.02351 -0.07012   1.025  2.951  0.000
    27S    -0.30257 -0.38268   1.897  4.416 -0.011
    28H    -0.00330  0.04869   1.003  0.000  0.000
    29H    -0.00614  0.04438   1.006  0.000  0.000
    30H     0.00838  0.06318   0.992  0.000  0.000
    31H    -0.01348  0.04090   1.013  0.000  0.000
    32H    -0.02627  0.02887   1.026  0.000  0.000
    33C    -0.06561 -0.21383   1.005  3.061  0.000
    34C     0.02636 -0.06838   1.029  2.945  0.000
    35S    -0.14985 -0.27526   1.886  4.271 -0.007
    36H     0.01309  0.06688   0.987  0.000  0.000
    37H     0.00263  0.05505   0.997  0.000  0.000
    38H     0.00162  0.05229   0.998  0.000  0.000
    39H     0.00296  0.05823   0.997  0.000  0.000
    40H    -0.01258  0.04249   1.013  0.000  0.000
    41C    -0.06797 -0.21747   1.005  3.063  0.000
    42C    -0.04203 -0.14292   1.023  3.019  0.000
    43C     0.06433  0.11873   1.050  2.886  0.000
    44N    -0.35921 -0.70410   1.460  3.899  0.000
    45C     0.16380  0.19462   1.026  2.810  0.000
    46N    -0.35142 -0.62873   1.556  3.795  0.000
    47C     0.05893  0.07961   1.012  2.929  0.000
    48H     0.02183  0.07495   0.978  0.000  0.000
    49H     0.02141  0.07392   0.979  0.000  0.000
    50H     0.01743  0.06861   0.983  0.000  0.000
    51H     0.01483  0.07146   0.985  0.000  0.000
    52H     0.01319  0.06856   0.987  0.000  0.000
    53H     0.20498  0.39886   0.795  0.000  0.000
    54H    -0.02169  0.05057   1.022  0.000  0.000
    55H    -0.01875  0.04540   1.019  0.000  0.000
    56Fe   -0.02637  0.23600   0.155  0.939  6.932
    57Fe   -0.03418  0.30265   0.172  0.917  6.946
    58Fe   -0.02432  0.24657   0.161  0.962  6.901
    59Fe   -0.02575  0.24546   0.159  0.974  6.893
    60S    -0.09464 -0.32610   1.869  4.244 -0.018
    61S    -0.11239 -0.34028   1.866  4.265 -0.019
    62S     0.02110 -0.23414   1.856  4.138 -0.015
    63S     0.00413 -0.18702   1.866  4.124  0.006
    64Fe   -0.01621  0.24919   0.132  0.926  6.958
    65C     0.60778  0.68391   0.995  2.397  0.000
    66O    -0.66976 -0.70698   1.750  4.920  0.000
    67O    -0.60256 -0.67408   1.725  4.878  0.000
    68H    -0.09321 -0.05797   1.093  0.000  0.000

Wiberg/Mayer (AO) data.
largest (>0.10) Wiberg bond orders for each atom

 ---------------------------------------------------------------------------
     #   Z sym  total        # sym  WBO       # sym  WBO       # sym  WBO
 ---------------------------------------------------------------------------
     1   6 C    3.993 --     2 C    1.017     6 H    0.988     4 H    0.985
                             5 H    0.983
     2   6 C    3.991 --     1 C    1.017     8 H    0.984     7 H    0.975
                             3 S    0.965
     3  16 S    2.054 --     2 C    0.965    57 Fe   0.909
     4   1 H    1.008 --     1 C    0.985
     5   1 H    1.020 --     1 C    0.983
     6   1 H    1.020 --     1 C    0.988
     7   1 H    1.023 --     2 C    0.975
     8   1 H    1.027 --     2 C    0.984
     9   6 C    3.992 --    10 C    1.018    13 H    0.988    14 H    0.988
                            12 H    0.985
    10   6 C    3.989 --     9 C    1.018    15 H    0.987    16 H    0.982
                            11 S    0.967
    11  16 S    2.049 --    10 C    0.967    56 Fe   0.805
    12   1 H    1.007 --     9 C    0.985
    13   1 H    1.024 --     9 C    0.988
    14   1 H    1.027 --     9 C    0.988
    15   1 H    1.025 --    10 C    0.987
    16   1 H    1.017 --    10 C    0.982
    17   6 C    3.989 --    18 C    1.018    21 H    0.989    20 H    0.985
                            22 H    0.973
    18   6 C    3.989 --    17 C    1.018    23 H    0.985    24 H    0.984
                            19 S    0.972
    19  16 S    2.017 --    18 C    0.972    58 Fe   0.766
    20   1 H    1.009 --    17 C    0.985
    21   1 H    1.023 --    17 C    0.989
    22   1 H    1.044 --    17 C    0.973
    23   1 H    1.027 --    18 C    0.985
    24   1 H    1.018 --    18 C    0.984
    25   6 C    3.989 --    26 C    1.017    28 H    0.989    29 H    0.985
                            30 H    0.972
    26   6 C    3.988 --    25 C    1.017    32 H    0.985    31 H    0.985
                            27 S    0.972
    27  16 S    2.012 --    26 C    0.972    59 Fe   0.761
    28   1 H    1.022 --    25 C    0.989
    29   1 H    1.009 --    25 C    0.985
    30   1 H    1.045 --    25 C    0.972
    31   1 H    1.018 --    26 C    0.985
    32   1 H    1.027 --    26 C    0.985
    33   6 C    3.993 --    34 C    1.022    37 H    0.988    38 H    0.984
                            36 H    0.981
    34   6 C    3.983 --    33 C    1.022    40 H    0.986    39 H    0.984
                            35 S    0.938
    35  16 S    2.336 --    34 C    0.938    64 Fe   0.681    57 Fe   0.483
    36   1 H    1.028 --    33 C    0.981
    37   1 H    1.021 --    33 C    0.988
    38   1 H    1.006 --    33 C    0.984
    39   1 H    1.013 --    34 C    0.984
    40   1 H    1.024 --    34 C    0.986
    41   6 C    3.997 --    42 C    0.999    50 H    0.988    49 H    0.987
                            48 H    0.986
    42   6 C    3.998 --    43 C    1.013    41 C    0.999    52 H    0.979
                            51 H    0.975
    43   6 C    3.927 --    47 C    1.601    44 N    1.112    42 C    1.013
    44   7 N    3.273 --    43 C    1.112    45 C    0.992    53 H    0.920
    45   6 C    3.833 --    46 N    1.217    44 N    0.992    54 H    0.951
                            57 Fe   0.534
    46   7 N    3.133 --    45 C    1.217    47 C    1.205    57 Fe   0.567
    47   6 C    3.967 --    43 C    1.601    46 N    1.205    55 H    0.974
    48   1 H    1.011 --    41 C    0.986
Note: The following floating-point exceptions are signalling: IEEE_UNDERFLOW_FLAG IEEE_DENORMAL
normal termination of xtb
    49   1 H    1.014 --    41 C    0.987
    50   1 H    1.006 --    41 C    0.988
    51   1 H    1.008 --    42 C    0.975
    52   1 H    1.009 --    42 C    0.979
    53   1 H    0.969 --    44 N    0.920
    54   1 H    1.032 --    45 C    0.951
    55   1 H    1.011 --    47 C    0.974
    56  26 Fe   5.109 --    61 S    0.837    11 S    0.805    59 Fe   0.688
                            58 Fe   0.679    62 S    0.644    63 S    0.547
                            64 Fe   0.398    57 Fe   0.214
    57  26 Fe   4.319 --     3 S    0.909    62 S    0.706    46 N    0.567
                            45 C    0.534    35 S    0.483    64 Fe   0.353
                            56 Fe   0.214    59 Fe   0.180
    58  26 Fe   5.266 --    61 S    0.833    60 S    0.789    19 S    0.766
                            59 Fe   0.680    56 Fe   0.679    63 S    0.633
                            64 Fe   0.626
    59  26 Fe   5.521 --    61 S    0.836    60 S    0.811    27 S    0.761
                            64 Fe   0.699    56 Fe   0.688    58 Fe   0.680
                            62 S    0.634    57 Fe   0.180
    60  16 S    2.687 --    64 Fe   0.860    59 Fe   0.811    58 Fe   0.789
    61  16 S    2.639 --    56 Fe   0.837    59 Fe   0.836    58 Fe   0.833
    62  16 S    2.768 --    57 Fe   0.706    64 Fe   0.656    56 Fe   0.644
                            59 Fe   0.634
    63  16 S    2.708 --    65 C    0.739    58 Fe   0.633    64 Fe   0.561
                            56 Fe   0.547
    64  26 Fe   5.307 --    60 S    0.860    59 Fe   0.699    35 S    0.681
                            62 S    0.656    58 Fe   0.626    63 S    0.561
                            56 Fe   0.398    57 Fe   0.353    68 H    0.140
    65   6 C    3.833 --    66 O    1.535    67 O    1.425    63 S    0.739
    66   8 O    1.836 --    65 C    1.535    67 O    0.166
    67   8 O    1.926 --    65 C    1.425    68 H    0.191    66 O    0.166
    68   1 H    0.431 --    67 O    0.191    64 Fe   0.140
 ---------------------------------------------------------------------------

Topologies differ in total number of bonds
Writing topology from bond orders to xtbtopo.mol

 dipole moment from electron density (au)
     X       Y       Z   
-302.6399 -64.4317-271.8322  total (Debye): 1046.864


           -------------------------------------------------
          | TOTAL ENERGY             -117.364417502919 Eh   |
          | GRADIENT NORM               0.073189645760 Eh/α |
          | HOMO-LUMO GAP               0.112412453767 eV   |
           -------------------------------------------------

------------------------------------------------------------------------
 * finished run on 2026/09/13 at 13:39:50.167     
------------------------------------------------------------------------
 total:
 * wall-time:     0 d,  0 h,  0 min,  7.206 sec
 *  cpu-time:     0 d,  0 h,  0 min,  8.444 sec
 * ratio c/w:     1.172 speedup
 SCF:
 * wall-time:     0 d,  0 h,  0 min,  7.140 sec
 *  cpu-time:     0 d,  0 h,  0 min,  8.028 sec
 * ratio c/w:     1.124 speedup

