68
C proton approach; O-H=1.60 A
C      52.89050383     14.84710153     53.79128955
C      53.22653729     16.06750397     52.93696972
S      54.04261381     15.62439894     51.37136803
H      52.43867348     15.13973495     54.74477898
H      52.19162127     14.19467265     53.25909769
H      53.79960617     14.27675763     54.00018183
H      52.31253083     16.65611973     52.77191445
H      53.92170258     16.70996593     53.49358864
C      48.02635326      8.64886609     49.11742341
C      49.01383462      9.65671735     49.70371253
S      49.92361811     10.43106653     48.32640822
H      47.45745492      8.13125419     49.89611258
H      47.32375616      9.16328828     48.45728337
H      48.56264429      7.90598450     48.52179377
H      48.45112081     10.42050910     50.25922808
H      49.67192024      9.14429688     50.41726139
C      57.76062367      8.22748810     46.98790486
C      56.56247944      7.30859991     46.75052824
S      55.11001389      8.21176674     46.12858041
H      58.64233888      7.66132774     47.30729789
H      58.00594448      8.76093869     46.06504063
H      57.52025969      8.97009569     47.75910620
H      56.83350689      6.56730675     45.98524914
H      56.34128480      6.75242731     47.67313500
C      57.55999942      9.31386938     51.76216435
C      56.30345110      8.68139253     52.36061036
S      54.88443588      9.82094307     52.38173004
H      57.83480442     10.20491532     52.33352521
H      58.40450359      8.61577233     51.77975464
H      57.37530473      9.61727469     50.72374405
H      56.07552675      7.74821082     51.82486171
H      56.51168715      8.41040314     53.40525200
C      54.75128760     16.73343153     47.54943094
C      54.68331680     15.27270940     47.11663634
S      54.92672792     14.21726665     48.58852093
H      53.96837363     16.95115402     48.28200040
H      55.71569357     16.93514678     48.02202864
H      54.63300840     17.41249692     46.69882692
H      53.73071578     15.08071655     46.60505120
H      55.49665832     15.07454579     46.40618811
C      51.67954438     18.97279121     50.63269668
C      50.57935050     18.30283534     49.79538102
C      50.79902475     16.82728700     49.68400627
N      50.48727458     15.96174356     50.73799085
C      51.04152011     14.68042631     50.36136563
N      51.36686700     14.74403840     49.01525083
C      51.28983244     16.07295371     48.66745249
H      51.61819360     18.64352473     51.67172433
H      52.66692151     18.70965485     50.24435111
H      51.56946522     20.05786443     50.61028064
H      49.60729583     18.51706965     50.25703019
H      50.57480776     18.74863738     48.79308603
H      50.57441239     16.30257168     51.68599443
H      50.40689057     13.84381467     50.68327866
H      51.52749062     16.41297002     47.66372504
Fe     52.12074641     10.46503905     48.77152920
Fe     52.95884605     14.20586894     50.01008844
Fe     54.30540763      9.54126016     47.79581880
Fe     54.18298941     10.22594735     50.24645822
S      55.86966882     10.57966556     48.91756123
S      53.07694201      8.61017877     49.32038429
S      52.86352106     12.03129851     50.22059822
S      53.10199788     11.18048632     46.86842753
Fe     54.35668945     12.05239735     48.52779903
C      52.85761256     11.24566190     45.05056412
O      51.92546922     10.55514964     44.61420987
O      53.62600078     12.01483815     44.45426772
H      54.61746237     13.00731654     43.68485850
