    28
 geometry
 Fe                    0.85066843     0.98611963     0.97442275
 Fe                    0.85108872    -0.99431119    -1.00434604
 Fe                   -0.85201308     0.99409516    -1.00405055
 Fe                   -0.85114164    -0.98657600     0.97396668
 S                    -1.34401482     1.25993123     1.24319788
 S                     1.34369558    -1.26079996     1.24288600
 S                     1.34599110     1.25428159    -1.27377710
 S                    -1.34663622    -1.25466410    -1.27436377
 S                     1.68920358     2.47690959     2.47457192
 C                     3.52662863     2.50180634     2.52734880
 H                     3.85535464     3.29733755     3.23346124
 H                     3.96930166     2.72649057     1.53268787
 H                     3.94425635     1.53563059     2.88267917
 S                     1.69874236    -2.49371721    -2.49733980
 C                     3.53589375    -2.53876600    -2.51035693
 H                     3.97867732    -1.54354769    -2.73047696
 H                     3.86524440    -3.24249887    -3.30791737
 H                     3.95526279    -2.89889052    -1.54507513
 S                    -1.69812430     2.49534421    -2.49712378
 C                    -3.53570526     2.53837029    -2.50985358
 H                    -3.97898691     1.54370288    -2.73143355
 H                    -3.86237398     3.24317123    -3.30712810
 H                    -3.95613572     2.89780309    -1.54470872
 S                    -1.68923791    -2.47807091     2.47442067
 C                    -3.52659681    -2.50148223     2.52751971
 H                    -3.85536738    -3.29646698     3.23428399
 H                    -3.97044838    -2.72600476     1.53347521
 H                    -3.94322685    -1.53519752     2.88302947
