    28
 geometry
 Fe                    0.86122687     0.97927557     0.97158006
 Fe                    0.85616084    -0.97810531    -0.98806078
 Fe                   -0.85561417     0.97861505    -0.98775993
 Fe                   -0.86123551    -0.98002319     0.97123172
 S                    -1.32128481     1.27655225     1.26715714
 S                     1.32112914    -1.27771438     1.26662877
 S                     1.32622105     1.27413188    -1.28399826
 S                    -1.32559285    -1.27336994    -1.28436406
 S                     1.82587698     2.42779934     2.42752033
 C                     3.66086792     2.33542363     2.35127529
 H                     4.09130053     3.07664578     3.06378606
 H                     4.04477581     2.57242156     1.33566238
 H                     4.03488591     1.32882578     2.63647558
 S                     1.81612444    -2.43351608    -2.44035770
 C                     3.65134104    -2.36099678    -2.34353924
 H                     4.03617024    -1.34498668    -2.57713599
 H                     4.08089251    -3.07114530    -3.08599156
 H                     4.02343077    -2.64876642    -1.33604819
 S                    -1.81508234     2.43479526    -2.43980676
 C                    -3.65072932     2.35966906    -2.34266999
 H                    -4.03577608     1.34469624    -2.57823308
 H                    -4.08023020     3.07200439    -3.08375995
 H                    -4.02401684     2.64725700    -1.33635553
 S                    -1.82666574    -2.42822339     2.42616725
 C                    -3.66162869    -2.33520958     2.35231993
 H                    -4.09122455    -3.07642038     3.06458527
 H                    -4.04661986    -2.57199695     1.33691021
 H                    -4.03470306    -1.32763837     2.63678105
