    28
 geometry
 Fe                    0.86189870     0.97919566     0.97008661
 Fe                    0.85808103    -0.97871410    -0.99000551
 Fe                   -0.85736020     0.97872509    -0.98957945
 Fe                   -0.86179537    -0.98027477     0.96975487
 S                    -1.32249325     1.27555672     1.26541023
 S                     1.32236758    -1.27689410     1.26480722
 S                     1.32691944     1.27454504    -1.28460285
 S                    -1.32632780    -1.27415185    -1.28494962
 S                     1.79482919     2.43974492     2.43484335
 C                     3.63323014     2.37766304     2.39649549
 H                     4.03418002     3.13212813     3.11351181
 H                     4.03432046     2.61644819     1.38734801
 H                     4.02163942     1.38033940     2.69651390
 S                     1.79161659    -2.44340816    -2.44967875
 C                     3.62953637    -2.40807432    -2.38713063
 H                     4.03022351    -1.39812406    -2.62219667
 H                     4.03463319    -3.12101034    -3.14335821
 H                     4.01460498    -2.71278431    -1.38895821
 S                    -1.79170997     2.44356568    -2.44796550
 C                    -3.62899819     2.40759146    -2.38673018
 H                    -4.02941493     1.39847677    -2.62421228
 H                    -4.03445563     3.12168801    -3.14192580
 H                    -4.01439556     2.71259135    -1.38884052
 S                    -1.79563274    -2.44036339     2.43363108
 C                    -3.63382707    -2.37740830     2.39743197
 H                    -4.03462158    -3.13152061     3.11441949
 H                    -4.03579053    -2.61624944     1.38863165
 H                    -4.02125776    -1.37928169     2.69724848
