    28
 geometry
 Fe                    0.84243885     0.99618413     0.98904498
 Fe                    0.83863913    -1.00695105    -1.01396828
 Fe                   -0.83844149     1.00489593    -1.01238912
 Fe                   -0.84196710    -0.99715317     0.98812448
 S                    -1.34213030     1.25278092     1.23962476
 S                     1.34252057    -1.25403829     1.23832462
 S                     1.35018537     1.24642653    -1.26178837
 S                    -1.35062895    -1.24761831    -1.26221681
 S                     1.61001620     2.51388647     2.50808730
 C                     3.44400313     2.58188938     2.60705453
 H                     3.73925600     3.40636435     3.29912225
 H                     3.90083524     2.78518940     1.61552408
 H                     3.87433848     1.63454488     3.00313578
 S                     1.62313483    -2.53056274    -2.52005454
 C                     3.45747256    -2.62158583    -2.59543863
 H                     3.90785622    -1.62564400    -2.79091774
 H                     3.76137904    -3.30440938    -3.42507389
 H                     3.88914265    -3.02522333    -1.65372145
 S                    -1.62382204     2.52856200    -2.51750676
 C                    -3.45713809     2.62265087    -2.59594839
 H                    -3.90793335     1.62712018    -2.79234226
 H                    -3.76116108     3.30597036    -3.42559112
 H                    -3.88970744     3.02650489    -1.65474990
 S                    -1.61001043    -2.51455737     2.50660942
 C                    -3.44389868    -2.58130068     2.60720652
 H                    -3.73933498    -3.40524940     3.30008123
 H                    -3.90150117    -2.78489954     1.61616313
 H                    -3.87354311    -1.63377717     3.00360415
