    28
 geometry
 Fe                    0.86113662     0.97795471     0.97223567
 Fe                    0.85559188    -0.97729509    -0.98512768
 Fe                   -0.85512825     0.97780355    -0.98480892
 Fe                   -0.86102749    -0.97860959     0.97185445
 S                    -1.32065259     1.27687628     1.26828592
 S                     1.32073597    -1.27807470     1.26784995
 S                     1.32589039     1.27319648    -1.28239422
 S                    -1.32526303    -1.27243228    -1.28271939
 S                     1.84052769     2.42430704     2.42259922
 C                     3.67357884     2.31400710     2.32839132
 H                     4.11891554     3.04893924     3.03828552
 H                     4.04891541     2.54950555     1.30911793
 H                     4.03963698     1.30221524     2.60681781
 S                     1.82740453    -2.42756462    -2.43618496
 C                     3.66026198    -2.33614000    -2.32166722
 H                     4.03834514    -1.31725847    -2.55361066
 H                     4.10291654    -3.04605171    -3.05748082
 H                     4.02517060    -2.61735504    -1.31042585
 S                    -1.82727927     2.42859665    -2.43563704
 C                    -3.66031700     2.33662735    -2.32168236
 H                    -4.03762470     1.31722640    -2.55422096
 H                    -4.10212306     3.04649267    -3.05702471
 H                    -4.02557751     2.61444154    -1.30907069
 S                    -1.84086705    -2.42483771     2.42134885
 C                    -3.67402542    -2.31349994     2.32851395
 H                    -4.11876749    -3.04804945     3.03941397
 H                    -4.05082845    -2.54902300     1.30993341
 H                    -4.03954673    -1.30199817     2.60740748
