    28
 geometry
 Fe                    0.87087218     0.96837149     0.97253449
 Fe                    0.86133287    -0.97463523    -0.97185644
 Fe                   -0.86079590     0.97514653    -0.97140956
 Fe                   -0.87077802    -0.96838636     0.97137595
 S                    -1.30987724     1.28786922     1.28172143
 S                     1.30987925    -1.28855406     1.28147193
 S                     1.32176379     1.27678656    -1.28176857
 S                    -1.32095431    -1.27592006    -1.28284765
 S                     1.91687913     2.39545413     2.39869158
 C                     3.73643978     2.20614546     2.21453490
 H                     4.25243241     2.91065838     2.90708013
 H                     4.06699625     2.43508661     1.17830878
 H                     4.06553956     1.17360149     2.46063425
 S                     1.89479956    -2.40176422    -2.40424395
 C                     3.71448973    -2.22258533    -2.21433727
 H                     4.04708212    -1.18688778    -2.44192725
 H                     4.22935805    -2.91544956    -2.91888793
 H                     4.04117401    -2.47040220    -1.18104043
 S                    -1.89464350     2.40251224    -2.40309709
 C                    -3.71415855     2.22113159    -2.21333745
 H                    -4.04619260     1.18602131    -2.44292778
 H                    -4.22990629     2.91518457    -2.91652009
 H                    -4.04126366     2.46825677    -1.18041453
 S                    -1.91694614    -2.39569975     2.39684540
 C                    -3.73661336    -2.20506615     2.21375004
 H                    -4.25255563    -2.90886502     2.90785854
 H                    -4.06895806    -2.43447517     1.17859139
 H                    -4.06539539    -1.17353545     2.46121716
