    28
 geometry
 Fe                    0.84668544     0.99351465     0.98309140
 Fe                    0.84499300    -1.00499399    -1.01378082
 Fe                   -0.84518129     1.00353124    -1.01266691
 Fe                   -0.84640474    -0.99404881     0.98241782
 S                    -1.34689140     1.25514262     1.23835808
 S                     1.34706402    -1.25608301     1.23727999
 S                     1.35223481     1.24796211    -1.26882117
 S                    -1.35274962    -1.24922927    -1.26925033
 S                     1.64900940     2.49455662     2.49521557
 C                     3.48557385     2.54156464     2.57020554
 H                     3.79888092     3.35199451     3.26823470
 H                     3.93235038     2.75875346     1.57575656
 H                     3.91198790     1.58490718     2.94255909
 S                     1.66720448    -2.52099547    -2.50715291
 C                     3.49907217    -2.58390732    -2.55254216
 H                     3.94363393    -1.58832513    -2.76529092
 H                     3.81939148    -3.27612113    -3.36649312
 H                     3.92822577    -2.96495865    -1.59950301
 S                    -1.66888075     2.52073505    -2.50477270
 C                    -3.49853297     2.58344186    -2.55210752
 H                    -3.94402420     1.58904887    -2.76706744
 H                    -3.81712517     3.27675070    -3.36593181
 H                    -3.92861665     2.96603184    -1.60003579
 S                    -1.64932943    -2.49519227     2.49423229
 C                    -3.48549146    -2.54089240     2.56998568
 H                    -3.79876156    -3.35070841     3.26892395
 H                    -3.93329096    -2.75840532     1.57626253
 H                    -3.91102732    -1.58407415     2.94289336
