    28
 geometry
 Fe                    0.85656583     0.97660018     0.96792317
 Fe                    0.85619736    -0.97781330    -0.98739961
 Fe                   -0.85627076     0.97785768    -0.98733254
 Fe                   -0.85691312    -0.97781331     0.96754899
 S                    -1.32974187     1.26894587     1.25827813
 S                     1.32961978    -1.27019727     1.25844817
 S                     1.33084940     1.26796146    -1.27741641
 S                    -1.33085180    -1.26749072    -1.27810561
 S                     1.74551230     2.46193273     2.44340068
 C                     3.58498655     2.44050367     2.45981451
 H                     3.94387417     3.21531563     3.17776041
 H                     4.01390446     2.67311104     1.46082654
 H                     3.98694301     1.45729475     2.79068114
 S                     1.74501458    -2.45080582    -2.47356038
 C                     3.58469093    -2.47070211    -2.45040041
 H                     4.01521328    -1.47040220    -2.67651457
 H                     3.94461485    -3.18504534    -3.22771560
 H                     3.98290230    -2.80463662    -1.46719856
 S                    -1.74452037     2.45129955    -2.47263710
 C                    -3.58421549     2.47127075    -2.45072199
 H                    -4.01428009     1.47105611    -2.67772011
 H                    -3.94455687     3.18661641    -3.22730303
 H                    -3.98294578     2.80392357    -1.46756984
 S                    -1.74592456    -2.46353481     2.44315354
 C                    -3.58528485    -2.44065987     2.46112437
 H                    -3.94465205    -3.21513120     3.17893745
 H                    -4.01474063    -2.67286920     1.46220036
 H                    -3.98599052    -1.45658761     2.79149829
