    28
 geometry
 Fe                    0.82754005     0.99847395     0.99429310
 Fe                    0.82570063    -0.99354776    -0.99956349
 Fe                   -0.82455631     0.99404393    -1.00002911
 Fe                   -0.82681459    -0.99896249     0.99442324
 S                    -1.37705194     1.23736444     1.23232853
 S                     1.37744399    -1.23792061     1.23245856
 S                     1.37804172     1.23653806    -1.24038802
 S                    -1.37695089    -1.23646612    -1.24059532
 S                     1.48157110     2.55395404     2.50175457
 C                     3.29757856     2.70939649     2.72101146
 H                     3.49468323     3.59773918     3.36601341
 H                     3.82194822     2.86069941     1.75289881
 H                     3.73568906     1.81490639     3.21927824
 S                     1.48126077    -2.50223185    -2.54981503
 C                     3.28436283    -2.71967567    -2.71195962
 H                     3.81481099    -1.75466344    -2.86659876
 H                     3.48219082    -3.36466050    -3.59870101
 H                     3.71277532    -3.22434640    -1.82027272
 S                    -1.48561980     2.50104481    -2.54883471
 C                    -3.28324210     2.71893138    -2.71175968
 H                    -3.81398984     1.75476389    -2.86742414
 H                    -3.48277341     3.36510858    -3.59776089
 H                    -3.71207011     3.22527119    -1.82081490
 S                    -1.48248849    -2.55522010     2.50040213
 C                    -3.29745789    -2.70896878     2.72080519
 H                    -3.49542744    -3.59682858     3.36633573
 H                    -3.82209443    -2.86054724     1.75308212
 H                    -3.73506001    -1.81419614     3.21943229
