    28
 geometry
 Fe                    0.86234210     0.97631480     0.97278428
 Fe                    0.85610644    -0.97656099    -0.98216091
 Fe                   -0.85562212     0.97707144    -0.98184026
 Fe                   -0.86224484    -0.97685477     0.97222309
 S                    -1.31918975     1.27834336     1.27026783
 S                     1.31930687    -1.27946212     1.26995736
 S                     1.32536292     1.27313134    -1.28147540
 S                    -1.32464013    -1.27236102    -1.28204045
 S                     1.85491545     2.42037491     2.41784617
 C                     3.68602531     2.29278385     2.30552159
 H                     4.14603084     3.02133833     3.01289375
 H                     4.05250449     2.52665837     1.28255375
 H                     4.04450119     1.27560017     2.57676189
 S                     1.83957231    -2.42187128    -2.43084224
 C                     3.66994037    -2.31308984    -2.30036810
 H                     4.03964721    -1.29017023    -2.53086796
 H                     4.12660297    -3.02050936    -3.03048851
 H                     4.02704361    -2.58620934    -1.28358872
 S                    -1.83912934     2.42303857    -2.43020644
 C                    -3.66956985     2.31239493    -2.29970045
 H                    -4.03902008     1.28974826    -2.53151424
 H                    -4.12630274     3.02126688    -3.02893149
 H                    -4.02754181     2.58384388    -1.28342755
 S                    -1.85542355    -2.42089282     2.41638013
 C                    -3.68661042    -2.29229435     2.30585329
 H                    -4.14585618    -3.02058472     3.01399631
 H                    -4.05439519    -2.52616190     1.28328208
 H                    -4.04435604    -1.27488631     2.57713117
