    28
 geometry
 Fe                    0.86679060     0.97217086     0.97299035
 Fe                    0.85884303    -0.97543479    -0.97636245
 Fe                   -0.85825806     0.97585248    -0.97594507
 Fe                   -0.86658920    -0.97242041     0.97205580
 S                    -1.31483059     1.28291213     1.27571872
 S                     1.31501933    -1.28385521     1.27551374
 S                     1.32394210     1.27435879    -1.28103293
 S                    -1.32306740    -1.27363377    -1.28193128
 S                     1.88485544     2.40978461     2.40836216
 C                     3.71077517     2.24968307     2.25998796
 H                     4.19939342     2.96638528     2.96012905
 H                     4.05906346     2.48051372     1.22985038
 H                     4.05422073     1.22404758     2.51790224
 S                     1.86562285    -2.41168832    -2.41820806
 C                     3.69070693    -2.26724387    -2.25719431
 H                     4.04225793    -1.23767253    -2.48613412
 H                     4.17706373    -2.96794420    -2.97520044
 H                     4.03190987    -2.52737831    -1.23163708
 S                    -1.86573650     2.41237650    -2.41701468
 C                    -3.69043080     2.26628960    -2.25635010
 H                    -4.04140933     1.23714498    -2.48719485
 H                    -4.17732155     2.96803477    -2.97339344
 H                    -4.03191247     2.52545465    -1.23114860
 S                    -1.88528100    -2.41009422     2.40655440
 C                    -3.71117851    -2.24889357     2.25981650
 H                    -4.19934503    -2.96513643     2.96099017
 H                    -4.06104151    -2.48001785     1.23044564
 H                    -4.05406257    -1.22359551     2.51843027
