    28
 geometry
 Fe                    0.84565700     0.99941438     0.99007237
 Fe                    0.84286034    -1.00598399    -1.01559769
 Fe                   -0.84385092     1.00572339    -1.01488785
 Fe                   -0.84613259    -0.99985889     0.98944699
 S                    -1.35202683     1.25377471     1.23978047
 S                     1.35152692    -1.25437286     1.23860558
 S                     1.36015047     1.24720897    -1.26287912
 S                    -1.36061664    -1.24744366    -1.26352236
 S                     1.54684263     2.52251933     2.51770555
 C                     3.37482071     2.63448056     2.65664821
 H                     3.62515575     3.48284393     3.33215813
 H                     3.85988431     2.82053973     1.67433065
 H                     3.81145467     1.71028060     3.09277428
 S                     1.54001607    -2.52991141    -2.54712554
 C                     3.38388356    -2.66716041    -2.64429312
 H                     3.85983770    -1.67907257    -2.82049463
 H                     3.63683157    -3.33858226    -3.49598585
 H                     3.82596693    -3.09877812    -1.71741834
 S                    -1.53494046     2.53089716    -2.54713192
 C                    -3.38526738     2.66745099    -2.64414432
 H                    -3.86097726     1.67868005    -2.82011954
 H                    -3.63486072     3.33939565    -3.49574026
 H                    -3.82796325     3.09647367    -1.71641560
 S                    -1.54608813    -2.52269103     2.51750029
 C                    -3.37524140    -2.63413500     2.65688475
 H                    -3.62476589    -3.48228360     3.33275914
 H                    -3.86116355    -2.81995191     1.67470914
 H                    -3.81099357    -1.70945740     3.09238059
