    28
 geometry
 Fe                    0.84260048     1.00095520     0.99193719
 Fe                    0.84121805    -1.00254719    -1.01161374
 Fe                   -0.84137339     1.00323181    -1.01186535
 Fe                   -0.84259972    -1.00100553     0.99186851
 S                    -1.37283732     1.24787581     1.23539891
 S                     1.37244282    -1.24800422     1.23465055
 S                     1.37752914     1.24247997    -1.25726443
 S                    -1.37706261    -1.24276825    -1.25786789
 S                     1.50966984     2.53233095     2.50846447
 C                     3.33167230     2.66770913     2.68932670
 H                     3.55001574     3.53736683     3.34778927
 H                     3.83778507     2.84161240     1.71289268
 H                     3.77214704     1.76089793     3.15436056
 S                     1.50684610    -2.51670166    -2.54989748
 C                     3.32934245    -2.69279508    -2.67283855
 H                     3.83631826    -1.71837534    -2.84360417
 H                     3.55062338    -3.35190736    -3.54291117
 H                     3.77260196    -3.15733613    -1.76261011
 S                    -1.50618909     2.51798748    -2.54902871
 C                    -3.32990655     2.69105820    -2.67168676
 H                    -3.83741485     1.71776647    -2.84386291
 H                    -3.54804263     3.35143297    -3.54141200
 H                    -3.77328888     3.15621292    -1.76212478
 S                    -1.50970915    -2.53260101     2.50820940
 C                    -3.33189055    -2.66715448     2.68883293
 H                    -3.54977686    -3.53646115     3.34789678
 H                    -3.83903268    -2.84114884     1.71305837
 H                    -3.77168830    -1.76011178     3.15390172
