    28
 geometry
 Fe                    0.86434039     0.97431996     0.97307438
 Fe                    0.85727426    -0.97592107    -0.97910754
 Fe                   -0.85668676     0.97634296    -0.97873431
 Fe                   -0.86412698    -0.97473980     0.97233375
 S                    -1.31722133     1.28034698     1.27282870
 S                     1.31744190    -1.28142683     1.27256819
 S                     1.32477319     1.27348185    -1.28095949
 S                    -1.32390683    -1.27280450    -1.28168151
 S                     1.86929862     2.41584924     2.41309925
 C                     3.69813603     2.27079061     2.28212717
 H                     4.17287109     2.99329073     2.98677815
 H                     4.05573748     2.50362341     1.25576342
 H                     4.04941695     1.25038653     2.54761480
 S                     1.85205095    -2.41668389    -2.42472630
 C                     3.67978346    -2.28958457    -2.27854835
 H                     4.04082164    -1.26343136    -2.50839899
 H                     4.15134261    -2.99451336    -3.00264754
 H                     4.02900233    -2.55664097    -1.25785852
 S                    -1.85221517     2.41758212    -2.42361880
 C                    -3.67961884     2.28922769    -2.27824322
 H                    -4.04003888     1.26314631    -2.50918748
 H                    -4.15128255     2.99492451    -3.00153429
 H                    -4.02904768     2.55417130    -1.25700900
 S                    -1.86991839    -2.41625418     2.41137397
 C                    -3.69871410    -2.27034653     2.28260391
 H                    -4.17267889    -2.99267618     2.98762739
 H                    -4.05766681    -2.50311612     1.25663146
 H                    -4.04916764    -1.24934482     2.54783078
