    28
 geometry
 Fe                    0.86066570     0.97711938     0.96883476
 Fe                    0.85768029    -0.97565964    -0.98628569
 Fe                   -0.85694010     0.97565932    -0.98599709
 Fe                   -0.86058728    -0.97841778     0.96854465
 S                    -1.32342002     1.27428621     1.26535658
 S                     1.32335758    -1.27571504     1.26501781
 S                     1.32673967     1.27426525    -1.28197511
 S                    -1.32613792    -1.27381175    -1.28238642
 S                     1.77918367     2.44745491     2.43411929
 C                     3.61777553     2.39863341     2.41669815
 H                     4.00285761     3.16081280     3.13287851
 H                     4.02969913     2.63411455     1.41150517
 H                     4.00964883     1.40612600     2.72812780
 S                     1.77522672    -2.43977736    -2.45528638
 C                     3.61285467    -2.42728674    -2.40806869
 H                     4.02574353    -1.42162320    -2.63957755
 H                     4.00238233    -3.13999280    -3.17217575
 H                     4.00009534    -2.74403944    -1.41581940
 S                    -1.77558125     2.43961530    -2.45341701
 C                    -3.61222499     2.42729030    -2.40801009
 H                    -4.02465126     1.42228708    -2.64161084
 H                    -4.00296495     3.14094914    -3.17118444
 H                    -3.99959366     2.74422390    -1.41610472
 S                    -1.77990102    -2.44850109     2.43312002
 C                    -3.61825203    -2.39844186     2.41768513
 H                    -4.00364895    -3.16016751     3.13396808
 H                    -4.03088891    -2.63400882     1.41286871
 H                    -4.00911821    -1.40539448     2.72917448
