    28
 geometry
 Fe                    0.84884309     0.99051051     0.97888110
 Fe                    0.84841774    -1.00095970    -1.01057917
 Fe                   -0.84897525     1.00010236    -1.00993517
 Fe                   -0.84892829    -0.99088011     0.97834599
 S                    -1.34686410     1.25730174     1.23962710
 S                     1.34679096    -1.25803623     1.23897891
 S                     1.35043932     1.25043721    -1.27190655
 S                    -1.35103329    -1.25133848    -1.27243718
 S                     1.66879148     2.48480815     2.48629066
 C                     3.50603836     2.52135311     2.54912417
 H                     3.82725838     3.32412585     3.25147780
 H                     3.95044969     2.74356432     1.55480852
 H                     3.92900540     1.56106433     2.91284691
 S                     1.68468879    -2.50985906    -2.50235438
 C                     3.51857610    -2.56330303    -2.53119378
 H                     3.96154887    -1.56745500    -2.74907069
 H                     3.84334918    -3.25972450    -3.33743908
 H                     3.94390720    -2.93199727    -1.57119304
 S                    -1.68540779     2.51073899    -2.50100591
 C                    -3.51821598     2.56277978    -2.53051462
 H                    -3.96203709     1.56791609    -2.75052928
 H                    -3.84034845     3.25999595    -3.33677881
 H                    -3.94451891     2.93193858    -1.57097259
 S                    -1.66915572    -2.48567246     2.48566782
 C                    -3.50606399    -2.52092205     2.54943799
 H                    -3.82710959    -3.32337462     3.25195934
 H                    -3.95146807    -2.74311964     1.55551873
 H                    -3.92797798    -1.55999479     2.91294521
