    28
 geometry
 Fe                    0.84623521     1.00075082     0.99069103
 Fe                    0.84437526    -1.00513037    -1.01509313
 Fe                   -0.84508776     1.00554188    -1.01493671
 Fe                   -0.84652299    -1.00084517     0.99037289
 S                    -1.36418313     1.25185796     1.23752298
 S                     1.36365155    -1.25215644     1.23650384
 S                     1.37084256     1.24533158    -1.26223443
 S                    -1.37079711    -1.24556594    -1.26284361
 S                     1.52656134     2.52516597     2.51368701
 C                     3.35178914     2.64990670     2.67268002
 H                     3.58435354     3.50885300     3.33999135
 H                     3.84776114     2.83145471     1.69319770
 H                     3.79113345     1.73511134     3.12307435
 S                     1.52077306    -2.52427765    -2.54985535
 C                     3.35553144    -2.67924373    -2.65701525
 H                     3.84724946    -1.69823646    -2.83182488
 H                     3.59083571    -3.34630601    -3.51730891
 H                     3.80067874    -3.12634683    -1.73815439
 S                    -1.51749365     2.52578598    -2.54951947
 C                    -3.35673064     2.67840224    -2.65613073
 H                    -3.84864251     1.69763829    -2.83165045
 H                    -3.58794207     3.34606724    -3.51635242
 H                    -3.80216592     3.12420905    -1.73709272
 S                    -1.52621045    -2.52516100     2.51356090
 C                    -3.35219770    -2.64943516     2.67247992
 H                    -3.58388010    -3.50812071     3.34019649
 H                    -3.84921006    -2.83087478     1.69352281
 H                    -3.79070746    -1.73437648     3.12253115
