    28
 geometry
 Fe                    0.84184002     0.99686393     0.99019476
 Fe                    0.83768134    -1.00654363    -1.01370432
 Fe                   -0.83786204     1.00474076    -1.01217922
 Fe                   -0.84172349    -0.99789503     0.98923436
 S                    -1.34017494     1.25300382     1.24079559
 S                     1.34031243    -1.25419303     1.23950543
 S                     1.34896658     1.24694796    -1.26029993
 S                    -1.34958434    -1.24781393    -1.26083226
 S                     1.58998650     2.51995722     2.51366038
 C                     3.42225291     2.60123205     2.62398820
 H                     3.70555849     3.43250655     3.31247618
 H                     3.88665669     2.79734158     1.63529732
 H                     3.85387280     1.66025064     3.03346995
 S                     1.59547519    -2.53225023    -2.52962177
 C                     3.43557721    -2.63907727    -2.61490842
 H                     3.89051911    -1.64330299    -2.80104929
 H                     3.72550792    -3.31691671    -3.45226729
 H                     3.86872273    -3.05108464    -1.67746559
 S                    -1.59356104     2.53071716    -2.52804540
 C                    -3.43586579     2.64075137    -2.61568171
 H                    -3.89061436     1.64433502    -2.80177283
 H                    -3.72559253     3.31881093    -3.45316769
 H                    -3.86992038     3.05112012    -1.67771835
 S                    -1.58958615    -2.52065471     2.51244521
 C                    -3.42230431    -2.60087580     2.62463688
 H                    -3.70562544    -3.43186315     3.31349506
 H                    -3.88733870    -2.79697715     1.63590780
 H                    -3.85317636    -1.65913081     3.03360693
