    28
 geometry
 Fe                    0.82115416     0.99690190     0.99428695
 Fe                    0.81902379    -0.98975851    -0.99494508
 Fe                   -0.81787731     0.99015248    -0.99540225
 Fe                   -0.82052167    -0.99772853     0.99441732
 S                    -1.37369049     1.23412965     1.23206657
 S                     1.37414337    -1.23489088     1.23245952
 S                     1.37336506     1.23513872    -1.23426523
 S                    -1.37247477    -1.23483970    -1.23443518
 S                     1.47303786     2.56032731     2.50402254
 C                     3.28820614     2.72348602     2.72838691
 H                     3.48037015     3.61513957     3.37260061
 H                     3.81830155     2.86698132     1.76485673
 H                     3.72387804     1.83404565     3.24132773
 S                     1.46873840    -2.49770788    -2.55452006
 C                     3.27263036    -2.72709651    -2.72562302
 H                     3.80797617    -1.76392346    -2.87272613
 H                     3.46258747    -3.37033964    -3.61555807
 H                     3.69505442    -3.24498929    -1.83923960
 S                    -1.47262746     2.49603408    -2.55453548
 C                    -3.27136080     2.72818871    -2.72586417
 H                    -3.80668144     1.76454771    -2.87340290
 H                    -3.46436026     3.37070197    -3.61590157
 H                    -3.69435497     3.24574077    -1.83921880
 S                    -1.47383176    -2.56208240     2.50269162
 C                    -3.28806928    -2.72330877     2.72872532
 H                    -3.48142015    -3.61461947     3.37306160
 H                    -3.81807005    -2.86689050     1.76508442
 H                    -3.72312649    -1.83334030     3.24164969
