    28
 geometry
 Fe                    0.85239492     0.98178198     0.97116149
 Fe                    0.85309468    -0.98733899    -0.99709117
 Fe                   -0.85392375     0.98735815    -0.99701158
 Fe                   -0.85301864    -0.98251492     0.97070207
 S                    -1.33902410     1.26298479     1.24833763
 S                     1.33873425    -1.26387316     1.24843783
 S                     1.34001296     1.25908367    -1.27463556
 S                    -1.34057847    -1.25892433    -1.27541489
 S                     1.70848318     2.47200269     2.46246657
 C                     3.54657021     2.48146953     2.50400451
 H                     3.88445300     3.26961182     3.21586422
 H                     3.98659610     2.70882906     1.50891155
 H                     3.95886963     1.51003101     2.85257853
 S                     1.71327623    -2.47632585    -2.49087324
 C                     3.55263916    -2.51570977    -2.49063327
 H                     3.99301554    -1.51891794    -2.71171138
 H                     3.88930165    -3.22400875    -3.28124814
 H                     3.96435640    -2.86615949    -1.51838196
 S                    -1.71202796     2.47771510    -2.49097850
 C                    -3.55241764     2.51596306    -2.49048926
 H                    -3.99289152     1.51927498    -2.71239504
 H                    -3.88732862     3.22510826    -3.28070674
 H                    -3.96518579     2.86459722    -1.51807478
 S                    -1.70866491    -2.47340705     2.46259603
 C                    -3.54678753    -2.48155699     2.50495156
 H                    -3.88470909    -3.26938432     3.21686443
 H                    -3.98745803    -2.70839377     1.50982081
 H                    -3.95778182    -1.50929595     2.85294828
