    28
 geometry
 Fe                    0.86185358     0.97971715     0.97090803
 Fe                    0.85716223    -0.97867996    -0.98978582
 Fe                   -0.85657624     0.97889834    -0.98940446
 Fe                   -0.86178531    -0.98070810     0.97068767
 S                    -1.32172105     1.27638294     1.26658416
 S                     1.32157307    -1.27760890     1.26580999
 S                     1.32656551     1.27477574    -1.28502066
 S                    -1.32605910    -1.27434603    -1.28528605
 S                     1.81091442     2.43263621     2.43130054
 C                     3.64732579     2.35696942     2.37499440
 H                     4.06259347     3.10538878     3.08798435
 H                     4.03949039     2.59441259     1.36218696
 H                     4.02845898     1.35390380     2.66580189
 S                     1.80357532    -2.43906228    -2.44442692
 C                     3.64034566    -2.38404057    -2.36488757
 H                     4.03306013    -1.37180090    -2.59994336
 H                     4.05826137    -3.09601173    -3.11381862
 H                     4.01959232    -2.68116742    -1.36323114
 S                    -1.80367634     2.43940634    -2.44339673
 C                    -3.64028492     2.38469525    -2.36467444
 H                    -4.03215002     1.37208297    -2.60158274
 H                    -4.05764201     3.09601919    -3.11333797
 H                    -4.01957917     2.67952010    -1.36138208
 S                    -1.81105948    -2.43330258     2.43038731
 C                    -3.64765875    -2.35613472     2.37451134
 H                    -4.06293505    -3.10366380     3.08937630
 H                    -4.04121021    -2.59418887     1.36270688
 H                    -4.02843453    -1.35409291     2.66693872
