    28
 geometry
 Fe                    0.83613795     1.00021257     0.99339746
 Fe                    0.83470255    -0.99866429    -1.00621762
 Fe                   -0.83411732     0.99933042    -1.00664690
 Fe                   -0.83569253    -1.00038177     0.99347393
 S                    -1.37750221     1.24275617     1.23354857
 S                     1.37751469    -1.24302515     1.23320103
 S                     1.38031480     1.23932082    -1.24957346
 S                    -1.37940302    -1.23951917    -1.24998379
 S                     1.49471700     2.54266580     2.50381921
 C                     3.31366491     2.68720483     2.70466471
 H                     3.52037164     3.56648944     3.35689840
 H                     3.82922371     2.85132500     1.73244131
 H                     3.75393210     1.78805238     3.18678176
 S                     1.49476643    -2.50925569    -2.54874980
 C                     3.30529224    -2.70540840    -2.69087866
 H                     3.82577546    -1.73718558    -2.85552453
 H                     3.51483752    -3.35801303    -3.56952777
 H                     3.74286564    -3.19100546    -1.79124940
 S                    -1.49727492     2.50919467    -2.54762452
 C                    -3.30501530     2.70415347    -2.68982237
 H                    -3.82593752     1.73706523    -2.85624370
 H                    -3.51351133     3.35753131    -3.56841233
 H                    -3.74269925     3.19101746    -1.79113342
 S                    -1.49531766    -2.54336815     2.50294672
 C                    -3.31367193    -2.68668257     2.70427313
 H                    -3.52057244    -3.56560245     3.35697342
 H                    -3.82999553    -2.85101360     1.73263954
 H                    -3.75340562    -1.78719423     3.18652905
