    28
 geometry
 Fe                    0.85898063     0.97642319     0.96784674
 Fe                    0.85758814    -0.97680458    -0.98685088
 Fe                   -0.85732547     0.97672580    -0.98664403
 Fe                   -0.85910780    -0.97772822     0.96752583
 S                    -1.32636555     1.27170227     1.26168216
 S                     1.32630637    -1.27307526     1.26157548
 S                     1.32843357     1.27115313    -1.28003372
 S                    -1.32821937    -1.27079387    -1.28056931
 S                     1.76294996     2.45517840     2.43860329
 C                     3.60277880     2.42007490     2.43945211
 H                     3.97418766     3.18825403     3.15810864
 H                     4.02317704     2.65548111     1.43707424
 H                     4.00045596     1.43056614     2.75875580
 S                     1.76151145    -2.44596641    -2.46491578
 C                     3.60096886    -2.44979712    -2.42970590
 H                     4.02278883    -1.44674628    -2.65987426
 H                     3.97568557    -3.16570566    -3.19997199
 H                     3.99485424    -2.77453987    -1.44161469
 S                    -1.76173104     2.44593320    -2.46342046
 C                    -3.60054050     2.45074144    -2.43004728
 H                    -4.02167073     1.44764289    -2.66151996
 H                    -3.97593289     3.16677864    -3.19988772
 H                    -3.99454669     2.77410781    -1.44147517
 S                    -1.76327331    -2.45663615     2.43813830
 C                    -3.60300721    -2.41986211     2.44005110
 H                    -3.97504975    -3.18733109     3.15950569
 H                    -4.02416563    -2.65533908     1.43820876
 H                    -3.99973111    -1.43043721     2.76000301
