    28
 geometry
 Fe                    0.81341858     0.99486939     0.99256247
 Fe                    0.81155417    -0.98504031    -0.99026632
 Fe                   -0.81115431     0.98540818    -0.99068383
 Fe                   -0.81338228    -0.99612148     0.99265750
 S                    -1.36577148     1.23106511     1.23238029
 S                     1.36598794    -1.23206680     1.23295447
 S                     1.36345642     1.23462344    -1.22877724
 S                    -1.36320056    -1.23401138    -1.22893538
 S                     1.46498191     2.56449195     2.51076857
 C                     3.27973122     2.73859750     2.74102963
 H                     3.46762171     3.63512481     3.37573878
 H                     3.81488866     2.87441110     1.77861274
 H                     3.71008405     1.85132459     3.26343361
 S                     1.44823124    -2.49113328    -2.56865164
 C                     3.26227772    -2.73721115    -2.74086543
 H                     3.80195385    -1.77416742    -2.87710278
 H                     3.44241166    -3.37560656    -3.63439899
 H                     3.67980927    -3.26222008    -1.85386151
 S                    -1.44801587     2.49164383    -2.56979132
 C                    -3.26243294     2.73821006    -2.74238565
 H                    -3.80109956     1.77373168    -2.87703024
 H                    -3.44477784     3.37703884    -3.63461041
 H                    -3.67937263     3.26240817    -1.85400178
 S                    -1.46487370    -2.56645203     2.51052283
 C                    -3.27972931    -2.73879576     2.74157141
 H                    -3.46882335    -3.63487811     3.37653643
 H                    -3.81466436    -2.87429893     1.77877559
 H                    -3.70911017    -1.85094534     3.26381818
