    28
 geometry
 Fe                    0.86910384     0.97025590     0.97285743
 Fe                    0.86026380    -0.97514891    -0.97412680
 Fe                   -0.85962008     0.97556726    -0.97369452
 Fe                   -0.86890663    -0.97040327     0.97176558
 S                    -1.31225982     1.28554562     1.27872171
 S                     1.31238140    -1.28637962     1.27852402
 S                     1.32294515     1.27552725    -1.28145394
 S                    -1.32203252    -1.27477063    -1.28250271
 S                     1.90030370     2.40288041     2.40398600
 C                     3.72326470     2.22766547     2.23666068
 H                     4.22623969     2.93805558     2.93389973
 H                     4.06294938     2.45784390     1.20389061
 H                     4.06002303     1.19962580     2.48939103
 S                     1.87954018    -2.40707978    -2.41142617
 C                     3.70222766    -2.24427722    -2.23539359
 H                     4.04437499    -1.21198107    -2.46419595
 H                     4.20364470    -2.94193394    -2.94643448
 H                     4.03658097    -2.49922312    -1.20716793
 S                    -1.87978097     2.40761072    -2.41014012
 C                    -3.70210840     2.24369990    -2.23480397
 H                    -4.04330406     1.21140843    -2.46528560
 H                    -4.20397498     2.94168205    -2.94486569
 H                    -4.03636841     2.49682553    -1.20565888
 S                    -1.90103713    -2.40307534     2.40190997
 C                    -3.72393187    -2.22720744     2.23717431
 H                    -4.22614486    -2.93736614     2.93450273
 H                    -4.06473588    -2.45727840     1.20453041
 H                    -4.05963753    -1.19806894     2.48933611
