    28
 geometry
 Fe                    0.80907130     0.99396938     0.99122433
 Fe                    0.80800740    -0.98258782    -0.98805591
 Fe                   -0.80827995     0.98287837    -0.98852051
 Fe                   -0.80957002    -0.99548270     0.99127260
 S                    -1.36058181     1.22936415     1.23274159
 S                     1.36059025    -1.23052321     1.23356234
 S                     1.35676637     1.23479818    -1.22631605
 S                    -1.35693884    -1.23398239    -1.22646239
 S                     1.45843439     2.56653575     2.51651174
 C                     3.27388894     2.74430221     2.74381407
 H                     3.46242493     3.63919425     3.37833249
 H                     3.81325519     2.87900602     1.78284958
 H                     3.70375480     1.86555231     3.27703915
 S                     1.43127240    -2.48755987    -2.58114645
 C                     3.25405615    -2.74008656    -2.74670662
 H                     3.80237722    -1.78274109    -2.87847910
 H                     3.43287771    -3.37771703    -3.64118311
 H                     3.67525975    -3.26900719    -1.86028853
 S                    -1.42773615     2.48957207    -2.58337361
 C                    -3.25540194     2.74245402    -2.74831231
 H                    -3.80241523     1.78320882    -2.87802239
 H                    -3.43499700     3.37806799    -3.64305080
 H                    -3.67494544     3.26790111    -1.85914441
 S                    -1.45761174    -2.56840577     2.51731373
 C                    -3.27395348    -2.74486465     2.74483260
 H                    -3.46359683    -3.63973404     3.37891516
 H                    -3.81337445    -2.87885205     1.78353612
 H                    -3.70263386    -1.86526022     3.27711665
