    28
 geometry
 Fe                    0.85442487     0.97871603     0.96912653
 Fe                    0.85474329    -0.98215275    -0.99172439
 Fe                   -0.85527743     0.98218557    -0.99166223
 Fe                   -0.85494689    -0.97971776     0.96872663
 S                    -1.33407602     1.26595487     1.25335743
 S                     1.33388404    -1.26704365     1.25352758
 S                     1.33496856     1.26355763    -1.27590063
 S                    -1.33532062    -1.26321938    -1.27661803
 S                     1.72750343     2.46725331     2.45235563
 C                     3.56640305     2.46151355     2.48250578
 H                     3.91430899     3.24293633     3.19769181
 H                     4.00111433     2.69137002     1.48524860
 H                     3.97332980     1.48274214     2.82129596
 S                     1.72896355    -2.46287850    -2.48287001
 C                     3.56913616    -2.49276018    -2.47067778
 H                     4.00520536    -1.49446766    -2.69427806
 H                     3.91692996    -3.20573836    -3.25422445
 H                     3.97431264    -2.83531621    -1.49317783
 S                    -1.72807264     2.46378320    -2.48255535
 C                    -3.56890776     2.49351536    -2.47094621
 H                    -4.00460824     1.49501834    -2.69510558
 H                    -3.91594443     3.20711185    -3.25404897
 H                    -3.97478384     2.83395184    -1.49304502
 S                    -1.72753752    -2.46890092     2.45243773
 C                    -3.56649974    -2.46144303     2.48316363
 H                    -3.91489076    -3.24232889     3.19898973
 H                    -4.00199391    -2.69104473     1.48625399
 H                    -3.97236818    -1.48259798     2.82215351
