    28
 geometry
 Fe                    0.84447130     0.99533140     0.98670586
 Fe                    0.84158267    -1.00684666    -1.01457972
 Fe                   -0.84138371     1.00495339    -1.01309529
 Fe                   -0.84393684    -0.99609173     0.98588606
 S                    -1.34464665     1.25366357     1.23872048
 S                     1.34508701    -1.25481266     1.23746952
 S                     1.35164336     1.24688457    -1.26514288
 S                    -1.35203569    -1.24812844    -1.26552508
 S                     1.62916069     2.50503303     2.50252162
 C                     3.46477694     2.56164320     2.58887702
 H                     3.76995276     3.37893598     3.28477784
 H                     3.91561747     2.77261426     1.59550722
 H                     3.89377012     1.60962990     2.97283725
 S                     1.64708301    -2.52734953    -2.51301810
 C                     3.47891342    -2.60473776    -2.57441597
 H                     3.92512162    -1.60779797    -2.77921042
 H                     3.79262886    -3.29062239    -3.39718900
 H                     3.90966186    -2.99573894    -1.62609265
 S                    -1.64899067     2.52579240    -2.51013195
 C                    -3.47842114     2.60523640    -2.57455078
 H                    -3.92527053     1.60913794    -2.78097285
 H                    -3.79143811     3.29160774    -3.39739784
 H                    -3.90995717     2.99726173    -1.62701750
 S                    -1.62954718    -2.50565452     2.50098593
 C                    -3.46469172    -2.56109174     2.58926871
 H                    -3.76990407    -3.37807011     3.28534599
 H                    -3.91637514    -2.77229989     1.59633709
 H                    -3.89287243    -1.60848316     2.97309942
