    28
 geometry
 Fe                    0.84327838     0.99791512     0.99026724
 Fe                    0.83945564    -1.00623128    -1.01449764
 Fe                   -0.84007821     1.00505244    -1.01321799
 Fe                   -0.84346537    -0.99870656     0.98936652
 S                    -1.34287680     1.25366720     1.24096239
 S                     1.34281195    -1.25473183     1.23982464
 S                     1.35193618     1.24753485    -1.26117174
 S                    -1.35249525    -1.24788905    -1.26165271
 S                     1.56863501     2.52232875     2.51747321
 C                     3.39893580     2.61872800     2.64045323
 H                     3.66719668     3.45779001     3.32344258
 H                     3.87305373     2.80911331     1.65495440
 H                     3.83270661     1.68549535     3.06324535
 S                     1.56590770    -2.53278193    -2.53951879
 C                     3.41099258    -2.65307060    -2.63109147
 H                     3.87439493    -1.66028504    -2.81051788
 H                     3.68348366    -3.32914205    -3.47460979
 H                     3.84809666    -3.07520672    -1.69924446
 S                    -1.56175769     2.53220228    -2.53890868
 C                    -3.41206630     2.65455605    -2.63161345
 H                    -3.87497100     1.66078822    -2.81051098
 H                    -3.68282566     3.33068447    -3.47527287
 H                    -3.84989336     3.07386150    -1.69885144
 S                    -1.56800895    -2.52271401     2.51661826
 C                    -3.39921848    -2.61839337     2.64092079
 H                    -3.66705074    -3.45717402     3.32436049
 H                    -3.87403084    -2.80862288     1.65555870
 H                    -3.83214682    -1.68476820     3.06323207
