      -----------------------------------------------------------      
     |                   =====================                   |     
     |                           x T B                           |     
     |                   =====================                   |     
     |                         S. Grimme                         |     
     |          Mulliken Center for Theoretical Chemistry        |     
     |                    University of Bonn                     |     
      -----------------------------------------------------------      

   * xtb version 6.6.1 (unknown) compiled by 'builduser@buildhost' on 2023-08-07

   xtb is free software: you can redistribute it and/or modify it under
   the terms of the GNU Lesser General Public License as published by
   the Free Software Foundation, either version 3 of the License, or
   (at your option) any later version.
   
   xtb is distributed in the hope that it will be useful,
   but WITHOUT ANY WARRANTY; without even the implied warranty of
   MERCHANTABILITY or FITNESS FOR A PARTICULAR PURPOSE.  See the
   GNU Lesser General Public License for more details.
   
   Cite this work as:
   * C. Bannwarth, E. Caldeweyher, S. Ehlert, A. Hansen, P. Pracht,
     J. Seibert, S. Spicher, S. Grimme, WIREs Comput. Mol. Sci., 2020, 11,
     e01493. DOI: 10.1002/wcms.1493
   
   for GFN2-xTB:
   * C. Bannwarth, S. Ehlert and S. Grimme., J. Chem. Theory Comput., 2019,
     15, 1652-1671. DOI: 10.1021/acs.jctc.8b01176
   for GFN1-xTB:
   * S. Grimme, C. Bannwarth, P. Shushkov, J. Chem. Theory Comput., 2017,
     13, 1989-2009. DOI: 10.1021/acs.jctc.7b00118
   for GFN0-xTB:
   * P. Pracht, E. Caldeweyher, S. Ehlert, S. Grimme, ChemRxiv, 2019, preprint.
     DOI: 10.26434/chemrxiv.8326202.v1
   for GFN-FF:
   * S. Spicher and S. Grimme, Angew. Chem. Int. Ed., 2020, 59, 15665-15673.
     DOI: 10.1002/anie.202004239
   
   for ALPB and GBSA implicit solvation:
   * S. Ehlert, M. Stahn, S. Spicher, S. Grimme, J. Chem. Theory Comput.,
     2021, 17, 4250-4261. DOI: 10.1021/acs.jctc.1c00471
   
   for DFT-D4:
   * E. Caldeweyher, C. Bannwarth and S. Grimme, J. Chem. Phys., 2017,
     147, 034112. DOI: 10.1063/1.4993215
   * E. Caldeweyher, S. Ehlert, A. Hansen, H. Neugebauer, S. Spicher,
     C. Bannwarth and S. Grimme, J. Chem. Phys., 2019, 150, 154122.
     DOI: 10.1063/1.5090222
   * E. Caldeweyher, J.-M. Mewes, S. Ehlert and S. Grimme, Phys. Chem. Chem. Phys.
     2020, 22, 8499-8512. DOI: 10.1039/D0CP00502A
   
   for sTDA-xTB:
   * S. Grimme and C. Bannwarth, J. Chem. Phys., 2016, 145, 054103.
     DOI: 10.1063/1.4959605
   
   in the mass-spec context:
   * V. Asgeirsson, C. Bauer and S. Grimme, Chem. Sci., 2017, 8, 4879.
     DOI: 10.1039/c7sc00601b
   * J. Koopman and S. Grimme, ACS Omega 2019, 4, 12, 15120-15133.
     DOI: 10.1021/acsomega.9b02011
   
   for metadynamics refer to:
   * S. Grimme, J. Chem. Theory Comput., 2019, 155, 2847-2862
     DOI: 10.1021/acs.jctc.9b00143
   
   for SPH calculations refer to:
   * S. Spicher and S. Grimme, J. Chem. Theory Comput., 2021, 17, 1701-1714
     DOI: 10.1021/acs.jctc.0c01306
   
   with help from (in alphabetical order)
   P. Atkinson, C. Bannwarth, F. Bohle, G. Brandenburg, E. Caldeweyher
   M. Checinski, S. Dohm, S. Ehlert, S. Ehrlich, I. Gerasimov, C. Hölzer
   A. Katbashev, J. Koopman, C. Lavigne, S. Lehtola, F. März, M. Müller,
   F. Musil, H. Neugebauer, J. Pisarek, C. Plett, P. Pracht, F. Pultar,
   J. Seibert, P. Shushkov, S. Spicher, M. Stahn, M. Steiner, T. Strunk,
   J. Stückrath, T. Rose, and J. Unsleber
   
 * started run on 2026/09/12 at 19:23:18.948     

           -------------------------------------------------
          |                Calculation Setup                |
           -------------------------------------------------

          program call               : xtb start.xyz --gfn 1 --chrg -3 --uhf 0 --alpb water --opt loose
          coordinate file            : start.xyz
          omp threads                :                     8

   ID    Z sym.   atoms
    1    6 C      1, 2, 9, 10, 17, 18, 25, 26, 33, 34, 41-43, 45, 47
    2   16 S      3, 11, 19, 27, 35, 60-63
    3    1 H      4-8, 12-16, 20-24, 28-32, 36-40, 48-55
    4    7 N      44, 46
    5   26 Fe     56-59, 64

           -------------------------------------------------
          |                 G F N 1 - x T B                 |
           -------------------------------------------------

        Reference                      10.1021/acs.jctc.7b00118
      * Hamiltonian:
        H0-scaling (s, p, d)           1.850000    2.250000    2.000000
        zeta-weighting                 0.000000
      * Dispersion:
        s8                             2.400000
        a1                             0.630000
        a2                             5.000000
        s9                             0.000000
      * Repulsion:
        kExp                           1.500000
        rExp                           1.000000
      * Coulomb:
        alpha                          2.000000
        third order                    atomic
        anisotropic                    false
      * Halogen bond correction:
        rad-scale                      1.300000
        damping                        0.440000

      * Solvation model:               ALPB
        Solvent                        water
        Parameter file                 internal GFN1-xTB/ALPB
        Dielectric constant                8.0200E+01
        Reference state                gsolv [1 M gas/solution]
        Free energy shift                  4.2456E-03 Eh       2.6642E+00 kcal/mol
        Temperature                        2.9815E+02 K
        Density                            1.0000E+00 kg/L
        Solvent mass                       1.8000E+01 g/mol
        Interaction kernel             P16
        Born radius scaling (c1)           1.9452E+00
        Born radii integrator          GBOBC
        Born offset                        0.0000E+00 a0       0.0000E+00 AA
        H-bond correction              true
        Ion screening                  false
        Surface tension                    1.0000E-05 Eh       1.5569E+01 dyn/cm
        Grid points                               230 per atom

          ...................................................
          :                      SETUP                      :
          :.................................................:
          :  # basis functions                 274          :
          :  # atomic orbitals                 260          :
          :  # shells                          142          :
          :  # electrons                       200          :
          :  # halogen bonds                     0          :
          :  max. iterations                   250          :
          :  Hamiltonian                  GFN1-xTB          :
          :  restarted?                      false          :
          :  GBSA solvation                   true          :
          :  PC potential                    false          :
          :  electronic temp.          300.0000000     K    :
          :  accuracy                    1.0000000          :
          :  -> integral cutoff          0.2500000E+02      :
          :  -> integral neglect         0.1000000E-07      :
          :  -> SCF convergence          0.1000000E-05 Eh   :
          :  -> wf. convergence          0.2000000E-04 e    :
          :  Broyden damping             0.4000000          :
          ...................................................

 iter      E             dE          RMSdq      gap      omega  full diag
   1    -71.0879355 -0.710879E+02  0.163E+01    0.10       0.0  T
   2     33.5621830  0.104650E+03  0.289E+01    0.02       1.0  T
   3    -58.9595660 -0.925217E+02  0.134E+01    0.01       1.0  T
   4      7.5517309  0.665113E+02  0.178E+01    0.11       1.0  T
   5    -39.5662984 -0.471180E+02  0.140E+01    0.10       1.0  T
   6    -45.8370820 -0.627078E+01  0.132E+01    0.35       1.0  T
   7    -72.8629318 -0.270258E+02  0.112E+01    0.13       1.0  T
   8    -36.1358087  0.367271E+02  0.148E+01    2.20       1.0  T
   9    -80.4478574 -0.443120E+02  0.908E+00    0.07       1.0  T
  10    -88.2447243 -0.779687E+01  0.801E+00    0.06       1.0  T
  11    -79.3872696  0.885745E+01  0.936E+00    0.08       1.0  T
  12    -74.9398402  0.444743E+01  0.103E+01    0.02       1.0  T
  13    -90.8892792 -0.159494E+02  0.762E+00    0.04       1.0  T
  14    -85.1324891  0.575679E+01  0.837E+00    0.02       1.0  T
  15    -89.0736393 -0.394115E+01  0.748E+00    0.02       1.0  T
  16    -83.4814641  0.559218E+01  0.933E+00    0.04       1.0  T
  17    -65.4900691  0.179914E+02  0.121E+01    0.04       1.0  T
  18    -70.2034644 -0.471340E+01  0.115E+01    0.10       1.0  T
  19    -77.7856359 -0.758217E+01  0.996E+00    0.01       1.0  T
  20    -76.8331685  0.952467E+00  0.983E+00    0.14       1.0  T
  21    -76.8850067 -0.518382E-01  0.981E+00    0.14       1.0  T
  22    -78.5732102 -0.168820E+01  0.949E+00    0.07       1.0  T
  23    -80.6263427 -0.205313E+01  0.917E+00    0.07       1.0  T
  24    -85.7375290 -0.511119E+01  0.831E+00    0.06       1.0  T
  25   -103.7687382 -0.180312E+02  0.320E+00    0.14       1.0  T
  26   -101.6547269  0.211401E+01  0.408E+00    0.15       1.0  T
  27   -102.8896099 -0.123488E+01  0.340E+00    0.03       1.0  T
  28   -105.2923144 -0.240270E+01  0.175E+00    0.13       1.0  T
  29   -105.6985631 -0.406249E+00  0.124E+00    0.19       1.0  T
  30   -105.8847106 -0.186148E+00  0.855E-01    0.17       1.0  T
  31   -105.4653329  0.419378E+00  0.149E+00    0.09       1.0  T
  32   -105.2910090  0.174324E+00  0.173E+00    0.08       1.0  T
  33   -105.6606288 -0.369620E+00  0.124E+00    0.10       1.0  T
  34   -105.9853384 -0.324710E+00  0.526E-01    0.11       1.0  T
  35   -106.0145610 -0.292226E-01  0.404E-01    0.12       1.0  T
  36   -106.0419268 -0.273658E-01  0.244E-01    0.14       1.0  T
  37   -106.0526332 -0.107064E-01  0.134E-01    0.13       1.0  T
  38   -106.0492700  0.336326E-02  0.174E-01    0.13       1.0  T
  39   -106.0511962 -0.192617E-02  0.154E-01    0.13       1.0  T
  40   -106.0551380 -0.394185E-02  0.882E-02    0.13       1.0  T
  41   -106.0539978  0.114024E-02  0.109E-01    0.13       1.0  T
  42   -106.0544225 -0.424742E-03  0.996E-02    0.13       1.0  T
  43   -106.0565196 -0.209714E-02  0.428E-02    0.13       1.0  T
  44   -106.0569270 -0.407331E-03  0.162E-02    0.13       1.0  T
  45   -106.0569662 -0.391820E-04  0.106E-02    0.13       1.2  T
  46   -106.0569907 -0.245363E-04  0.373E-03    0.13       3.4  T
  47   -106.0569924 -0.167904E-05  0.281E-03    0.13       4.4  T
  48   -106.0569931 -0.745705E-06  0.217E-03    0.13       5.8  T
  49   -106.0569942 -0.112335E-05  0.383E-04    0.13      32.7  T
  50   -106.0569943 -0.341823E-07  0.705E-05    0.13     177.2  T
  51   -106.0569943  0.485741E-08  0.151E-04    0.13      82.7  T

   *** convergence criteria satisfied after 51 iterations ***

         #    Occupation            Energy/Eh            Energy/eV
      -------------------------------------------------------------
         1        2.0000           -0.7718271             -21.0025
       ...           ...                  ...                  ...
        94        2.0000           -0.2203083              -5.9949
        95        2.0000           -0.2200048              -5.9866
        96        1.9995           -0.2176028              -5.9213
        97        1.9994           -0.2174008              -5.9158
        98        1.9947           -0.2153851              -5.8609
        99        1.9930           -0.2151209              -5.8537
       100        1.8473           -0.2121231              -5.7722 (HOMO)
       101        0.1297           -0.2072190              -5.6387 (LUMO)
       102        0.0364           -0.2059647              -5.6046
       103        0.0002           -0.2008659              -5.4658
       104        0.0000           -0.1957356              -5.3262
       105                         -0.1908985              -5.1946
       ...                                ...                  ...
       260                         11.6223723             316.2608
      -------------------------------------------------------------
                  HL-Gap            0.0049040 Eh            0.1334 eV
             Fermi-level           -0.2097544 Eh           -5.7077 eV

 SCC (total)                   0 d,  0 h,  0 min,  5.857 sec
 SCC setup                      ...        0 min,  0.005 sec (  0.087%)
 Dispersion                     ...        0 min,  0.002 sec (  0.027%)
 classical contributions        ...        0 min,  0.001 sec (  0.012%)
 integral evaluation            ...        0 min,  0.044 sec (  0.755%)
 iterations                     ...        0 min,  5.677 sec ( 96.925%)
 molecular gradient             ...        0 min,  0.095 sec (  1.619%)
 printout                       ...        0 min,  0.034 sec (  0.575%)

         :::::::::::::::::::::::::::::::::::::::::::::::::::::
         ::                     SUMMARY                     ::
         :::::::::::::::::::::::::::::::::::::::::::::::::::::
         :: total energy            -105.265206859079 Eh    ::
         :: total w/o Gsasa/hb      -105.261059129206 Eh    ::
         :: gradient norm              0.116956740671 Eh/a0 ::
         :: HOMO-LUMO gap              0.133445957037 eV    ::
         ::.................................................::
         :: SCC energy              -106.056994270828 Eh    ::
         :: -> electrostatic           0.600063057667 Eh    ::
         :: -> Gsolv                  -0.351718824245 Eh    ::
         ::    -> Gelec               -0.347571094372 Eh    ::
         ::    -> Gsasa               -0.007136348047 Eh    ::
         ::    -> Ghb                 -0.001256988497 Eh    ::
         ::    -> Gshift               0.004245606671 Eh    ::
         :: repulsion energy           0.853851335544 Eh    ::
         :: dispersion energy         -0.062063923794 Eh    ::
         :: halogen bond corr.         0.000000000000 Eh    ::
         :: add. restraining           0.000000000000 Eh    ::
         :: total charge              -3.000000000200 e     ::
         :::::::::::::::::::::::::::::::::::::::::::::::::::::

      ----------------------------------------------------------- 
     |                   =====================                   |
     |                        A N C O P T                        |
     |                   =====================                   |
     |               Approximate Normal Coordinate               |
     |                Rational Function Optimizer                |
      ----------------------------------------------------------- 

          ...................................................
          :                      SETUP                      :
          :.................................................:
          :   optimization level             loose          :
          :   max. optcycles                   200          :
          :   ANC micro-cycles                  20          :
          :   degrees of freedom               186          :
          :.................................................:
          :   RF solver                   davidson          :
          :   write xtbopt.log                true          :
          :   linear?                        false          :
          :   energy convergence         0.5000000E-04 Eh   :
          :   grad. convergence          0.4000000E-02 Eh/α :
          :   maxmium RF displ.          1.0000000          :
          :   Hlow (freq-cutoff)         0.1000000E-01      :
          :   Hmax (freq-cutoff)         5.0000000          :
          :   S6 in model hess.         20.0000000          :
          ...................................................

generating ANC from model Hessian ...
Using Lindh-Hessian (1995)
 Shifting diagonal of input Hessian by    1.1714157698586330E-002
 Lowest  eigenvalues of input Hessian
    0.010000    0.010968    0.011595    0.011623    0.011643    0.011683
    0.011699    0.000000    0.000000    0.000000    0.000000    0.000000
    0.000000    0.011722    0.011860    0.011904    0.011951    0.012019
 Highest eigenvalues
    1.227873    1.565747    1.895984    1.970895    2.128913    2.226242


........................................................................
.............................. CYCLE    1 ..............................
........................................................................

 iter      E             dE          RMSdq      gap      omega  full diag
   1   -106.0569943 -0.106057E+03  0.466E-05    0.13       0.0  T
   2   -106.0569935  0.810810E-06  0.169E-03    0.13       7.4  T
   3   -106.0569943 -0.802213E-06  0.185E-04    0.13      67.4  T
   4   -106.0569943  0.383328E-08  0.211E-04    0.13      59.2  T
   5   -106.0569943  0.727307E-08  0.276E-04    0.13      45.2  T
   6   -106.0569943 -0.178486E-07  0.910E-05    0.13     137.3  T
     SCC iter.                  ...        0 min,  0.711 sec
     gradient                   ...        0 min,  0.098 sec
 * total energy  :  -105.2652069 Eh     change       -0.3265029E-08 Eh
   gradient norm :     0.1169580 Eh/α   predicted     0.0000000E+00 (-100.00%)
   displ. norm   :     0.5705828 α      lambda       -0.3929327E-01
   maximum displ.:     0.2168883 α      in ANC's #36, #28, #45, ...

........................................................................
.............................. CYCLE    2 ..............................
........................................................................

 iter      E             dE          RMSdq      gap      omega  full diag
   1   -106.0293699 -0.106029E+03  0.534E-01    0.14       0.0  T
   2    -65.1572580  0.408721E+02  0.112E+01    0.18       1.0  T
   3    -97.1626219 -0.320054E+02  0.572E+00    0.07       1.0  T
   4   -105.4429129 -0.828029E+01  0.161E+00    0.15       1.0  T
   5   -102.3909573  0.305196E+01  0.364E+00    0.06       1.0  T
   6   -105.4585882 -0.306763E+01  0.151E+00    0.14       1.0  T
   7   -102.2481281  0.321046E+01  0.368E+00    0.01       1.0  T
   8   -106.0074086 -0.375928E+01  0.595E-01    0.12       1.0  T
   9   -105.9720842  0.353244E-01  0.680E-01    0.09       1.0  T
  10   -106.0419055 -0.698214E-01  0.462E-01    0.12       1.0  T
  11   -106.0622232 -0.203177E-01  0.378E-01    0.13       1.0  T
  12   -106.0793764 -0.171532E-01  0.292E-01    0.14       1.0  T
  13   -106.0902466 -0.108702E-01  0.209E-01    0.13       1.0  T
  14   -106.0984210 -0.817440E-02  0.123E-01    0.11       1.0  T
  15   -106.1001447 -0.172365E-02  0.943E-02    0.12       1.0  T
  16   -106.1012142 -0.106947E-02  0.713E-02    0.11       1.0  T
  17   -106.1020729 -0.858774E-03  0.436E-02    0.11       1.0  T
  18   -106.1023388 -0.265886E-03  0.295E-02    0.11       1.0  T
  19   -106.1024448 -0.105946E-03  0.215E-02    0.11       1.0  T
  20   -106.1025232 -0.784630E-04  0.120E-02    0.11       1.0  T
  21   -106.1025492 -0.259501E-04  0.676E-03    0.11       1.8  T
  22   -106.1025585 -0.929474E-05  0.285E-03    0.11       4.4  T
  23   -106.1025601 -0.166927E-05  0.127E-03    0.11       9.8  T
  24   -106.1025605 -0.398395E-06  0.263E-04    0.11      47.5  T
  25   -106.1025606 -0.161599E-07  0.108E-04    0.11     116.0  T
  26   -106.1025606 -0.171319E-08  0.708E-05    0.11     176.5  T
     SCC iter.                  ...        0 min,  2.868 sec
     gradient                   ...        0 min,  0.108 sec
 * total energy  :  -105.2945777 Eh     change       -0.2937080E-01 Eh
   gradient norm :     0.0500333 Eh/α   predicted    -0.2604289E-01 ( -11.33%)
   displ. norm   :     0.6904367 α      lambda       -0.2206738E-01
   maximum displ.:     0.4538216 α      in ANC's #36, #45, #42, ...

........................................................................
.............................. CYCLE    3 ..............................
........................................................................

 iter      E             dE          RMSdq      gap      omega  full diag
   1   -105.7424482 -0.105742E+03  0.123E+00    0.02       0.0  T
   2    -75.8359571  0.299065E+02  0.974E+00    0.01       1.0  T
   3    -73.3681459  0.246781E+01  0.100E+01    0.02       1.0  T
   4    -93.0575325 -0.196894E+02  0.689E+00    0.11       1.0  T
   5    -91.7965101  0.126102E+01  0.681E+00    0.12       1.0  T
   6    -97.4050595 -0.560855E+01  0.545E+00    0.04       1.0  T
   7   -105.3019817 -0.789692E+01  0.167E+00    0.12       1.0  T
   8   -105.6898032 -0.387822E+00  0.135E+00    0.20       1.0  T
   9   -105.8312319 -0.141429E+00  0.111E+00    0.18       1.0  T
  10   -106.0903796 -0.259148E+00  0.395E-01    0.12       1.0  T
  11   -106.0760402  0.143394E-01  0.451E-01    0.06       1.0  T
  12   -106.1156192 -0.395790E-01  0.239E-01    0.11       1.0  T
  13   -106.1245279 -0.890865E-02  0.149E-01    0.10       1.0  T
  14   -106.1209619  0.356593E-02  0.185E-01    0.11       1.0  T
  15   -106.1272698 -0.630782E-02  0.100E-01    0.10       1.0  T
  16   -106.1244475  0.282228E-02  0.152E-01    0.08       1.0  T
  17   -106.1274729 -0.302542E-02  0.102E-01    0.08       1.0  T
  18   -106.1293308 -0.185786E-02  0.532E-02    0.09       1.0  T
  19   -106.1295964 -0.265660E-03  0.408E-02    0.09       1.0  T
  20   -106.1299815 -0.385059E-03  0.132E-02    0.09       1.0  T
  21   -106.1300168 -0.353411E-04  0.572E-03    0.09       2.2  T
  22   -106.1300227 -0.590283E-05  0.264E-03    0.09       4.7  T
  23   -106.1300194  0.329506E-05  0.455E-03    0.09       2.7  T
  24   -106.1300244 -0.495961E-05  0.870E-04    0.09      14.4  T
  25   -106.1300245 -0.141220E-06  0.443E-04    0.09      28.2  T
  26   -106.1300246 -0.271237E-07  0.311E-04    0.09      40.2  T
  27   -106.1300246 -0.220477E-07  0.117E-04    0.09     107.2  T
  28   -106.1300246 -0.318052E-08  0.365E-05    0.09     342.7  T
     SCC iter.                  ...        0 min,  3.057 sec
     gradient                   ...        0 min,  0.106 sec
 * total energy  :  -105.3112262 Eh     change       -0.1664857E-01 Eh
   gradient norm :     0.0279822 Eh/α   predicted    -0.1629357E-01 (  -2.13%)
   displ. norm   :     0.7676957 α      lambda       -0.1488009E-01
   maximum displ.:     0.5415803 α      in ANC's #36, #34, #26, ...

........................................................................
.............................. CYCLE    4 ..............................
........................................................................

 iter      E             dE          RMSdq      gap      omega  full diag
   1   -105.3754378 -0.105375E+03  0.170E+00    0.11       0.0  T
   2    -60.9459947  0.444294E+02  0.120E+01    0.14       1.0  T
   3    -68.6908493 -0.774485E+01  0.107E+01    0.17       1.0  T
   4    -91.1961825 -0.225053E+02  0.746E+00    0.16       1.0  T
   5    -84.0242265  0.717196E+01  0.839E+00    0.03       1.0  T
   6   -102.6318121 -0.186076E+02  0.349E+00    0.18       1.0  T
   7   -103.8498033 -0.121799E+01  0.292E+00    0.13       1.0  T
   8   -105.3031370 -0.145333E+01  0.183E+00    0.25       1.0  T
   9   -105.7202202 -0.417083E+00  0.127E+00    0.24       1.0  T
  10   -106.1034640 -0.383244E+00  0.356E-01    0.15       1.0  T
  11   -106.0854864  0.179776E-01  0.435E-01    0.14       1.0  T
  12   -106.1279526 -0.424662E-01  0.133E-01    0.16       1.0  T
  13   -106.1287932 -0.840630E-03  0.118E-01    0.16       1.0  T
  14   -106.1270149  0.177834E-02  0.149E-01    0.17       1.0  T
  15   -106.1282550 -0.124008E-02  0.130E-01    0.17       1.0  T
  16   -106.1321485 -0.389351E-02  0.295E-02    0.16       1.0  T
  17   -106.1321488 -0.347060E-06  0.293E-02    0.16       1.0  T
  18   -106.1317859  0.362953E-03  0.483E-02    0.16       1.0  T
  19   -106.1322382 -0.452283E-03  0.208E-02    0.16       1.0  T
  20   -106.1323056 -0.674515E-04  0.123E-02    0.16       1.0  T
  21   -106.1323321 -0.264532E-04  0.701E-03    0.16       1.8  T
  22   -106.1323447 -0.125964E-04  0.141E-03    0.16       8.9  T
  23   -106.1323446  0.245594E-07  0.144E-03    0.16       8.7  T
  24   -106.1323449 -0.210722E-06  0.105E-03    0.16      11.9  T
  25   -106.1323451 -0.245815E-06  0.415E-04    0.16      30.1  T
  26   -106.1323451 -0.408042E-07  0.629E-05    0.16     198.7  T
  27   -106.1323451 -0.735525E-09  0.315E-05    0.16     396.6  T
     SCC iter.                  ...        0 min,  2.897 sec
     gradient                   ...        0 min,  0.112 sec
 * total energy  :  -105.3213894 Eh     change       -0.1016321E-01 Eh
   gradient norm :     0.0374813 Eh/α   predicted    -0.1182489E-01 (  16.35%)
   displ. norm   :     0.5468291 α      lambda       -0.7916487E-02
   maximum displ.:     0.1913423 α      in ANC's #2, #36, #1, ...

........................................................................
.............................. CYCLE    5 ..............................
........................................................................

 iter      E             dE          RMSdq      gap      omega  full diag
   1   -106.0147610 -0.106015E+03  0.673E-01    0.19       0.0  T
   2    -65.4448404  0.405699E+02  0.112E+01    0.09       1.0  T
   3    -82.5007715 -0.170559E+02  0.867E+00    0.10       1.0  T
   4   -102.5372648 -0.200365E+02  0.357E+00    0.07       1.0  T
   5   -105.0112671 -0.247400E+01  0.210E+00    0.23       1.0  T
   6   -105.2357187 -0.224452E+00  0.180E+00    0.16       1.0  T
   7   -105.7506440 -0.514925E+00  0.118E+00    0.22       1.0  T
   8   -106.1043521 -0.353708E+00  0.343E-01    0.23       1.0  T
   9   -106.0977760  0.657609E-02  0.388E-01    0.24       1.0  T
  10   -106.0972411  0.534897E-03  0.390E-01    0.24       1.0  T
  11   -106.1207818 -0.235407E-01  0.227E-01    0.23       1.0  T
  12   -106.1311266 -0.103449E-01  0.993E-02    0.22       1.0  T
  13   -106.1324045 -0.127790E-02  0.693E-02    0.22       1.0  T
  14   -106.1330689 -0.664331E-03  0.499E-02    0.22       1.0  T
  15   -106.1331636 -0.947173E-04  0.459E-02    0.22       1.0  T
  16   -106.1335798 -0.416180E-03  0.256E-02    0.22       1.0  T
  17   -106.1336813 -0.101534E-03  0.169E-02    0.21       1.0  T
  18   -106.1337254 -0.440777E-04  0.112E-02    0.21       1.1  T
  19   -106.1337488 -0.234600E-04  0.616E-03    0.21       2.0  T
  20   -106.1337579 -0.910314E-05  0.201E-03    0.21       6.2  T
  21   -106.1337583 -0.405588E-06  0.154E-03    0.21       8.1  T
  22   -106.1337587 -0.401169E-06  0.900E-04    0.21      13.9  T
  23   -106.1337589 -0.210728E-06  0.221E-04    0.21      56.5  T
  24   -106.1337590 -0.115444E-07  0.617E-05    0.21     202.5  T
  25   -106.1337590 -0.782137E-09  0.260E-05    0.21     481.2  T
     SCC iter.                  ...        0 min,  2.750 sec
     gradient                   ...        0 min,  0.081 sec
 * total energy  :  -105.3268994 Eh     change       -0.5509941E-02 Eh
   gradient norm :     0.0291057 Eh/α   predicted    -0.5141850E-02 (  -6.68%)
   displ. norm   :     0.5972828 α      lambda       -0.8074493E-02
   maximum displ.:     0.1945474 α      in ANC's #1, #36, #31, ...

........................................................................
.............................. CYCLE    6 ..............................
........................................................................

 iter      E             dE          RMSdq      gap      omega  full diag
   1   -105.8461310 -0.105846E+03  0.105E+00    0.18       0.0  T
   2    -54.4996948  0.513464E+02  0.128E+01    0.07       1.0  T
   3    -80.5668996 -0.260672E+02  0.891E+00    0.02       1.0  T
   4   -102.1060223 -0.215391E+02  0.403E+00    0.26       1.0  T
   5   -103.1610995 -0.105508E+01  0.333E+00    0.14       1.0  T
   6   -105.2255908 -0.206449E+01  0.174E+00    0.17       1.0  T
   7   -105.6967810 -0.471190E+00  0.124E+00    0.16       1.0  T
   8   -105.9475810 -0.250800E+00  0.891E-01    0.25       1.0  T
   9   -105.9040330  0.435480E-01  0.970E-01    0.25       1.0  T
  10   -105.9082949 -0.426194E-02  0.960E-01    0.25       1.0  T
  11   -106.1187441 -0.210449E+00  0.231E-01    0.21       1.0  T
  12   -106.1278965 -0.915244E-02  0.150E-01    0.22       1.0  T
  13   -106.1286288 -0.732298E-03  0.141E-01    0.21       1.0  T
  14   -106.1303748 -0.174595E-02  0.115E-01    0.21       1.0  T
  15   -106.1335190 -0.314416E-02  0.253E-02    0.21       1.0  T
  16   -106.1330835  0.435485E-03  0.487E-02    0.21       1.0  T
  17   -106.1335518 -0.468342E-03  0.220E-02    0.21       1.0  T
  18   -106.1336576 -0.105752E-03  0.981E-03    0.21       1.3  T
  19   -106.1336761 -0.185721E-04  0.453E-03    0.21       2.8  T
  20   -106.1336806 -0.442529E-05  0.180E-03    0.21       7.0  T
  21   -106.1336806 -0.650202E-07  0.174E-03    0.21       7.2  T
  22   -106.1336812 -0.599636E-06  0.800E-04    0.21      15.6  T
  23   -106.1336814 -0.129855E-06  0.359E-04    0.21      34.8  T
  24   -106.1336814 -0.295075E-07  0.957E-05    0.21     130.6  T
  25   -106.1336814 -0.224762E-08  0.969E-06    0.21    1289.9  T
     SCC iter.                  ...        0 min,  2.873 sec
     gradient                   ...        0 min,  0.095 sec
 * total energy  :  -105.3304558 Eh     change       -0.3556409E-02 Eh
   gradient norm :     0.0265283 Eh/α   predicted    -0.5477521E-02 (  54.02%)
   displ. norm   :     0.3517248 α      lambda       -0.3628250E-02
   maximum displ.:     0.1506339 α      in ANC's #1, #31, #18, ...

........................................................................
.............................. CYCLE    7 ..............................
........................................................................

 iter      E             dE          RMSdq      gap      omega  full diag
   1   -106.1361838 -0.106136E+03  0.194E-01    0.21       0.0  T
   2    -99.6375312  0.649865E+01  0.483E+00    0.20       1.0  T
   3   -105.4594942 -0.582196E+01  0.160E+00    0.22       1.0  T
   4   -105.5240343 -0.645402E-01  0.150E+00    0.16       1.0  T
   5   -106.0905289 -0.566495E+00  0.453E-01    0.22       1.0  T
   6   -105.9239634  0.166565E+00  0.895E-01    0.20       1.0  T
   7   -106.1414213 -0.217458E+00  0.970E-02    0.21       1.0  T
   8   -106.0202009  0.121220E+00  0.664E-01    0.22       1.0  T
   9   -106.1429152 -0.122714E+00  0.530E-02    0.22       1.0  T
  10   -106.1436037 -0.688563E-03  0.199E-02    0.22       1.0  T
  11   -106.1436306 -0.269123E-04  0.149E-02    0.22       1.0  T
  12   -106.1436821 -0.514785E-04  0.386E-03    0.22       3.2  T
  13   -106.1436794  0.267840E-05  0.447E-03    0.22       2.8  T
  14   -106.1436803 -0.890005E-06  0.399E-03    0.22       3.1  T
  15   -106.1436822 -0.185641E-05  0.297E-03    0.22       4.2  T
  16   -106.1436838 -0.160411E-05  0.165E-03    0.22       7.6  T
  17   -106.1436844 -0.648037E-06  0.487E-04    0.22      25.6  T
  18   -106.1436845 -0.485183E-07  0.214E-04    0.22      58.4  T
  19   -106.1436845 -0.104233E-07  0.656E-05    0.22     190.5  T
  20   -106.1436845 -0.636987E-09  0.406E-05    0.22     307.6  T
     SCC iter.                  ...        0 min,  2.206 sec
     gradient                   ...        0 min,  0.107 sec
 * total energy  :  -105.3326422 Eh     change       -0.2186393E-02 Eh
   gradient norm :     0.0170472 Eh/α   predicted    -0.2038550E-02 (  -6.76%)
   displ. norm   :     0.4189390 α      lambda       -0.2436708E-02
   maximum displ.:     0.1837777 α      in ANC's #1, #11, #2, ...

........................................................................
.............................. CYCLE    8 ..............................
........................................................................

 iter      E             dE          RMSdq      gap      omega  full diag
   1   -106.1370572 -0.106137E+03  0.229E-01    0.20       0.0  T
   2    -95.7735623  0.103635E+02  0.605E+00    0.14       1.0  T
   3   -104.1805559 -0.840699E+01  0.262E+00    0.11       1.0  T
   4   -106.0786550 -0.189810E+01  0.514E-01    0.20       1.0  T
   5   -105.6818436  0.396811E+00  0.130E+00    0.21       1.0  T
   6   -106.0850621 -0.403219E+00  0.500E-01    0.18       1.0  T
   7   -106.1384832 -0.534210E-01  0.211E-01    0.20       1.0  T
   8   -106.1161980  0.222851E-01  0.367E-01    0.21       1.0  T
   9   -106.1502687 -0.340707E-01  0.384E-02    0.21       1.0  T
  10   -106.1503687 -0.999457E-04  0.326E-02    0.21       1.0  T
  11   -106.1502344  0.134218E-03  0.382E-02    0.21       1.0  T
  12   -106.1505056 -0.271122E-03  0.206E-02    0.21       1.0  T
  13   -106.1506037 -0.981758E-04  0.805E-03    0.21       1.6  T
  14   -106.1506144 -0.106409E-04  0.530E-03    0.21       2.4  T
  15   -106.1506173 -0.293109E-05  0.407E-03    0.21       3.1  T
  16   -106.1506205 -0.316191E-05  0.214E-03    0.21       5.8  T
  17   -106.1506209 -0.454323E-06  0.166E-03    0.21       7.5  T
  18   -106.1506216 -0.704219E-06  0.426E-04    0.21      29.3  T
  19   -106.1506217 -0.444495E-07  0.130E-04    0.21      96.3  T
  20   -106.1506217 -0.397284E-08  0.478E-05    0.21     261.8  T
     SCC iter.                  ...        0 min,  2.222 sec
     gradient                   ...        0 min,  0.097 sec
 * total energy  :  -105.3343131 Eh     change       -0.1670895E-02 Eh
   gradient norm :     0.0120026 Eh/α   predicted    -0.1432192E-02 ( -14.29%)
   displ. norm   :     0.6211919 α      lambda       -0.2758625E-02
   maximum displ.:     0.2547100 α      in ANC's #1, #31, #11, ...

........................................................................
.............................. CYCLE    9 ..............................
........................................................................

 iter      E             dE          RMSdq      gap      omega  full diag
   1   -106.1170408 -0.106117E+03  0.373E-01    0.21       0.0  T
   2   -100.3106487  0.580639E+01  0.467E+00    0.13       1.0  T
   3   -103.2364117 -0.292576E+01  0.320E+00    0.20       1.0  T
   4   -105.9985662 -0.276215E+01  0.797E-01    0.23       1.0  T
   5   -105.9180428  0.805234E-01  0.918E-01    0.19       1.0  T
   6   -106.0556266 -0.137584E+00  0.588E-01    0.22       1.0  T
   7   -106.1353878 -0.797612E-01  0.245E-01    0.23       1.0  T
   8   -106.0955924  0.397954E-01  0.455E-01    0.23       1.0  T
   9   -106.1288640 -0.332717E-01  0.298E-01    0.24       1.0  T
  10   -106.1269624  0.190165E-02  0.307E-01    0.24       1.0  T
  11   -106.1468260 -0.198636E-01  0.127E-01    0.23       1.0  T
  12   -106.1500966 -0.327061E-02  0.738E-02    0.22       1.0  T
  13   -106.1512895 -0.119290E-02  0.212E-02    0.23       1.0  T
  14   -106.1513874 -0.979159E-04  0.723E-03    0.23       1.7  T
  15   -106.1513928 -0.539869E-05  0.552E-03    0.23       2.3  T
  16   -106.1513998 -0.701006E-05  0.155E-03    0.23       8.0  T
  17   -106.1514000 -0.126407E-06  0.129E-03    0.23       9.7  T
  18   -106.1514003 -0.308213E-06  0.560E-04    0.23      22.3  T
  19   -106.1514003 -0.557284E-07  0.277E-04    0.23      45.1  T
  20   -106.1514004 -0.175643E-07  0.821E-05    0.23     152.2  T
  21   -106.1514004 -0.166506E-08  0.172E-05    0.23     727.3  T
     SCC iter.                  ...        0 min,  2.423 sec
     gradient                   ...        0 min,  0.130 sec
 * total energy  :  -105.3356986 Eh     change       -0.1385529E-02 Eh
   gradient norm :     0.0188530 Eh/α   predicted    -0.1911565E-02 (  37.97%)
   displ. norm   :     0.4797963 α      lambda       -0.2274226E-02
   maximum displ.:     0.2094068 α      in ANC's #1, #11, #2, ...

........................................................................
.............................. CYCLE   10 ..............................
........................................................................

 iter      E             dE          RMSdq      gap      omega  full diag
   1   -106.1366837 -0.106137E+03  0.227E-01    0.21       0.0  T
   2    -82.1909284  0.239458E+02  0.853E+00    0.10       1.0  T
   3   -104.6703314 -0.224794E+02  0.229E+00    0.13       1.0  T
   4   -106.0940476 -0.142372E+01  0.453E-01    0.20       1.0  T
   5   -105.3055904  0.788457E+00  0.178E+00    0.19       1.0  T
   6   -106.1335498 -0.827959E+00  0.274E-01    0.22       1.0  T
   7   -106.1067676  0.267823E-01  0.397E-01    0.22       1.0  T
   8   -106.1149044 -0.813683E-02  0.362E-01    0.20       1.0  T
   9   -106.1479588 -0.330544E-01  0.799E-02    0.21       1.0  T
  10   -106.1485327 -0.573978E-03  0.642E-02    0.21       1.0  T
  11   -106.1490069 -0.474112E-03  0.499E-02    0.21       1.0  T
  12   -106.1493515 -0.344622E-03  0.349E-02    0.21       1.0  T
  13   -106.1495570 -0.205482E-03  0.217E-02    0.21       1.0  T
  14   -106.1496233 -0.663220E-04  0.149E-02    0.21       1.0  T
  15   -106.1496591 -0.358597E-04  0.933E-03    0.21       1.3  T
  16   -106.1496759 -0.167906E-04  0.462E-03    0.21       2.7  T
  17   -106.1496796 -0.370424E-05  0.266E-03    0.21       4.7  T
  18   -106.1496809 -0.121281E-05  0.153E-03    0.21       8.2  T
  19   -106.1496814 -0.587418E-06  0.343E-04    0.21      36.4  T
  20   -106.1496815 -0.229735E-07  0.190E-04    0.21      65.8  T
  21   -106.1496815 -0.100104E-07  0.297E-05    0.21     420.4  T
     SCC iter.                  ...        0 min,  2.218 sec
     gradient                   ...        0 min,  0.137 sec
 * total energy  :  -105.3372824 Eh     change       -0.1583766E-02 Eh
   gradient norm :     0.0137429 Eh/α   predicted    -0.1398883E-02 ( -11.67%)
   displ. norm   :     0.5161989 α      lambda       -0.1604787E-02
   maximum displ.:     0.2245856 α      in ANC's #1, #11, #14, ...

........................................................................
.............................. CYCLE   11 ..............................
........................................................................

 iter      E             dE          RMSdq      gap      omega  full diag
   1   -106.1404259 -0.106140E+03  0.197E-01    0.21       0.0  T
   2    -82.6811004  0.234593E+02  0.842E+00    0.27       1.0  T
   3   -105.7820035 -0.231009E+02  0.115E+00    0.18       1.0  T
   4   -106.0668713 -0.284868E+00  0.561E-01    0.22       1.0  T
   5   -106.0008062  0.660651E-01  0.760E-01    0.21       1.0  T
   6   -105.9897467  0.110595E-01  0.783E-01    0.24       1.0  T
   7   -106.1330202 -0.143273E+00  0.251E-01    0.21       1.0  T
   8   -106.1320111  0.100907E-02  0.267E-01    0.22       1.0  T
   9   -106.1495360 -0.175249E-01  0.648E-02    0.21       1.0  T
  10   -106.1502382 -0.702176E-03  0.409E-02    0.22       1.0  T
  11   -106.1504082 -0.169979E-03  0.317E-02    0.22       1.0  T
  12   -106.1505126 -0.104453E-03  0.241E-02    0.21       1.0  T
  13   -106.1506317 -0.119072E-03  0.123E-02    0.21       1.0  T
  14   -106.1506495 -0.178393E-04  0.901E-03    0.21       1.4  T
  15   -106.1506594 -0.985761E-05  0.657E-03    0.21       1.9  T
  16   -106.1506696 -0.101903E-04  0.188E-03    0.21       6.7  T
  17   -106.1506702 -0.632932E-06  0.110E-03    0.21      11.4  T
  18   -106.1506705 -0.241640E-06  0.588E-04    0.21      21.3  T
  19   -106.1506706 -0.940561E-07  0.768E-05    0.21     162.7  T
  20   -106.1506706 -0.108280E-08  0.422E-05    0.21     296.1  T
     SCC iter.                  ...        0 min,  2.219 sec
     gradient                   ...        0 min,  0.100 sec
 * total energy  :  -105.3385254 Eh     change       -0.1243050E-02 Eh
   gradient norm :     0.0107438 Eh/α   predicted    -0.1016204E-02 ( -18.25%)
   displ. norm   :     0.6166334 α      lambda       -0.1468984E-02
   maximum displ.:     0.2557672 α      in ANC's #1, #13, #11, ...

........................................................................
.............................. CYCLE   12 ..............................
........................................................................

 iter      E             dE          RMSdq      gap      omega  full diag
   1   -106.1382802 -0.106138E+03  0.206E-01    0.21       0.0  T
   2    -86.1437809  0.199945E+02  0.796E+00    0.06       1.0  T
   3   -104.1142065 -0.179704E+02  0.277E+00    0.12       1.0  T
   4   -106.0635832 -0.194938E+01  0.570E-01    0.23       1.0  T
   5   -105.8598672  0.203716E+00  0.103E+00    0.18       1.0  T
   6   -106.0877193 -0.227852E+00  0.486E-01    0.21       1.0  T
   7   -105.9334275  0.154292E+00  0.885E-01    0.19       1.0  T
   8   -106.1479279 -0.214500E+00  0.938E-02    0.22       1.0  T
   9   -106.1482362 -0.308364E-03  0.809E-02    0.21       1.0  T
  10   -106.1490958 -0.859575E-03  0.592E-02    0.21       1.0  T
  11   -106.1494333 -0.337478E-03  0.463E-02    0.21       1.0  T
  12   -106.1497444 -0.311171E-03  0.295E-02    0.21       1.0  T
  13   -106.1498988 -0.154325E-03  0.164E-02    0.21       1.0  T
  14   -106.1499275 -0.287019E-04  0.127E-02    0.21       1.0  T
  15   -106.1499505 -0.230110E-04  0.855E-03    0.21       1.5  T
  16   -106.1499681 -0.175901E-04  0.250E-03    0.21       5.0  T
  17   -106.1499696 -0.148670E-05  0.749E-04    0.21      16.7  T
  18   -106.1499697 -0.107226E-06  0.401E-04    0.21      31.2  T
  19   -106.1499697 -0.331837E-07  0.164E-04    0.21      76.0  T
  20   -106.1499697 -0.433042E-08  0.932E-05    0.21     134.1  T
     SCC iter.                  ...        0 min,  2.359 sec
     gradient                   ...        0 min,  0.104 sec
 * total energy  :  -105.3396562 Eh     change       -0.1130740E-02 Eh
   gradient norm :     0.0101523 Eh/α   predicted    -0.1013776E-02 ( -10.34%)
   displ. norm   :     0.6034843 α      lambda       -0.1146892E-02
   maximum displ.:     0.2496562 α      in ANC's #1, #13, #11, ...

........................................................................
.............................. CYCLE   13 ..............................
........................................................................

 iter      E             dE          RMSdq      gap      omega  full diag
   1   -106.1457708 -0.106146E+03  0.146E-01    0.22       0.0  T
   2    -97.4940750  0.865170E+01  0.544E+00    0.05       1.0  T
   3   -105.6853578 -0.819128E+01  0.132E+00    0.19       1.0  T
   4   -106.1391417 -0.453784E+00  0.212E-01    0.22       1.0  T
   5   -105.9154139  0.223728E+00  0.920E-01    0.22       1.0  T
   6   -106.1345470 -0.219133E+00  0.264E-01    0.23       1.0  T
   7   -106.1325121  0.203493E-02  0.265E-01    0.21       1.0  T
   8   -106.1501840 -0.176719E-01  0.676E-02    0.22       1.0  T
   9   -106.1505052 -0.321233E-03  0.583E-02    0.22       1.0  T
  10   -106.1509646 -0.459392E-03  0.413E-02    0.22       1.0  T
  11   -106.1510932 -0.128632E-03  0.345E-02    0.22       1.0  T
  12   -106.1513122 -0.218969E-03  0.183E-02    0.22       1.0  T
  13   -106.1513622 -0.499742E-04  0.120E-02    0.22       1.0  T
  14   -106.1513824 -0.201839E-04  0.780E-03    0.22       1.6  T
  15   -106.1513961 -0.137129E-04  0.230E-03    0.22       5.4  T
  16   -106.1513972 -0.109838E-05  0.970E-04    0.22      12.9  T
  17   -106.1513973 -0.162686E-06  0.556E-04    0.22      22.5  T
  18   -106.1513974 -0.598720E-07  0.300E-04    0.22      41.7  T
  19   -106.1513974 -0.239862E-07  0.394E-05    0.22     317.3  T
  20   -106.1513974 -0.354945E-09  0.139E-05    0.22     898.9  T
     SCC iter.                  ...        0 min,  2.106 sec
     gradient                   ...        0 min,  0.098 sec
 * total energy  :  -105.3405519 Eh     change       -0.8956955E-03 Eh
   gradient norm :     0.0097855 Eh/α   predicted    -0.7822945E-03 ( -12.66%)
   displ. norm   :     0.5823817 α      lambda       -0.1008747E-02
   maximum displ.:     0.2248757 α      in ANC's #13, #1, #11, ...

........................................................................
.............................. CYCLE   14 ..............................
........................................................................

 iter      E             dE          RMSdq      gap      omega  full diag
   1   -106.1530137 -0.106153E+03  0.116E-01    0.22       0.0  T
   2   -101.6045813  0.454843E+01  0.403E+00    0.07       1.0  T
   3   -106.0216122 -0.441703E+01  0.698E-01    0.24       1.0  T
   4   -106.1340527 -0.112440E+00  0.284E-01    0.21       1.0  T
   5   -105.9585057  0.175547E+00  0.865E-01    0.23       1.0  T
   6   -106.1556993 -0.197194E+00  0.535E-02    0.22       1.0  T
   7   -106.1364776  0.192217E-01  0.267E-01    0.22       1.0  T
   8   -106.1558260 -0.193484E-01  0.500E-02    0.22       1.0  T
   9   -106.1560256 -0.199616E-03  0.432E-02    0.22       1.0  T
  10   -106.1563021 -0.276471E-03  0.280E-02    0.22       1.0  T
  11   -106.1564641 -0.161974E-03  0.146E-02    0.22       1.0  T
  12   -106.1565205 -0.564186E-04  0.261E-03    0.22       4.8  T
  13   -106.1565206 -0.121489E-06  0.242E-03    0.22       5.2  T
  14   -106.1565213 -0.742324E-06  0.170E-03    0.22       7.3  T
  15   -106.1565220 -0.653228E-06  0.664E-04    0.22      18.8  T
  16   -106.1565221 -0.107399E-06  0.201E-04    0.22      62.3  T
  17   -106.1565221 -0.821090E-08  0.949E-05    0.22     131.8  T
  18   -106.1565221 -0.180705E-08  0.458E-05    0.22     273.2  T
     SCC iter.                  ...        0 min,  1.934 sec
     gradient                   ...        0 min,  0.083 sec
 * total energy  :  -105.3413303 Eh     change       -0.7784564E-03 Eh
   gradient norm :     0.0092460 Eh/α   predicted    -0.6754474E-03 ( -13.23%)
   displ. norm   :     0.6867078 α      lambda       -0.1075936E-02
   maximum displ.:     0.2611051 α      in ANC's #13, #1, #11, ...

........................................................................
.............................. CYCLE   15 ..............................
........................................................................

 iter      E             dE          RMSdq      gap      omega  full diag
   1   -106.1495455 -0.106150E+03  0.101E-01    0.23       0.0  T
   2   -103.1960929  0.295345E+01  0.326E+00    0.09       1.0  T
   3   -106.0940564 -0.289796E+01  0.460E-01    0.24       1.0  T
   4   -106.1325897 -0.385332E-01  0.268E-01    0.22       1.0  T
   5   -106.0555447  0.770449E-01  0.602E-01    0.23       1.0  T
   6   -106.1482472 -0.927024E-01  0.124E-01    0.22       1.0  T
   7   -106.1489989 -0.751687E-03  0.110E-01    0.23       1.0  T
   8   -106.1459164  0.308251E-02  0.148E-01    0.23       1.0  T
   9   -106.1517595 -0.584311E-02  0.389E-02    0.23       1.0  T
  10   -106.1519629 -0.203405E-03  0.266E-02    0.23       1.0  T
  11   -106.1521011 -0.138192E-03  0.137E-02    0.23       1.0  T
  12   -106.1521359 -0.347997E-04  0.732E-03    0.23       1.7  T
  13   -106.1521406 -0.478621E-05  0.583E-03    0.23       2.1  T
  14   -106.1521462 -0.553733E-05  0.354E-03    0.23       3.5  T
  15   -106.1521491 -0.294431E-05  0.985E-04    0.23      12.7  T
  16   -106.1521493 -0.192619E-06  0.452E-04    0.23      27.7  T
  17   -106.1521494 -0.455565E-07  0.177E-04    0.23      70.4  T
  18   -106.1521494 -0.711837E-08  0.620E-05    0.23     201.5  T
     SCC iter.                  ...        0 min,  1.846 sec
     gradient                   ...        0 min,  0.101 sec
 * total energy  :  -105.3420656 Eh     change       -0.7353332E-03 Eh
   gradient norm :     0.0128871 Eh/α   predicted    -0.7916613E-03 (   7.66%)
   displ. norm   :     0.5405807 α      lambda       -0.1208784E-02
   maximum displ.:     0.2448259 α      in ANC's #13, #11, #7, ...

........................................................................
.............................. CYCLE   16 ..............................
........................................................................

 iter      E             dE          RMSdq      gap      omega  full diag
   1   -106.1590384 -0.106159E+03  0.720E-02    0.23       0.0  T
   2   -104.1847675  0.197427E+01  0.259E+00    0.08       1.0  T
   3   -106.1382576 -0.195349E+01  0.291E-01    0.22       1.0  T
   4   -106.1474783 -0.922067E-02  0.222E-01    0.22       1.0  T
   5   -106.1351851  0.122932E-01  0.307E-01    0.22       1.0  T
   6   -106.1582832 -0.230981E-01  0.907E-02    0.22       1.0  T
   7   -106.1599042 -0.162094E-02  0.482E-02    0.23       1.0  T
   8   -106.1556866  0.421755E-02  0.133E-01    0.22       1.0  T
   9   -106.1604545 -0.476785E-02  0.708E-03    0.22       1.8  T
  10   -106.1604396  0.148514E-04  0.921E-03    0.22       1.4  T
  11   -106.1604605 -0.208431E-04  0.264E-03    0.22       4.7  T
  12   -106.1604621 -0.162863E-05  0.807E-04    0.22      15.5  T
  13   -106.1604621  0.296010E-07  0.834E-04    0.22      15.0  T
  14   -106.1604622 -0.121154E-06  0.527E-04    0.22      23.7  T
  15   -106.1604622 -0.521063E-07  0.278E-04    0.22      45.0  T
  16   -106.1604622 -0.858883E-08  0.202E-04    0.22      61.8  T
  17   -106.1604622 -0.899922E-08  0.681E-05    0.22     183.5  T
  18   -106.1604622 -0.981800E-09  0.251E-05    0.22     498.0  T
     SCC iter.                  ...        0 min,  1.967 sec
     gradient                   ...        0 min,  0.083 sec
 * total energy  :  -105.3428367 Eh     change       -0.7710735E-03 Eh
   gradient norm :     0.0115927 Eh/α   predicted    -0.7810129E-03 (   1.29%)
   displ. norm   :     0.6223904 α      lambda       -0.1371516E-02
   maximum displ.:     0.2611509 α      in ANC's #13, #11, #29, ...

........................................................................
.............................. CYCLE   17 ..............................
........................................................................

 iter      E             dE          RMSdq      gap      omega  full diag
   1   -106.1579143 -0.106158E+03  0.103E-01    0.22       0.0  T
   2   -100.9790637  0.517885E+01  0.418E+00    0.05       1.0  T
   3   -106.1240264 -0.514496E+01  0.373E-01    0.22       1.0  T
   4   -106.1275138 -0.348736E-02  0.357E-01    0.22       1.0  T
   5   -106.1105530  0.169608E-01  0.436E-01    0.23       1.0  T
   6   -106.1604982 -0.499452E-01  0.403E-02    0.22       1.0  T
   7   -106.1486675  0.118308E-01  0.213E-01    0.23       1.0  T
   8   -106.1604484 -0.117809E-01  0.427E-02    0.22       1.0  T
   9   -106.1606962 -0.247835E-03  0.309E-02    0.22       1.0  T
  10   -106.1608755 -0.179239E-03  0.136E-02    0.22       1.0  T
  11   -106.1609186 -0.430915E-04  0.458E-03    0.22       2.7  T
  12   -106.1609228 -0.425882E-05  0.227E-03    0.22       5.5  T
  13   -106.1609236 -0.808515E-06  0.148E-03    0.22       8.4  T
  14   -106.1609240 -0.356842E-06  0.955E-04    0.22      13.1  T
  15   -106.1609241 -0.143140E-06  0.623E-04    0.22      20.1  T
  16   -106.1609242 -0.370903E-07  0.481E-04    0.22      26.0  T
  17   -106.1609242 -0.464724E-07  0.223E-04    0.22      56.0  T
  18   -106.1609242 -0.106076E-07  0.800E-05    0.22     156.3  T
  19   -106.1609242 -0.145076E-08  0.193E-05    0.22     647.6  T
     SCC iter.                  ...        0 min,  1.944 sec
     gradient                   ...        0 min,  0.141 sec
 * total energy  :  -105.3436470 Eh     change       -0.8103080E-03 Eh
   gradient norm :     0.0158781 Eh/α   predicted    -0.9514037E-03 (  17.41%)
   displ. norm   :     0.4894405 α      lambda       -0.1085708E-02
   maximum displ.:     0.2090473 α      in ANC's #13, #11, #7, ...

........................................................................
.............................. CYCLE   18 ..............................
........................................................................

 iter      E             dE          RMSdq      gap      omega  full diag
   1   -106.1530509 -0.106153E+03  0.733E-02    0.22       0.0  T
   2   -103.4302231  0.272283E+01  0.312E+00    0.16       1.0  T
   3   -106.1209384 -0.269072E+01  0.354E-01    0.21       1.0  T
   4   -106.1377220 -0.167836E-01  0.247E-01    0.22       1.0  T
   5   -106.1117655  0.259565E-01  0.388E-01    0.21       1.0  T
   6   -106.1485493 -0.367838E-01  0.153E-01    0.22       1.0  T
   7   -106.1491966 -0.647331E-03  0.138E-01    0.22       1.0  T
   8   -106.1529030 -0.370641E-02  0.745E-02    0.22       1.0  T
   9   -106.1543443 -0.144124E-02  0.169E-02    0.22       1.0  T
  10   -106.1543751 -0.308699E-04  0.122E-02    0.22       1.0  T
  11   -106.1544009 -0.257502E-04  0.691E-03    0.22       1.8  T
  12   -106.1544102 -0.928357E-05  0.323E-03    0.22       3.9  T
  13   -106.1544114 -0.118266E-05  0.239E-03    0.22       5.2  T
  14   -106.1544122 -0.801331E-06  0.160E-03    0.22       7.8  T
  15   -106.1544126 -0.461805E-06  0.847E-04    0.22      14.8  T
  16   -106.1544128 -0.125726E-06  0.476E-04    0.22      26.3  T
  17   -106.1544128 -0.392131E-07  0.265E-04    0.22      47.2  T
  18   -106.1544128 -0.166497E-07  0.660E-05    0.22     189.4  T
  19   -106.1544128 -0.103046E-08  0.161E-05    0.22     775.4  T
     SCC iter.                  ...        0 min,  1.981 sec
     gradient                   ...        0 min,  0.094 sec
 * total energy  :  -105.3444129 Eh     change       -0.7658229E-03 Eh
   gradient norm :     0.0133398 Eh/α   predicted    -0.6729013E-03 ( -12.13%)
   displ. norm   :     0.5001857 α      lambda       -0.1404747E-02
   maximum displ.:     0.1595137 α      in ANC's #20, #13, #9, ...

........................................................................
.............................. CYCLE   19 ..............................
........................................................................

 iter      E             dE          RMSdq      gap      omega  full diag
   1   -106.1496882 -0.106150E+03  0.194E-01    0.22       0.0  T
   2    -89.3611793  0.167885E+02  0.738E+00    0.15       1.0  T
   3   -106.0725326 -0.167114E+02  0.574E-01    0.21       1.0  T
   4   -106.0146961  0.578366E-01  0.737E-01    0.22       1.0  T
   5   -106.0953570 -0.806609E-01  0.490E-01    0.19       1.0  T
   6   -105.8615695  0.233788E+00  0.102E+00    0.21       1.0  T
   7   -106.1587905 -0.297221E+00  0.581E-02    0.21       1.0  T
   8   -106.1511259  0.766452E-02  0.174E-01    0.21       1.0  T
   9   -106.1586823 -0.755631E-02  0.574E-02    0.21       1.0  T
  10   -106.1594530 -0.770771E-03  0.243E-02    0.21       1.0  T
  11   -106.1594838 -0.307382E-04  0.214E-02    0.21       1.0  T
  12   -106.1595975 -0.113766E-03  0.661E-03    0.21       1.9  T
  13   -106.1596040 -0.641848E-05  0.448E-03    0.21       2.8  T
  14   -106.1596073 -0.334638E-05  0.276E-03    0.21       4.5  T
  15   -106.1596086 -0.131114E-05  0.168E-03    0.21       7.5  T
  16   -106.1596092 -0.592170E-06  0.767E-04    0.21      16.3  T
  17   -106.1596093 -0.110451E-06  0.420E-04    0.21      29.7  T
  18   -106.1596094 -0.388620E-07  0.179E-04    0.21      69.9  T
  19   -106.1596094 -0.770190E-08  0.513E-05    0.21     243.6  T
     SCC iter.                  ...        0 min,  2.005 sec
     gradient                   ...        0 min,  0.068 sec
 * total energy  :  -105.3451989 Eh     change       -0.7860493E-03 Eh
   gradient norm :     0.0120438 Eh/α   predicted    -0.8781024E-03 (  11.71%)
   displ. norm   :     0.6071134 α      lambda       -0.1167774E-02
   maximum displ.:     0.2347557 α      in ANC's #13, #11, #7, ...

........................................................................
.............................. CYCLE   20 ..............................
........................................................................

 iter      E             dE          RMSdq      gap      omega  full diag
   1   -106.1488330 -0.106149E+03  0.142E-01    0.21       0.0  T
   2    -99.4074305  0.674140E+01  0.491E+00    0.16       1.0  T
   3   -105.7736557 -0.636623E+01  0.115E+00    0.20       1.0  T
   4   -106.1283426 -0.354687E+00  0.305E-01    0.21       1.0  T
   5   -106.0169256  0.111417E+00  0.718E-01    0.22       1.0  T
   6   -106.1187321 -0.101806E+00  0.368E-01    0.19       1.0  T
   7   -106.1423777 -0.236456E-01  0.201E-01    0.21       1.0  T
   8   -106.1511006 -0.872294E-02  0.102E-01    0.21       1.0  T
   9   -106.1530179 -0.191730E-02  0.572E-02    0.21       1.0  T
  10   -106.1535539 -0.535961E-03  0.347E-02    0.21       1.0  T
  11   -106.1537388 -0.184966E-03  0.211E-02    0.21       1.0  T
  12   -106.1538045 -0.656376E-04  0.138E-02    0.21       1.0  T
  13   -106.1538418 -0.373029E-04  0.728E-03    0.21       1.7  T
  14   -106.1538549 -0.131267E-04  0.252E-03    0.21       5.0  T
  15   -106.1538564 -0.148577E-05  0.937E-04    0.21      13.3  T
  16   -106.1538565 -0.158994E-06  0.526E-04    0.21      23.8  T
  17   -106.1538566 -0.490193E-07  0.286E-04    0.21      43.7  T
  18   -106.1538566 -0.196622E-07  0.923E-05    0.21     135.4  T
  19   -106.1538566 -0.222612E-08  0.163E-05    0.21     764.7  T
     SCC iter.                  ...        0 min,  2.085 sec
     gradient                   ...        0 min,  0.086 sec
 * total energy  :  -105.3459413 Eh     change       -0.7423729E-03 Eh
   gradient norm :     0.0122815 Eh/α   predicted    -0.7991034E-03 (   7.64%)
   displ. norm   :     0.4313743 α      lambda       -0.9439970E-03
   maximum displ.:     0.1536458 α      in ANC's #9, #23, #20, ...
 * RMSD in coord.:     0.9403780 α      energy gain  -0.8073441E-01 Eh

generating ANC from model Hessian ...
Using Lindh-Hessian (1995)
 Shifting diagonal of input Hessian by    1.4643411013965603E-002
 Lowest  eigenvalues of input Hessian
    0.010000    0.013948    0.014589    0.014604    0.014627    0.000000
    0.000000    0.000000    0.000000    0.000000    0.000000    0.014649
    0.014684    0.014785    0.014849    0.014882    0.014920    0.015020
 Highest eigenvalues
    1.213631    1.555888    1.841706    1.926340    2.031689    2.126039


........................................................................
.............................. CYCLE   21 ..............................
........................................................................

 iter      E             dE          RMSdq      gap      omega  full diag
   1   -106.1527694 -0.106153E+03  0.150E-01    0.20       0.0  T
   2    -99.8940556  0.625871E+01  0.478E+00    0.14       1.0  T
   3   -105.8186896 -0.592463E+01  0.112E+00    0.25       1.0  T
   4   -106.1483268 -0.329637E+00  0.204E-01    0.20       1.0  T
   5   -105.9930024  0.155324E+00  0.777E-01    0.20       1.0  T
   6   -106.1335040 -0.140502E+00  0.316E-01    0.20       1.0  T
   7   -106.1564272 -0.229232E-01  0.962E-02    0.21       1.0  T
   8   -106.1299902  0.264369E-01  0.315E-01    0.20       1.0  T
   9   -106.1577406 -0.277504E-01  0.624E-02    0.20       1.0  T
  10   -106.1584362 -0.695568E-03  0.355E-02    0.20       1.0  T
  11   -106.1585333 -0.971482E-04  0.290E-02    0.20       1.0  T
  12   -106.1587199 -0.186619E-03  0.117E-02    0.20       1.1  T
  13   -106.1587470 -0.270979E-04  0.569E-03    0.20       2.2  T
  14   -106.1587544 -0.735671E-05  0.209E-03    0.20       6.0  T
  15   -106.1587553 -0.972415E-06  0.813E-04    0.20      15.4  T
  16   -106.1587554 -0.959813E-07  0.530E-04    0.20      23.6  T
  17   -106.1587555 -0.443649E-07  0.326E-04    0.20      38.4  T
  18   -106.1587555 -0.249653E-07  0.824E-05    0.20     151.6  T
  19   -106.1587555 -0.168492E-08  0.115E-05    0.20    1088.2  T
     SCC iter.                  ...        0 min,  2.110 sec
     gradient                   ...        0 min,  0.084 sec
 * total energy  :  -105.3465282 Eh     change       -0.5869230E-03 Eh
   gradient norm :     0.0107753 Eh/α   predicted     0.0000000E+00 (-100.00%)
   displ. norm   :     0.1174172 α      lambda       -0.5225981E-03
   maximum displ.:     0.0433062 α      in ANC's #16, #38, #1, ...

........................................................................
.............................. CYCLE   22 ..............................
........................................................................

 iter      E             dE          RMSdq      gap      omega  full diag
   1   -106.1599331 -0.106160E+03  0.793E-02    0.20       0.0  T
   2   -104.6463640  0.151357E+01  0.234E+00    0.17       1.0  T
   3   -106.1303081 -0.148394E+01  0.333E-01    0.20       1.0  T
   4   -106.1500792 -0.197711E-01  0.205E-01    0.20       1.0  T
   5   -106.1601563 -0.100771E-01  0.810E-02    0.20       1.0  T
   6   -106.1584300  0.172629E-02  0.105E-01    0.21       1.0  T
   7   -106.1607546 -0.232459E-02  0.525E-02    0.20       1.0  T
   8   -106.1597621  0.992450E-03  0.810E-02    0.20       1.0  T
   9   -106.1613578 -0.159572E-02  0.242E-02    0.20       1.0  T
  10   -106.1614557 -0.978439E-04  0.147E-02    0.20       1.0  T
  11   -106.1614999 -0.442489E-04  0.734E-03    0.20       1.7  T
  12   -106.1615140 -0.140823E-04  0.196E-03    0.20       6.4  T
  13   -106.1615147 -0.668628E-06  0.111E-03    0.20      11.2  T
  14   -106.1615150 -0.296010E-06  0.405E-04    0.20      30.9  T
  15   -106.1615150 -0.355339E-07  0.172E-04    0.20      72.5  T
  16   -106.1615150 -0.584957E-08  0.890E-05    0.20     140.4  T
     SCC iter.                  ...        0 min,  1.721 sec
     gradient                   ...        0 min,  0.103 sec
 * total energy  :  -105.3468983 Eh     change       -0.3700684E-03 Eh
   gradient norm :     0.0039049 Eh/α   predicted    -0.2649019E-03 ( -28.42%)
   displ. norm   :     0.2209691 α      lambda       -0.4783408E-03
   maximum displ.:     0.0955538 α      in ANC's #38, #16, #6, ...

........................................................................
.............................. CYCLE   23 ..............................
........................................................................

 iter      E             dE          RMSdq      gap      omega  full diag
   1   -106.1635689 -0.106164E+03  0.477E-02    0.20       0.0  T
   2   -105.6408943  0.522675E+00  0.138E+00    0.18       1.0  T
   3   -106.1620287 -0.521134E+00  0.953E-02    0.21       1.0  T
   4   -106.1399765  0.220522E-01  0.302E-01    0.19       1.0  T
   5   -106.1630796 -0.231031E-01  0.662E-02    0.20       1.0  T
   6   -106.1468792  0.162005E-01  0.251E-01    0.20       1.0  T
   7   -106.1640343 -0.171551E-01  0.203E-02    0.20       1.0  T
   8   -106.1613635  0.267072E-02  0.992E-02    0.20       1.0  T
   9   -106.1641256 -0.276205E-02  0.866E-03    0.20       1.4  T
  10   -106.1641388 -0.132465E-04  0.515E-03    0.20       2.4  T
  11   -106.1641440 -0.515368E-05  0.233E-03    0.20       5.4  T
  12   -106.1641452 -0.117512E-05  0.921E-04    0.20      13.6  T
  13   -106.1641454 -0.200893E-06  0.343E-04    0.20      36.5  T
  14   -106.1641454 -0.237078E-07  0.172E-04    0.20      72.6  T
  15   -106.1641454 -0.376967E-08  0.120E-04    0.20     104.2  T
     SCC iter.                  ...        0 min,  1.639 sec
     gradient                   ...        0 min,  0.090 sec
 * total energy  :  -105.3472437 Eh     change       -0.3454723E-03 Eh
   gradient norm :     0.0057606 Eh/α   predicted    -0.2509155E-03 ( -27.37%)
   displ. norm   :     0.3697033 α      lambda       -0.5438786E-03
   maximum displ.:     0.1624220 α      in ANC's #38, #16, #36, ...

........................................................................
.............................. CYCLE   24 ..............................
........................................................................

 iter      E             dE          RMSdq      gap      omega  full diag
   1   -106.1621683 -0.106162E+03  0.908E-02    0.19       0.0  T
   2   -103.6529410  0.250923E+01  0.300E+00    0.18       1.0  T
   3   -106.1116459 -0.245870E+01  0.444E-01    0.20       1.0  T
   4   -106.1558976 -0.442517E-01  0.177E-01    0.20       1.0  T
   5   -106.1192554  0.366422E-01  0.407E-01    0.19       1.0  T
   6   -106.1601380 -0.408826E-01  0.132E-01    0.19       1.0  T
   7   -106.1624454 -0.230735E-02  0.827E-02    0.20       1.0  T
   8   -106.1627046 -0.259226E-03  0.776E-02    0.20       1.0  T
   9   -106.1642130 -0.150841E-02  0.223E-02    0.20       1.0  T
  10   -106.1642962 -0.831522E-04  0.142E-02    0.20       1.0  T
  11   -106.1643468 -0.506045E-04  0.382E-03    0.20       3.3  T
  12   -106.1643501 -0.330452E-05  0.150E-03    0.20       8.3  T
  13   -106.1643506 -0.479484E-06  0.735E-04    0.20      17.0  T
  14   -106.1643506 -0.280233E-07  0.655E-04    0.20      19.1  T
  15   -106.1643507 -0.951805E-07  0.292E-04    0.20      42.7  T
  16   -106.1643507 -0.155992E-07  0.156E-04    0.20      80.1  T
  17   -106.1643507 -0.639643E-08  0.385E-05    0.20     324.3  T
     SCC iter.                  ...        0 min,  1.830 sec
     gradient                   ...        0 min,  0.108 sec
 * total energy  :  -105.3476472 Eh     change       -0.4034986E-03 Eh
   gradient norm :     0.0110129 Eh/α   predicted    -0.3091101E-03 ( -23.39%)
   displ. norm   :     0.4311467 α      lambda       -0.5893335E-03
   maximum displ.:     0.2055415 α      in ANC's #16, #38, #6, ...

........................................................................
.............................. CYCLE   25 ..............................
........................................................................

 iter      E             dE          RMSdq      gap      omega  full diag
   1   -106.1612968 -0.106161E+03  0.569E-02    0.19       0.0  T
   2   -105.3204405  0.840856E+00  0.177E+00    0.23       1.0  T
   3   -106.1393691 -0.818929E+00  0.296E-01    0.20       1.0  T
   4   -106.1575829 -0.182138E-01  0.132E-01    0.20       1.0  T
   5   -106.1457601  0.118228E-01  0.242E-01    0.19       1.0  T
   6   -106.1573463 -0.115862E-01  0.134E-01    0.19       1.0  T
   7   -106.1613781 -0.403177E-02  0.538E-02    0.19       1.0  T
   8   -106.1601489  0.122914E-02  0.848E-02    0.19       1.0  T
   9   -106.1620259 -0.187695E-02  0.222E-02    0.19       1.0  T
  10   -106.1621377 -0.111824E-03  0.832E-03    0.19       1.5  T
  11   -106.1621505 -0.128149E-04  0.408E-03    0.19       3.1  T
  12   -106.1621523 -0.182584E-05  0.330E-03    0.19       3.8  T
  13   -106.1621534 -0.103291E-05  0.262E-03    0.19       4.8  T
  14   -106.1621546 -0.123775E-05  0.142E-03    0.19       8.8  T
  15   -106.1621551 -0.523756E-06  0.166E-04    0.19      75.1  T
  16   -106.1621551 -0.601250E-08  0.599E-05    0.19     208.5  T
     SCC iter.                  ...        0 min,  1.752 sec
     gradient                   ...        0 min,  0.088 sec
 * total energy  :  -105.3480761 Eh     change       -0.4288365E-03 Eh
   gradient norm :     0.0131807 Eh/α   predicted    -0.3494421E-03 ( -18.51%)
   displ. norm   :     0.3806239 α      lambda       -0.7130299E-03
   maximum displ.:     0.1986426 α      in ANC's #16, #6, #38, ...

........................................................................
.............................. CYCLE   26 ..............................
........................................................................

 iter      E             dE          RMSdq      gap      omega  full diag
   1   -106.1603059 -0.106160E+03  0.607E-02    0.19       0.0  T
   2   -104.9384782  0.122183E+01  0.211E+00    0.26       1.0  T
   3   -106.1551350 -0.121666E+01  0.155E-01    0.19       1.0  T
   4   -106.1465967  0.853833E-02  0.236E-01    0.19       1.0  T
   5   -106.1509270 -0.433036E-02  0.191E-01    0.19       1.0  T
   6   -106.1596888 -0.876172E-02  0.741E-02    0.19       1.0  T
   7   -106.1598291 -0.140312E-03  0.752E-02    0.19       1.0  T
   8   -106.1600440 -0.214903E-03  0.677E-02    0.19       1.0  T
   9   -106.1610156 -0.971618E-03  0.318E-02    0.19       1.0  T
  10   -106.1612185 -0.202868E-03  0.152E-02    0.19       1.0  T
  11   -106.1612633 -0.448033E-04  0.723E-03    0.19       1.7  T
  12   -106.1612753 -0.120627E-04  0.244E-03    0.19       5.1  T
  13   -106.1612768 -0.142611E-05  0.109E-03    0.19      11.5  T
  14   -106.1612768 -0.428789E-07  0.986E-04    0.19      12.7  T
  15   -106.1612770 -0.204194E-06  0.418E-04    0.19      29.9  T
  16   -106.1612770 -0.384313E-07  0.142E-04    0.19      88.1  T
  17   -106.1612771 -0.473186E-08  0.402E-05    0.19     311.0  T
     SCC iter.                  ...        0 min,  1.796 sec
     gradient                   ...        0 min,  0.092 sec
 * total energy  :  -105.3486027 Eh     change       -0.5266357E-03 Eh
   gradient norm :     0.0076762 Eh/α   predicted    -0.4081658E-03 ( -22.50%)
   displ. norm   :     0.4304316 α      lambda       -0.5229336E-03
   maximum displ.:     0.2231940 α      in ANC's #16, #6, #5, ...

........................................................................
.............................. CYCLE   27 ..............................
........................................................................

 iter      E             dE          RMSdq      gap      omega  full diag
   1   -106.1600036 -0.106160E+03  0.552E-02    0.18       0.0  T
   2   -105.1902774  0.969726E+00  0.189E+00    0.26       1.0  T
   3   -106.1464085 -0.956131E+00  0.236E-01    0.19       1.0  T
   4   -106.1561021 -0.969352E-02  0.133E-01    0.19       1.0  T
   5   -106.1427941  0.133080E-01  0.253E-01    0.18       1.0  T
   6   -106.1568631 -0.140690E-01  0.123E-01    0.19       1.0  T
   7   -106.1598098 -0.294672E-02  0.629E-02    0.19       1.0  T
   8   -106.1581826  0.162722E-02  0.977E-02    0.19       1.0  T
   9   -106.1605102 -0.232764E-02  0.353E-02    0.19       1.0  T
  10   -106.1607543 -0.244111E-03  0.176E-02    0.19       1.0  T
  11   -106.1608233 -0.689823E-04  0.625E-03    0.19       2.0  T
  12   -106.1608308 -0.750289E-05  0.329E-03    0.19       3.8  T
  13   -106.1608315 -0.701946E-06  0.290E-03    0.19       4.3  T
  14   -106.1608326 -0.111162E-05  0.199E-03    0.19       6.3  T
  15   -106.1608336 -0.987814E-06  0.298E-04    0.19      41.9  T
  16   -106.1608336 -0.217392E-07  0.220E-05    0.19     569.1  T
  17   -106.1608336  0.695763E-10  0.258E-05    0.19     485.1  T
     SCC iter.                  ...        0 min,  1.783 sec
     gradient                   ...        0 min,  0.109 sec
 * total energy  :  -105.3490156 Eh     change       -0.4128703E-03 Eh
   gradient norm :     0.0070570 Eh/α   predicted    -0.3099135E-03 ( -24.94%)
   displ. norm   :     0.5017174 α      lambda       -0.5405410E-03
   maximum displ.:     0.2496439 α      in ANC's #16, #6, #5, ...

........................................................................
.............................. CYCLE   28 ..............................
........................................................................

 iter      E             dE          RMSdq      gap      omega  full diag
   1   -106.1610163 -0.106161E+03  0.519E-02    0.18       0.0  T
   2   -105.2542543  0.906762E+00  0.182E+00    0.25       1.0  T
   3   -106.1540919 -0.899838E+00  0.172E-01    0.19       1.0  T
   4   -106.1534325  0.659344E-03  0.177E-01    0.18       1.0  T
   5   -106.1563040 -0.287143E-02  0.143E-01    0.18       1.0  T
   6   -106.1484209  0.788306E-02  0.222E-01    0.18       1.0  T
   7   -106.1610704 -0.126494E-01  0.518E-02    0.18       1.0  T
   8   -106.1586999  0.237048E-02  0.104E-01    0.18       1.0  T
   9   -106.1614381 -0.273828E-02  0.349E-02    0.18       1.0  T
  10   -106.1616740 -0.235814E-03  0.176E-02    0.18       1.0  T
  11   -106.1617450 -0.710619E-04  0.578E-03    0.18       2.2  T
  12   -106.1617526 -0.762011E-05  0.202E-03    0.18       6.2  T
  13   -106.1617528 -0.108708E-06  0.196E-03    0.18       6.4  T
  14   -106.1617531 -0.356218E-06  0.155E-03    0.18       8.0  T
  15   -106.1617537 -0.582542E-06  0.378E-04    0.18      33.1  T
  16   -106.1617537 -0.332275E-07  0.876E-05    0.18     142.8  T
  17   -106.1617537 -0.191218E-08  0.187E-05    0.18     670.0  T
     SCC iter.                  ...        0 min,  1.848 sec
     gradient                   ...        0 min,  0.081 sec
 * total energy  :  -105.3494539 Eh     change       -0.4383241E-03 Eh
   gradient norm :     0.0076677 Eh/α   predicted    -0.3383137E-03 ( -22.82%)
   displ. norm   :     0.6215406 α      lambda       -0.5801606E-03
   maximum displ.:     0.2918276 α      in ANC's #16, #6, #5, ...

........................................................................
.............................. CYCLE   29 ..............................
........................................................................

 iter      E             dE          RMSdq      gap      omega  full diag
   1   -106.1601451 -0.106160E+03  0.464E-02    0.18       0.0  T
   2   -105.4757474  0.684398E+00  0.157E+00    0.23       1.0  T
   3   -106.1570234 -0.681276E+00  0.120E-01    0.18       1.0  T
   4   -106.1430687  0.139547E-01  0.255E-01    0.18       1.0  T
   5   -106.1588383 -0.157696E-01  0.882E-02    0.18       1.0  T
   6   -106.1503470  0.849128E-02  0.197E-01    0.18       1.0  T
   7   -106.1600270 -0.967993E-02  0.512E-02    0.18       1.0  T
   8   -106.1577518  0.227520E-02  0.101E-01    0.18       1.0  T
   9   -106.1604239 -0.267219E-02  0.336E-02    0.18       1.0  T
  10   -106.1606534 -0.229426E-03  0.153E-02    0.18       1.0  T
  11   -106.1607110 -0.576085E-04  0.309E-03    0.18       4.0  T
  12   -106.1607127 -0.175444E-05  0.169E-03    0.18       7.4  T
  13   -106.1607129 -0.183433E-06  0.151E-03    0.18       8.3  T
  14   -106.1607133 -0.330643E-06  0.982E-04    0.18      12.7  T
  15   -106.1607135 -0.220584E-06  0.338E-04    0.18      37.0  T
  16   -106.1607135 -0.256815E-07  0.103E-04    0.18     121.0  T
  17   -106.1607135 -0.264046E-08  0.198E-05    0.18     631.2  T
     SCC iter.                  ...        0 min,  1.855 sec
     gradient                   ...        0 min,  0.083 sec
 * total energy  :  -105.3499175 Eh     change       -0.4635850E-03 Eh
   gradient norm :     0.0081924 Eh/α   predicted    -0.4021438E-03 ( -13.25%)
   displ. norm   :     0.6158587 α      lambda       -0.9531185E-03
   maximum displ.:     0.2532397 α      in ANC's #6, #16, #14, ...

........................................................................
.............................. CYCLE   30 ..............................
........................................................................

 iter      E             dE          RMSdq      gap      omega  full diag
   1   -106.1707515 -0.106171E+03  0.744E-02    0.18       0.0  T
   2   -104.0499897  0.212076E+01  0.277E+00    0.13       1.0  T
   3   -106.1405048 -0.209052E+01  0.337E-01    0.18       1.0  T
   4   -106.1500666 -0.956181E-02  0.279E-01    0.17       1.0  T
   5   -106.1342648  0.158018E-01  0.385E-01    0.18       1.0  T
   6   -106.1612165 -0.269517E-01  0.206E-01    0.17       1.0  T
   7   -106.1680020 -0.678543E-02  0.124E-01    0.18       1.0  T
   8   -106.1699748 -0.197280E-02  0.896E-02    0.18       1.0  T
   9   -106.1719937 -0.201893E-02  0.224E-02    0.18       1.0  T
  10   -106.1720461 -0.524378E-04  0.158E-02    0.18       1.0  T
  11   -106.1721060 -0.599142E-04  0.478E-03    0.18       2.6  T
  12   -106.1721107 -0.460428E-05  0.214E-03    0.18       5.8  T
  13   -106.1721115 -0.842788E-06  0.118E-03    0.18      10.6  T
  14   -106.1721118 -0.263415E-06  0.613E-04    0.18      20.4  T
  15   -106.1721118 -0.635183E-07  0.341E-04    0.18      36.7  T
  16   -106.1721118 -0.245856E-07  0.156E-04    0.18      80.3  T
  17   -106.1721119 -0.469802E-08  0.727E-05    0.18     171.8  T
     SCC iter.                  ...        0 min,  1.791 sec
     gradient                   ...        0 min,  0.101 sec
 * total energy  :  -105.3501110 Eh     change       -0.1935585E-03 Eh
   gradient norm :     0.0185633 Eh/α   predicted    -0.6573119E-03 ( 239.59%)
   displ. norm   :     0.4380391 α      lambda       -0.9175414E-03
   maximum displ.:     0.2021355 α      in ANC's #16, #6, #5, ...

........................................................................
.............................. CYCLE   31 ..............................
........................................................................

 iter      E             dE          RMSdq      gap      omega  full diag
   1   -106.1637124 -0.106164E+03  0.255E-02    0.17       0.0  T
   2   -106.0947657  0.689466E-01  0.505E-01    0.19       1.0  T
   3   -106.1635416 -0.687759E-01  0.325E-02    0.17       1.0  T
   4   -106.1373080  0.262337E-01  0.312E-01    0.18       1.0  T
   5   -106.1636269 -0.263190E-01  0.266E-02    0.17       1.0  T
   6   -106.1551292  0.849775E-02  0.183E-01    0.17       1.0  T
   7   -106.1632235 -0.809433E-02  0.457E-02    0.17       1.0  T
   8   -106.1622287  0.994825E-03  0.730E-02    0.17       1.0  T
   9   -106.1636965 -0.146779E-02  0.181E-02    0.17       1.0  T
  10   -106.1637786 -0.820865E-04  0.288E-03    0.17       4.3  T
  11   -106.1637784  0.160834E-06  0.286E-03    0.17       4.4  T
  12   -106.1637806 -0.217928E-05  0.642E-04    0.17      19.5  T
  13   -106.1637806 -0.674721E-07  0.414E-04    0.17      30.2  T
  14   -106.1637807 -0.226496E-07  0.291E-04    0.17      43.0  T
  15   -106.1637807 -0.193153E-07  0.998E-05    0.17     125.3  T
  16   -106.1637807 -0.168252E-08  0.560E-05    0.17     223.3  T
     SCC iter.                  ...        0 min,  1.648 sec
     gradient                   ...        0 min,  0.114 sec
 * total energy  :  -105.3506847 Eh     change       -0.5736562E-03 Eh
   gradient norm :     0.0066971 Eh/α   predicted    -0.5467990E-03 (  -4.68%)
   displ. norm   :     0.4355832 α      lambda       -0.3250549E-03
   maximum displ.:     0.1947155 α      in ANC's #6, #16, #5, ...

........................................................................
.............................. CYCLE   32 ..............................
........................................................................

 iter      E             dE          RMSdq      gap      omega  full diag
   1   -106.1619777 -0.106162E+03  0.310E-02    0.17       0.0  T
   2   -105.8743119  0.287666E+00  0.102E+00    0.12       1.0  T
   3   -106.1566845 -0.282373E+00  0.142E-01    0.17       1.0  T
   4   -106.1582348 -0.155028E-02  0.117E-01    0.17       1.0  T
   5   -106.1583044 -0.695633E-04  0.123E-01    0.17       1.0  T
   6   -106.1596118 -0.130745E-02  0.992E-02    0.17       1.0  T
   7   -106.1616582 -0.204635E-02  0.462E-02    0.17       1.0  T
   8   -106.1582773  0.338084E-02  0.121E-01    0.17       1.0  T
   9   -106.1618801 -0.360276E-02  0.348E-02    0.17       1.0  T
  10   -106.1620993 -0.219157E-03  0.190E-02    0.17       1.0  T
  11   -106.1621673 -0.680330E-04  0.983E-03    0.17       1.3  T
  12   -106.1621897 -0.223705E-04  0.326E-03    0.17       3.8  T
  13   -106.1621914 -0.176401E-05  0.195E-03    0.17       6.4  T
  14   -106.1621922 -0.760285E-06  0.958E-04    0.17      13.0  T
  15   -106.1621924 -0.190464E-06  0.429E-04    0.17      29.1  T
  16   -106.1621924 -0.441654E-07  0.136E-04    0.17      91.6  T
  17   -106.1621924 -0.433738E-08  0.440E-05    0.17     284.1  T
     SCC iter.                  ...        0 min,  1.755 sec
     gradient                   ...        0 min,  0.109 sec
 * total energy  :  -105.3509511 Eh     change       -0.2664436E-03 Eh
   gradient norm :     0.0068162 Eh/α   predicted    -0.1933702E-03 ( -27.43%)
   displ. norm   :     0.4659762 α      lambda       -0.6729012E-03
   maximum displ.:     0.2287811 α      in ANC's #6, #22, #3, ...

........................................................................
.............................. CYCLE   33 ..............................
........................................................................

 iter      E             dE          RMSdq      gap      omega  full diag
   1   -106.1666049 -0.106167E+03  0.669E-02    0.17       0.0  T
   2   -103.8253545  0.234125E+01  0.291E+00    0.12       1.0  T
   3   -106.1427585 -0.231740E+01  0.311E-01    0.17       1.0  T
   4   -106.1077026  0.350559E-01  0.459E-01    0.17       1.0  T
   5   -106.1577066 -0.500041E-01  0.197E-01    0.17       1.0  T
   6   -106.0956263  0.620804E-01  0.507E-01    0.17       1.0  T
   7   -106.1649996 -0.693734E-01  0.100E-01    0.17       1.0  T
   8   -106.1475473  0.174524E-01  0.274E-01    0.17       1.0  T
   9   -106.1663649 -0.188177E-01  0.694E-02    0.17       1.0  T
  10   -106.1667663 -0.401358E-03  0.568E-02    0.17       1.0  T
  11   -106.1672089 -0.442565E-03  0.393E-02    0.17       1.0  T
  12   -106.1674715 -0.262654E-03  0.226E-02    0.17       1.0  T
  13   -106.1675412 -0.696864E-04  0.156E-02    0.17       1.0  T
  14   -106.1675680 -0.267537E-04  0.116E-02    0.17       1.1  T
  15   -106.1675988 -0.308117E-04  0.382E-03    0.17       3.3  T
  16   -106.1676023 -0.352084E-05  0.766E-04    0.17      16.3  T
  17   -106.1676024 -0.133841E-06  0.254E-04    0.17      49.2  T
  18   -106.1676024 -0.121942E-07  0.123E-04    0.17     101.5  T
  19   -106.1676024 -0.362512E-08  0.355E-05    0.17     352.1  T
     SCC iter.                  ...        0 min,  1.967 sec
     gradient                   ...        0 min,  0.092 sec
 * total energy  :  -105.3513680 Eh     change       -0.4168261E-03 Eh
   gradient norm :     0.0082548 Eh/α   predicted    -0.4095063E-03 (  -1.76%)
   displ. norm   :     0.6810607 α      lambda       -0.6544352E-03
   maximum displ.:     0.3186062 α      in ANC's #6, #16, #5, ...

........................................................................
.............................. CYCLE   34 ..............................
........................................................................

 iter      E             dE          RMSdq      gap      omega  full diag
   1   -106.1620353 -0.106162E+03  0.541E-02    0.16       0.0  T
   2   -105.4554710  0.706564E+00  0.160E+00    0.09       1.0  T
   3   -106.1463620 -0.690891E+00  0.251E-01    0.18       1.0  T
   4   -106.1426921  0.366997E-02  0.266E-01    0.15       1.0  T
   5   -106.1465980 -0.390590E-02  0.250E-01    0.18       1.0  T
   6   -106.1487164 -0.211842E-02  0.229E-01    0.17       1.0  T
   7   -106.1574397 -0.872336E-02  0.142E-01    0.17       1.0  T
   8   -106.1464523  0.109874E-01  0.245E-01    0.17       1.0  T
   9   -106.1603225 -0.138702E-01  0.948E-02    0.17       1.0  T
  10   -106.1618543 -0.153184E-02  0.551E-02    0.17       1.0  T
  11   -106.1625061 -0.651754E-03  0.233E-02    0.16       1.0  T
  12   -106.1626227 -0.116601E-03  0.926E-03    0.16       1.4  T
  13   -106.1626398 -0.170932E-04  0.453E-03    0.16       2.8  T
  14   -106.1626433 -0.357366E-05  0.261E-03    0.16       4.8  T
  15   -106.1626450 -0.160929E-05  0.830E-04    0.16      15.1  T
  16   -106.1626451 -0.155196E-06  0.334E-04    0.16      37.4  T
  17   -106.1626451 -0.258517E-07  0.119E-04    0.16     104.9  T
  18   -106.1626451 -0.333186E-08  0.427E-05    0.16     293.0  T
     SCC iter.                  ...        0 min,  1.872 sec
     gradient                   ...        0 min,  0.083 sec
 * total energy  :  -105.3518731 Eh     change       -0.5050980E-03 Eh
   gradient norm :     0.0087873 Eh/α   predicted    -0.4789967E-03 (  -5.17%)
   displ. norm   :     0.6202531 α      lambda       -0.7403266E-03
   maximum displ.:     0.3030450 α      in ANC's #6, #1, #22, ...

........................................................................
.............................. CYCLE   35 ..............................
........................................................................

 iter      E             dE          RMSdq      gap      omega  full diag
   1   -106.1596327 -0.106160E+03  0.856E-02    0.16       0.0  T
   2   -104.1801197  0.197951E+01  0.263E+00    0.12       1.0  T
   3   -106.1325092 -0.195239E+01  0.332E-01    0.17       1.0  T
   4   -106.0999140  0.325952E-01  0.473E-01    0.15       1.0  T
   5   -106.1313657 -0.314517E-01  0.341E-01    0.19       1.0  T
   6   -106.1312624  0.103319E-03  0.322E-01    0.15       1.0  T
   7   -106.1442844 -0.130220E-01  0.255E-01    0.18       1.0  T
   8   -106.1366599  0.762454E-02  0.310E-01    0.18       1.0  T
   9   -106.1554126 -0.187528E-01  0.150E-01    0.17       1.0  T
  10   -106.1592692 -0.385653E-02  0.883E-02    0.17       1.0  T
  11   -106.1610642 -0.179507E-02  0.327E-02    0.16       1.0  T
  12   -106.1612802 -0.215984E-03  0.156E-02    0.16       1.0  T
  13   -106.1613156 -0.353520E-04  0.106E-02    0.16       1.2  T
  14   -106.1613303 -0.146840E-04  0.754E-03    0.16       1.7  T
  15   -106.1613428 -0.125338E-04  0.287E-03    0.16       4.4  T
  16   -106.1613448 -0.198513E-05  0.720E-04    0.16      17.4  T
  17   -106.1613449 -0.108160E-06  0.312E-04    0.16      40.0  T
  18   -106.1613449 -0.198858E-07  0.137E-04    0.16      91.3  T
  19   -106.1613449 -0.462126E-08  0.265E-05    0.16     471.7  T
     SCC iter.                  ...        0 min,  1.966 sec
     gradient                   ...        0 min,  0.076 sec
 * total energy  :  -105.3525985 Eh     change       -0.7254326E-03 Eh
   gradient norm :     0.0123168 Eh/α   predicted    -0.5125713E-03 ( -29.34%)
   displ. norm   :     0.7876918 α      lambda       -0.1709232E-02
   maximum displ.:     0.3666120 α      in ANC's #1, #6, #22, ...

........................................................................
.............................. CYCLE   36 ..............................
........................................................................

 iter      E             dE          RMSdq      gap      omega  full diag
   1   -106.1466118 -0.106147E+03  0.289E-01    0.15       0.0  T
   2    -89.1443716  0.170022E+02  0.738E+00    0.04       1.0  T
   3   -103.3849989 -0.142406E+02  0.326E+00    0.17       1.0  T
   4   -106.1455591 -0.276056E+01  0.288E-01    0.15       1.0  T
   5   -105.5345455  0.611014E+00  0.152E+00    0.21       1.0  T
   6   -106.1314410 -0.596895E+00  0.383E-01    0.20       1.0  T
   7   -105.7801082  0.351333E+00  0.117E+00    0.16       1.0  T
   8   -106.1173958 -0.337288E+00  0.434E-01    0.20       1.0  T
   9   -106.1285201 -0.111243E-01  0.379E-01    0.19       1.0  T
  10   -106.1579530 -0.294330E-01  0.186E-01    0.18       1.0  T
  11   -106.1671567 -0.920370E-02  0.410E-02    0.17       1.0  T
  12   -106.1669713  0.185386E-03  0.499E-02    0.17       1.0  T
  13   -106.1672999 -0.328577E-03  0.327E-02    0.17       1.0  T
  14   -106.1675080 -0.208082E-03  0.150E-02    0.17       1.0  T
  15   -106.1675471 -0.390855E-04  0.879E-03    0.17       1.4  T
  16   -106.1675575 -0.104568E-04  0.620E-03    0.17       2.0  T
  17   -106.1675635 -0.591299E-05  0.423E-03    0.17       3.0  T
  18   -106.1675666 -0.311307E-05  0.259E-03    0.17       4.8  T
  19   -106.1675682 -0.165882E-05  0.882E-04    0.17      14.2  T
  20   -106.1675683 -0.860122E-07  0.679E-04    0.17      18.4  T
  21   -106.1675684 -0.113816E-06  0.139E-04    0.17      90.2  T
  22   -106.1675684 -0.489503E-08  0.287E-05    0.17     436.0  T
     SCC iter.                  ...        0 min,  2.545 sec
     gradient                   ...        0 min,  0.099 sec
 * total energy  :  -105.3541091 Eh     change       -0.1510581E-02 Eh
   gradient norm :     0.0286896 Eh/α   predicted    -0.1384874E-02 (  -8.32%)
   displ. norm   :     0.8908966 α      lambda       -0.2084946E-02
   maximum displ.:     0.4496951 α      in ANC's #1, #6, #22, ...

........................................................................
.............................. CYCLE   37 ..............................
........................................................................

 iter      E             dE          RMSdq      gap      omega  full diag
   1   -106.1043081 -0.106104E+03  0.500E-01    0.19       0.0  T
   2    -78.0591571  0.280452E+02  0.945E+00    0.09       1.0  T
   3    -86.2599748 -0.820082E+01  0.835E+00    0.07       1.0  T
   4   -104.6525711 -0.183926E+02  0.231E+00    0.12       1.0  T
   5   -105.7574239 -0.110485E+01  0.126E+00    0.23       1.0  T
   6   -105.8160991 -0.586752E-01  0.114E+00    0.18       1.0  T
   7   -104.1487849  0.166731E+01  0.268E+00    0.07       1.0  T
   8   -106.0724721 -0.192369E+01  0.613E-01    0.25       1.0  T
   9   -106.1065687 -0.340966E-01  0.481E-01    0.23       1.0  T
  10   -106.1373038 -0.307352E-01  0.336E-01    0.22       1.0  T
  11   -106.1628305 -0.255266E-01  0.128E-01    0.22       1.0  T
  12   -106.1674318 -0.460131E-02  0.244E-02    0.21       1.0  T
  13   -106.1671689  0.262892E-03  0.391E-02    0.21       1.0  T
  14   -106.1674475 -0.278625E-03  0.193E-02    0.21       1.0  T
  15   -106.1675062 -0.587089E-04  0.123E-02    0.21       1.0  T
  16   -106.1674981  0.816202E-05  0.131E-02    0.21       1.0  T
  17   -106.1675330 -0.348991E-04  0.559E-03    0.21       2.2  T
  18   -106.1675376 -0.469703E-05  0.366E-03    0.21       3.4  T
  19   -106.1675393 -0.161134E-05  0.261E-03    0.21       4.8  T
  20   -106.1675408 -0.154216E-05  0.992E-04    0.21      12.6  T
  21   -106.1675410 -0.235526E-06  0.266E-04    0.21      46.9  T
  22   -106.1675411 -0.173289E-07  0.506E-05    0.21     247.1  T
  23   -106.1675411 -0.458002E-09  0.267E-05    0.21     468.0  T
     SCC iter.                  ...        0 min,  2.590 sec
     gradient                   ...        0 min,  0.103 sec
 * total energy  :  -105.3563790 Eh     change       -0.2269879E-02 Eh
   gradient norm :     0.0511228 Eh/α   predicted    -0.1869886E-02 ( -17.62%)
   displ. norm   :     0.7186853 α      lambda       -0.2450089E-02
   maximum displ.:     0.3866091 α      in ANC's #1, #6, #18, ...

........................................................................
.............................. CYCLE   38 ..............................
........................................................................

 iter      E             dE          RMSdq      gap      omega  full diag
   1   -106.1048040 -0.106105E+03  0.502E-01    0.23       0.0  T
   2    -70.3266210  0.357782E+02  0.107E+01    0.17       1.0  T
   3    -82.1520270 -0.118254E+02  0.905E+00    0.15       1.0  T
   4   -104.3119012 -0.221599E+02  0.253E+00    0.14       1.0  T
   5   -105.8042782 -0.149238E+01  0.119E+00    0.25       1.0  T
   6   -105.6373659  0.166912E+00  0.140E+00    0.18       1.0  T
   7   -104.3420998  0.129527E+01  0.258E+00    0.16       1.0  T
   8   -106.1226356 -0.178054E+01  0.428E-01    0.25       1.0  T
   9   -106.1349230 -0.122875E-01  0.349E-01    0.24       1.0  T
  10   -106.1456120 -0.106890E-01  0.288E-01    0.24       1.0  T
  11   -106.1588569 -0.132449E-01  0.177E-01    0.24       1.0  T
  12   -106.1659933 -0.713634E-02  0.715E-02    0.24       1.0  T
  13   -106.1670164 -0.102310E-02  0.378E-02    0.24       1.0  T
  14   -106.1673804 -0.364078E-03  0.873E-03    0.24       1.4  T
  15   -106.1673989 -0.185064E-04  0.327E-03    0.24       3.8  T
  16   -106.1674001 -0.116694E-05  0.255E-03    0.24       4.9  T
  17   -106.1674004 -0.318564E-06  0.227E-03    0.24       5.5  T
  18   -106.1674008 -0.333216E-06  0.184E-03    0.24       6.8  T
  19   -106.1674013 -0.537892E-06  0.116E-03    0.24      10.7  T
  20   -106.1674015 -0.189784E-06  0.801E-04    0.24      15.6  T
  21   -106.1674016 -0.129616E-06  0.393E-04    0.24      31.8  T
  22   -106.1674016 -0.303745E-07  0.206E-04    0.24      60.8  T
  23   -106.1674017 -0.802970E-08  0.107E-04    0.24     116.7  T
  24   -106.1674017 -0.278693E-08  0.310E-05    0.24     402.8  T
     SCC iter.                  ...        0 min,  2.708 sec
     gradient                   ...        0 min,  0.104 sec
 * total energy  :  -105.3584157 Eh     change       -0.2036769E-02 Eh
   gradient norm :     0.0658121 Eh/α   predicted    -0.1857797E-02 (  -8.79%)
   displ. norm   :     0.6867391 α      lambda       -0.8434503E-02
   maximum displ.:     0.2890391 α      in ANC's #1, #23, #40, ...

........................................................................
.............................. CYCLE   39 ..............................
........................................................................

 iter      E             dE          RMSdq      gap      omega  full diag
   1   -106.0520010 -0.106052E+03  0.733E-01    0.28       0.0  T
   2    -70.6212127  0.354308E+02  0.103E+01    0.10       1.0  T
   3    -77.3061022 -0.668489E+01  0.940E+00    0.11       1.0  T
   4   -104.9269283 -0.276208E+02  0.211E+00    0.22       1.0  T
   5   -104.5401322  0.386796E+00  0.248E+00    0.25       1.0  T
   6   -105.6838590 -0.114373E+01  0.135E+00    0.26       1.0  T
   7   -106.0202767 -0.336418E+00  0.786E-01    0.25       1.0  T
   8   -105.8099281  0.210349E+00  0.119E+00    0.26       1.0  T
   9   -106.1178234 -0.307895E+00  0.493E-01    0.26       1.0  T
  10   -106.1355832 -0.177598E-01  0.420E-01    0.26       1.0  T
  11   -106.1503913 -0.148082E-01  0.339E-01    0.26       1.0  T
  12   -106.1760336 -0.256422E-01  0.140E-01    0.26       1.0  T
  13   -106.1799877 -0.395414E-02  0.708E-02    0.26       1.0  T
  14   -106.1809417 -0.953955E-03  0.364E-02    0.26       1.0  T
  15   -106.1811108 -0.169158E-03  0.249E-02    0.26       1.0  T
  16   -106.1812177 -0.106907E-03  0.146E-02    0.26       1.0  T
  17   -106.1812326 -0.148673E-04  0.126E-02    0.26       1.0  T
  18   -106.1812551 -0.224674E-04  0.843E-03    0.26       1.5  T
  19   -106.1812721 -0.170128E-04  0.288E-03    0.26       4.3  T
  20   -106.1812732 -0.111744E-05  0.197E-03    0.26       6.3  T
  21   -106.1812741 -0.875921E-06  0.879E-04    0.26      14.2  T
  22   -106.1812743 -0.199174E-06  0.258E-04    0.26      48.5  T
  23   -106.1812743 -0.173471E-07  0.390E-05    0.26     320.9  T
  24   -106.1812743 -0.236156E-09  0.214E-05    0.26     584.9  T
     SCC iter.                  ...        0 min,  2.747 sec
     gradient                   ...        0 min,  0.123 sec
 * total energy  :  -105.3614528 Eh     change       -0.3037087E-02 Eh
   gradient norm :     0.0639138 Eh/α   predicted    -0.6206154E-02 ( 104.35%)
   displ. norm   :     0.2983857 α      lambda       -0.6120273E-02
   maximum displ.:     0.0939969 α      in ANC's #23, #14, #3, ...

........................................................................
.............................. CYCLE   40 ..............................
........................................................................

 iter      E             dE          RMSdq      gap      omega  full diag
   1   -106.1392767 -0.106139E+03  0.384E-01    0.26       0.0  T
   2    -76.1552566  0.299840E+02  0.951E+00    0.10       1.0  T
   3   -104.3215759 -0.281663E+02  0.260E+00    0.21       1.0  T
   4   -106.1360623 -0.181449E+01  0.397E-01    0.26       1.0  T
   5   -105.7193254  0.416737E+00  0.132E+00    0.23       1.0  T
   6   -106.0360475 -0.316722E+00  0.732E-01    0.25       1.0  T
   7   -106.1554135 -0.119366E+00  0.295E-01    0.26       1.0  T
   8   -106.1593668 -0.395328E-02  0.270E-01    0.27       1.0  T
   9   -106.1786790 -0.193122E-01  0.356E-02    0.26       1.0  T
  10   -106.1785362  0.142819E-03  0.435E-02    0.27       1.0  T
  11   -106.1789400 -0.403813E-03  0.188E-02    0.27       1.0  T
  12   -106.1789695 -0.295491E-04  0.142E-02    0.26       1.0  T
  13   -106.1790067 -0.371442E-04  0.782E-03    0.26       1.6  T
  14   -106.1790205 -0.138466E-04  0.356E-03    0.26       3.5  T
  15   -106.1790237 -0.317483E-05  0.113E-03    0.26      11.1  T
  16   -106.1790240 -0.253985E-06  0.452E-04    0.26      27.6  T
  17   -106.1790240 -0.885348E-08  0.364E-04    0.26      34.4  T
  18   -106.1790240 -0.314669E-07  0.153E-04    0.26      81.7  T
  19   -106.1790240 -0.484522E-08  0.744E-05    0.26     168.1  T
     SCC iter.                  ...        0 min,  2.079 sec
     gradient                   ...        0 min,  0.113 sec
 * total energy  :  -105.3653869 Eh     change       -0.3934087E-02 Eh
   gradient norm :     0.0401690 Eh/α   predicted    -0.3332589E-02 ( -15.29%)
   displ. norm   :     0.4332507 α      lambda       -0.4521840E-02
   maximum displ.:     0.2135582 α      in ANC's #1, #2, #22, ...

........................................................................
.............................. CYCLE   41 ..............................
........................................................................

 iter      E             dE          RMSdq      gap      omega  full diag
   1   -106.1554253 -0.106155E+03  0.278E-01    0.28       0.0  T
   2    -82.6013780  0.235540E+02  0.880E+00    0.06       1.0  T
   3   -105.8338368 -0.232325E+02  0.113E+00    0.28       1.0  T
   4   -106.0859711 -0.252134E+00  0.574E-01    0.25       1.0  T
   5   -106.0598692  0.261019E-01  0.658E-01    0.26       1.0  T
   6   -106.0133552  0.465140E-01  0.766E-01    0.27       1.0  T
   7   -106.1686240 -0.155269E+00  0.157E-01    0.27       1.0  T
   8   -106.1214109  0.472131E-01  0.439E-01    0.27       1.0  T
   9   -106.1714915 -0.500806E-01  0.110E-01    0.27       1.0  T
  10   -106.1738424 -0.235090E-02  0.618E-02    0.27       1.0  T
  11   -106.1745293 -0.686827E-03  0.364E-02    0.27       1.0  T
  12   -106.1748291 -0.299797E-03  0.121E-02    0.27       1.0  T
  13   -106.1748585 -0.294302E-04  0.430E-03    0.27       2.9  T
  14   -106.1748595 -0.101931E-05  0.363E-03    0.27       3.4  T
  15   -106.1748615 -0.202884E-05  0.221E-03    0.27       5.6  T
  16   -106.1748627 -0.115945E-05  0.780E-04    0.27      16.0  T
  17   -106.1748628 -0.134918E-06  0.325E-04    0.27      38.5  T
  18   -106.1748629 -0.236436E-07  0.150E-04    0.27      83.5  T
  19   -106.1748629 -0.493488E-08  0.677E-05    0.27     184.7  T
     SCC iter.                  ...        0 min,  2.084 sec
     gradient                   ...        0 min,  0.077 sec
 * total energy  :  -105.3679179 Eh     change       -0.2531030E-02 Eh
   gradient norm :     0.0283048 Eh/α   predicted    -0.2685313E-02 (   6.10%)
   displ. norm   :     0.6825528 α      lambda       -0.5329754E-02
   maximum displ.:     0.2393336 α      in ANC's #18, #16, #1, ...

........................................................................
.............................. CYCLE   42 ..............................
........................................................................

 iter      E             dE          RMSdq      gap      omega  full diag
   1   -106.1101576 -0.106110E+03  0.484E-01    0.24       0.0  T
   2    -57.6447940  0.484654E+02  0.121E+01    0.14       1.0  T
   3    -93.6308536 -0.359861E+02  0.655E+00    0.07       1.0  T
   4   -105.0852820 -0.114544E+02  0.201E+00    0.21       1.0  T
   5   -104.8478125  0.237470E+00  0.222E+00    0.24       1.0  T
   6   -105.9452148 -0.109740E+01  0.946E-01    0.20       1.0  T
   7   -105.1895730  0.755642E+00  0.192E+00    0.18       1.0  T
   8   -106.1387316 -0.949159E+00  0.358E-01    0.25       1.0  T
   9   -106.1626608 -0.239292E-01  0.200E-01    0.25       1.0  T
  10   -106.1670963 -0.443546E-02  0.152E-01    0.25       1.0  T
  11   -106.1723840 -0.528772E-02  0.535E-02    0.25       1.0  T
  12   -106.1727609 -0.376895E-03  0.398E-02    0.25       1.0  T
  13   -106.1727796 -0.186531E-04  0.391E-02    0.25       1.0  T
  14   -106.1730584 -0.278805E-03  0.207E-02    0.25       1.0  T
  15   -106.1731109 -0.524964E-04  0.156E-02    0.25       1.0  T
  16   -106.1731187 -0.786507E-05  0.145E-02    0.25       1.0  T
  17   -106.1731659 -0.472197E-04  0.534E-03    0.25       2.3  T
  18   -106.1731726 -0.665439E-05  0.151E-03    0.25       8.3  T
  19   -106.1731730 -0.423279E-06  0.691E-04    0.25      18.1  T
  20   -106.1731731 -0.106990E-06  0.327E-04    0.25      38.2  T
  21   -106.1731731 -0.157153E-07  0.193E-04    0.25      64.8  T
  22   -106.1731732 -0.907526E-08  0.489E-05    0.25     255.6  T
     SCC iter.                  ...        0 min,  2.329 sec
     gradient                   ...        0 min,  0.105 sec
 * total energy  :  -105.3681060 Eh     change       -0.1880752E-03 Eh
   gradient norm :     0.0332766 Eh/α   predicted    -0.3906393E-02 (1977.04%)
   displ. norm   :     0.3325741 α      lambda       -0.4661070E-02
   maximum displ.:     0.1751668 α      in ANC's #1, #21, #28, ...
 * RMSD in coord.:     0.9440125 α      energy gain  -0.2216474E-01 Eh

generating ANC from model Hessian ...
Using Lindh-Hessian (1995)
 Shifting diagonal of input Hessian by    1.0691492213230090E-002
 Lowest  eigenvalues of input Hessian
    0.010000    0.010252    0.010553    0.010647    0.010688    0.000000
    0.000000    0.000000    0.000000    0.000000    0.000000    0.010718
    0.010757    0.010770    0.010825    0.010922    0.010939    0.011044
 Highest eigenvalues
    1.209738    1.552591    1.841724    1.923221    2.012389    2.116128


........................................................................
.............................. CYCLE   43 ..............................
........................................................................

 iter      E             dE          RMSdq      gap      omega  full diag
   1   -106.1579043 -0.106158E+03  0.280E-01    0.26       0.0  T
   2    -92.9654417  0.131925E+02  0.661E+00    0.05       1.0  T
   3   -101.0221523 -0.805671E+01  0.438E+00    0.11       1.0  T
   4   -106.0438765 -0.502172E+01  0.684E-01    0.27       1.0  T
   5   -105.9562225  0.876540E-01  0.885E-01    0.23       1.0  T
   6   -106.1518939 -0.195671E+00  0.316E-01    0.26       1.0  T
   7   -106.0451372  0.106757E+00  0.701E-01    0.25       1.0  T
   8   -106.1613188 -0.116182E+00  0.249E-01    0.25       1.0  T
   9   -106.1707601 -0.944135E-02  0.153E-01    0.26       1.0  T
  10   -106.1742341 -0.347396E-02  0.104E-01    0.26       1.0  T
  11   -106.1760016 -0.176754E-02  0.639E-02    0.25       1.0  T
  12   -106.1770965 -0.109485E-02  0.131E-02    0.25       1.0  T
  13   -106.1771248 -0.282985E-04  0.789E-03    0.25       1.6  T
  14   -106.1771351 -0.103600E-04  0.491E-03    0.25       2.5  T
  15   -106.1771393 -0.415439E-05  0.301E-03    0.25       4.2  T
  16   -106.1771410 -0.170252E-05  0.171E-03    0.25       7.3  T
  17   -106.1771418 -0.785897E-06  0.299E-04    0.25      41.8  T
  18   -106.1771418 -0.169549E-07  0.169E-04    0.25      74.1  T
  19   -106.1771418 -0.688296E-08  0.583E-05    0.25     214.5  T
     SCC iter.                  ...        0 min,  1.953 sec
     gradient                   ...        0 min,  0.099 sec
 * total energy  :  -105.3707206 Eh     change       -0.2614606E-02 Eh
   gradient norm :     0.0208441 Eh/α   predicted     0.0000000E+00 (-100.00%)
   displ. norm   :     0.2233477 α      lambda       -0.1695643E-02
   maximum displ.:     0.0823870 α      in ANC's #1, #19, #2, ...

........................................................................
.............................. CYCLE   44 ..............................
........................................................................

 iter      E             dE          RMSdq      gap      omega  full diag
   1   -106.1777211 -0.106178E+03  0.118E-01    0.26       0.0  T
   2   -102.4699161  0.370781E+01  0.371E+00    0.10       1.0  T
   3   -105.9429111 -0.347299E+01  0.921E-01    0.25       1.0  T
   4   -106.1723765 -0.229465E+00  0.183E-01    0.25       1.0  T
   5   -106.0937595  0.786170E-01  0.574E-01    0.25       1.0  T
   6   -106.1668683 -0.731088E-01  0.239E-01    0.25       1.0  T
   7   -106.1798229 -0.129546E-01  0.749E-02    0.25       1.0  T
   8   -106.1768101  0.301274E-02  0.126E-01    0.26       1.0  T
   9   -106.1812554 -0.444527E-02  0.163E-02    0.25       1.0  T
  10   -106.1812717 -0.163040E-04  0.134E-02    0.25       1.0  T
  11   -106.1813112 -0.394817E-04  0.654E-03    0.25       1.9  T
  12   -106.1813220 -0.108441E-04  0.121E-03    0.25      10.4  T
  13   -106.1813221 -0.104673E-07  0.117E-03    0.25      10.7  T
  14   -106.1813222 -0.101553E-06  0.958E-04    0.25      13.1  T
  15   -106.1813223 -0.183214E-06  0.477E-04    0.25      26.2  T
  16   -106.1813224 -0.576873E-07  0.106E-04    0.25     117.5  T
  17   -106.1813224 -0.159253E-08  0.694E-05    0.25     180.1  T
     SCC iter.                  ...        0 min,  1.796 sec
     gradient                   ...        0 min,  0.069 sec
 * total energy  :  -105.3719585 Eh     change       -0.1237901E-02 Eh
   gradient norm :     0.0075037 Eh/α   predicted    -0.8901378E-03 ( -28.09%)
   displ. norm   :     0.3695348 α      lambda       -0.1213865E-02
   maximum displ.:     0.1342372 α      in ANC's #1, #19, #2, ...

........................................................................
.............................. CYCLE   45 ..............................
........................................................................

 iter      E             dE          RMSdq      gap      omega  full diag
   1   -106.1807451 -0.106181E+03  0.102E-01    0.26       0.0  T
   2   -101.2359794  0.494477E+01  0.417E+00    0.08       1.0  T
   3   -105.9733357 -0.473736E+01  0.858E-01    0.25       1.0  T
   4   -106.1765117 -0.203176E+00  0.158E-01    0.25       1.0  T
   5   -106.0329170  0.143595E+00  0.749E-01    0.26       1.0  T
   6   -106.1800660 -0.147149E+00  0.114E-01    0.25       1.0  T
   7   -106.1829884 -0.292234E-02  0.409E-02    0.25       1.0  T
   8   -106.1743186  0.866980E-02  0.184E-01    0.25       1.0  T
   9   -106.1833210 -0.900244E-02  0.178E-02    0.25       1.0  T
  10   -106.1832211  0.999337E-04  0.249E-02    0.25       1.0  T
  11   -106.1833662 -0.145118E-03  0.105E-02    0.25       1.2  T
  12   -106.1833825 -0.162863E-04  0.676E-03    0.25       1.8  T
  13   -106.1833891 -0.657145E-05  0.458E-03    0.25       2.7  T
  14   -106.1833925 -0.343809E-05  0.294E-03    0.25       4.3  T
  15   -106.1833943 -0.179235E-05  0.141E-03    0.25       8.9  T
  16   -106.1833948 -0.502112E-06  0.383E-04    0.25      32.6  T
  17   -106.1833948 -0.321711E-07  0.168E-04    0.25      74.6  T
  18   -106.1833948 -0.670605E-08  0.544E-05    0.25     229.8  T
     SCC iter.                  ...        0 min,  1.991 sec
     gradient                   ...        0 min,  0.088 sec
 * total energy  :  -105.3728101 Eh     change       -0.8515768E-03 Eh
   gradient norm :     0.0071668 Eh/α   predicted    -0.6899656E-03 ( -18.98%)
   displ. norm   :     0.3987220 α      lambda       -0.7502831E-03
   maximum displ.:     0.1522979 α      in ANC's #1, #19, #3, ...

........................................................................
.............................. CYCLE   46 ..............................
........................................................................

 iter      E             dE          RMSdq      gap      omega  full diag
   1   -106.1794727 -0.106179E+03  0.114E-01    0.25       0.0  T
   2    -98.8601680  0.731930E+01  0.500E+00    0.07       1.0  T
   3   -105.6750505 -0.681488E+01  0.134E+00    0.22       1.0  T
   4   -106.1732798 -0.498229E+00  0.188E-01    0.25       1.0  T
   5   -105.8629651  0.310315E+00  0.109E+00    0.25       1.0  T
   6   -106.1731066 -0.310141E+00  0.197E-01    0.25       1.0  T
   7   -106.1654140  0.769253E-02  0.252E-01    0.25       1.0  T
   8   -106.1823327 -0.169187E-01  0.457E-02    0.25       1.0  T
   9   -106.1827887 -0.455909E-03  0.170E-02    0.25       1.0  T
  10   -106.1827489  0.397729E-04  0.198E-02    0.25       1.0  T
  11   -106.1828275 -0.786213E-04  0.104E-02    0.25       1.2  T
  12   -106.1828433 -0.157512E-04  0.685E-03    0.25       1.8  T
  13   -106.1828497 -0.641249E-05  0.486E-03    0.25       2.6  T
  14   -106.1828534 -0.372501E-05  0.320E-03    0.25       3.9  T
  15   -106.1828556 -0.219761E-05  0.150E-03    0.25       8.3  T
  16   -106.1828562 -0.573280E-06  0.418E-04    0.25      29.9  T
  17   -106.1828562 -0.319784E-07  0.236E-04    0.25      53.0  T
  18   -106.1828562 -0.142529E-07  0.546E-05    0.25     229.1  T
  19   -106.1828562 -0.762583E-09  0.109E-05    0.25    1142.6  T
     SCC iter.                  ...        0 min,  2.060 sec
     gradient                   ...        0 min,  0.086 sec
 * total energy  :  -105.3734012 Eh     change       -0.5911262E-03 Eh
   gradient norm :     0.0101900 Eh/α   predicted    -0.4347836E-03 ( -26.45%)
   displ. norm   :     0.4917281 α      lambda       -0.7767634E-03
   maximum displ.:     0.1864362 α      in ANC's #1, #3, #19, ...

........................................................................
.............................. CYCLE   47 ..............................
........................................................................

 iter      E             dE          RMSdq      gap      omega  full diag
   1   -106.1781979 -0.106178E+03  0.114E-01    0.25       0.0  T
   2    -96.6100045  0.956819E+01  0.561E+00    0.09       1.0  T
   3   -105.5731981 -0.896319E+01  0.147E+00    0.21       1.0  T
   4   -106.1696594 -0.596461E+00  0.210E-01    0.25       1.0  T
   5   -105.7245303  0.445129E+00  0.130E+00    0.24       1.0  T
   6   -106.1737129 -0.449183E+00  0.172E-01    0.25       1.0  T
   7   -106.1648666  0.884622E-02  0.246E-01    0.25       1.0  T
   8   -106.1809893 -0.161227E-01  0.561E-02    0.25       1.0  T
   9   -106.1814941 -0.504727E-03  0.218E-02    0.25       1.0  T
  10   -106.1815012 -0.718509E-05  0.205E-02    0.25       1.0  T
  11   -106.1815356 -0.343709E-04  0.168E-02    0.25       1.0  T
  12   -106.1815715 -0.358536E-04  0.121E-02    0.25       1.0  T
  13   -106.1815960 -0.245311E-04  0.773E-03    0.25       1.6  T
  14   -106.1816022 -0.625583E-05  0.602E-03    0.25       2.1  T
  15   -106.1816092 -0.694415E-05  0.334E-03    0.25       3.7  T
  16   -106.1816120 -0.279171E-05  0.997E-04    0.25      12.5  T
  17   -106.1816122 -0.182290E-06  0.563E-04    0.25      22.2  T
  18   -106.1816122 -0.832592E-07  0.107E-04    0.25     117.3  T
  19   -106.1816123 -0.305316E-08  0.799E-06    0.25    1564.2  T
     SCC iter.                  ...        0 min,  1.974 sec
     gradient                   ...        0 min,  0.102 sec
 * total energy  :  -105.3739731 Eh     change       -0.5718593E-03 Eh
   gradient norm :     0.0080359 Eh/α   predicted    -0.4822918E-03 ( -15.66%)
   displ. norm   :     0.3844354 α      lambda       -0.4373670E-03
   maximum displ.:     0.1503661 α      in ANC's #1, #3, #5, ...

........................................................................
.............................. CYCLE   48 ..............................
........................................................................

 iter      E             dE          RMSdq      gap      omega  full diag
   1   -106.1806319 -0.106181E+03  0.772E-02    0.25       0.0  T
   2   -103.7696868  0.241095E+01  0.295E+00    0.10       1.0  T
   3   -105.9964504 -0.222676E+01  0.804E-01    0.24       1.0  T
   4   -106.1758029 -0.179352E+00  0.149E-01    0.24       1.0  T
   5   -106.0749237  0.100879E+00  0.631E-01    0.25       1.0  T
   6   -106.1802668 -0.105343E+00  0.852E-02    0.25       1.0  T
   7   -106.1689778  0.112890E-01  0.220E-01    0.25       1.0  T
   8   -106.1820127 -0.130350E-01  0.303E-02    0.24       1.0  T
   9   -106.1821672 -0.154493E-03  0.112E-02    0.24       1.1  T
  10   -106.1821889 -0.216694E-04  0.667E-03    0.24       1.9  T
  11   -106.1821915 -0.257005E-05  0.556E-03    0.24       2.2  T
  12   -106.1821988 -0.732214E-05  0.179E-03    0.24       7.0  T
  13   -106.1821991 -0.323335E-06  0.141E-03    0.24       8.9  T
  14   -106.1821993 -0.204776E-06  0.109E-03    0.24      11.4  T
  15   -106.1821996 -0.228282E-06  0.613E-04    0.24      20.4  T
  16   -106.1821996 -0.961714E-07  0.190E-04    0.24      65.9  T
  17   -106.1821997 -0.671839E-08  0.106E-04    0.24     118.0  T
     SCC iter.                  ...        0 min,  1.861 sec
     gradient                   ...        0 min,  0.082 sec
 * total energy  :  -105.3742721 Eh     change       -0.2989717E-03 Eh
   gradient norm :     0.0035836 Eh/α   predicted    -0.2510746E-03 ( -16.02%)
   displ. norm   :     0.2791786 α      lambda       -0.2039391E-03
   maximum displ.:     0.1110503 α      in ANC's #5, #1, #13, ...

........................................................................
.............................. CYCLE   49 ..............................
........................................................................

 iter      E             dE          RMSdq      gap      omega  full diag
   1   -106.1826049 -0.106183E+03  0.551E-02    0.25       0.0  T
   2   -104.9602713  0.122233E+01  0.211E+00    0.13       1.0  T
   3   -106.1664827 -0.120621E+01  0.244E-01    0.25       1.0  T
   4   -106.1755892 -0.910649E-02  0.165E-01    0.24       1.0  T
   5   -106.1610078  0.145814E-01  0.288E-01    0.25       1.0  T
   6   -106.1830843 -0.220766E-01  0.379E-02    0.24       1.0  T
   7   -106.1826617  0.422627E-03  0.532E-02    0.24       1.0  T
   8   -106.1826588  0.293663E-05  0.540E-02    0.24       1.0  T
   9   -106.1834213 -0.762549E-03  0.510E-03    0.24       2.5  T
  10   -106.1834220 -0.707491E-06  0.461E-03    0.24       2.7  T
  11   -106.1834248 -0.276533E-05  0.306E-03    0.24       4.1  T
  12   -106.1834268 -0.202519E-05  0.101E-03    0.24      12.4  T
  13   -106.1834270 -0.208394E-06  0.526E-04    0.24      23.8  T
  14   -106.1834271 -0.325878E-07  0.375E-04    0.24      33.4  T
  15   -106.1834271 -0.253726E-07  0.210E-04    0.24      59.4  T
  16   -106.1834271 -0.102149E-07  0.842E-05    0.24     148.4  T
  17   -106.1834271 -0.125830E-08  0.462E-05    0.24     270.5  T
     SCC iter.                  ...        0 min,  1.863 sec
     gradient                   ...        0 min,  0.102 sec
 * total energy  :  -105.3744250 Eh     change       -0.1529909E-03 Eh
   gradient norm :     0.0029211 Eh/α   predicted    -0.1099175E-03 ( -28.15%)
   displ. norm   :     0.3113396 α      lambda       -0.2023579E-03
   maximum displ.:     0.1419903 α      in ANC's #5, #13, #1, ...

........................................................................
.............................. CYCLE   50 ..............................
........................................................................

 iter      E             dE          RMSdq      gap      omega  full diag
   1   -106.1840899 -0.106184E+03  0.561E-02    0.24       0.0  T
   2   -104.6768809  0.150721E+01  0.232E+00    0.19       1.0  T
   3   -106.1687914 -0.149191E+01  0.236E-01    0.23       1.0  T
   4   -106.1770071 -0.821574E-02  0.166E-01    0.25       1.0  T
   5   -106.1781774 -0.117028E-02  0.162E-01    0.24       1.0  T
   6   -106.1761578  0.201964E-02  0.182E-01    0.24       1.0  T
   7   -106.1845169 -0.835914E-02  0.410E-02    0.24       1.0  T
   8   -106.1828861  0.163081E-02  0.882E-02    0.24       1.0  T
   9   -106.1848907 -0.200463E-02  0.145E-02    0.24       1.0  T
  10   -106.1849392 -0.484413E-04  0.640E-03    0.24       2.0  T
  11   -106.1849495 -0.102930E-04  0.210E-03    0.24       5.9  T
  12   -106.1849505 -0.103492E-05  0.775E-04    0.24      16.1  T
  13   -106.1849506 -0.144197E-06  0.261E-04    0.24      47.8  T
  14   -106.1849507 -0.150817E-07  0.106E-04    0.24     117.5  T
  15   -106.1849507 -0.249130E-08  0.489E-05    0.24     255.5  T
     SCC iter.                  ...        0 min,  1.525 sec
     gradient                   ...        0 min,  0.083 sec
 * total energy  :  -105.3745853 Eh     change       -0.1602640E-03 Eh
   gradient norm :     0.0042015 Eh/α   predicted    -0.1109870E-03 ( -30.75%)
   displ. norm   :     0.3943332 α      lambda       -0.2339173E-03
   maximum displ.:     0.1884544 α      in ANC's #5, #13, #1, ...

........................................................................
.............................. CYCLE   51 ..............................
........................................................................

 iter      E             dE          RMSdq      gap      omega  full diag
   1   -106.1840381 -0.106184E+03  0.713E-02    0.24       0.0  T
   2   -103.4977321  0.268631E+01  0.308E+00    0.21       1.0  T
   3   -106.1384756 -0.264074E+01  0.403E-01    0.23       1.0  T
   4   -106.1761608 -0.376852E-01  0.179E-01    0.25       1.0  T
   5   -106.1214910  0.546699E-01  0.493E-01    0.21       1.0  T
   6   -106.1803492 -0.588582E-01  0.142E-01    0.25       1.0  T
   7   -106.1809649 -0.615700E-03  0.129E-01    0.24       1.0  T
   8   -106.1845352 -0.357034E-02  0.591E-02    0.24       1.0  T
   9   -106.1853562 -0.821006E-03  0.170E-02    0.24       1.0  T
  10   -106.1854236 -0.673687E-04  0.695E-03    0.24       1.8  T
  11   -106.1854338 -0.102176E-04  0.312E-03    0.24       4.0  T
  12   -106.1854362 -0.238001E-05  0.922E-04    0.24      13.6  T
  13   -106.1854363 -0.116740E-06  0.623E-04    0.24      20.1  T
  14   -106.1854363 -0.200514E-07  0.548E-04    0.24      22.8  T
  15   -106.1854364 -0.502316E-07  0.338E-04    0.24      36.9  T
  16   -106.1854364 -0.175338E-07  0.215E-04    0.24      58.0  T
  17   -106.1854364 -0.818007E-08  0.123E-04    0.24     101.4  T
  18   -106.1854364 -0.345267E-08  0.440E-05    0.24     284.3  T
     SCC iter.                  ...        0 min,  1.997 sec
     gradient                   ...        0 min,  0.085 sec
 * total energy  :  -105.3747739 Eh     change       -0.1885878E-03 Eh
   gradient norm :     0.0046435 Eh/α   predicted    -0.1351561E-03 ( -28.33%)
   displ. norm   :     0.4386655 α      lambda       -0.2452089E-03
   maximum displ.:     0.2149349 α      in ANC's #5, #13, #8, ...

........................................................................
.............................. CYCLE   52 ..............................
........................................................................

 iter      E             dE          RMSdq      gap      omega  full diag
   1   -106.1839504 -0.106184E+03  0.776E-02    0.24       0.0  T
   2   -103.1380965  0.304585E+01  0.327E+00    0.21       1.0  T
   3   -106.1262421 -0.298815E+01  0.467E-01    0.25       1.0  T
   4   -106.1747315 -0.484894E-01  0.198E-01    0.24       1.0  T
   5   -106.1518519  0.228796E-01  0.351E-01    0.22       1.0  T
   6   -106.1693883 -0.175363E-01  0.245E-01    0.25       1.0  T
   7   -106.1833748 -0.139865E-01  0.898E-02    0.24       1.0  T
   8   -106.1828900  0.484843E-03  0.101E-01    0.24       1.0  T
   9   -106.1854234 -0.253338E-02  0.241E-02    0.24       1.0  T
  10   -106.1855538 -0.130496E-03  0.108E-02    0.24       1.2  T
  11   -106.1855709 -0.170930E-04  0.720E-03    0.24       1.7  T
  12   -106.1855846 -0.136156E-04  0.180E-03    0.24       6.9  T
  13   -106.1855854 -0.815541E-06  0.510E-04    0.24      24.5  T
  14   -106.1855854 -0.419299E-07  0.314E-04    0.24      39.8  T
  15   -106.1855854 -0.113150E-07  0.231E-04    0.24      54.0  T
  16   -106.1855854 -0.109555E-07  0.107E-04    0.24     117.3  T
  17   -106.1855854 -0.195313E-08  0.592E-05    0.24     211.0  T
     SCC iter.                  ...        0 min,  1.864 sec
     gradient                   ...        0 min,  0.090 sec
 * total energy  :  -105.3749638 Eh     change       -0.1899468E-03 Eh
   gradient norm :     0.0038587 Eh/α   predicted    -0.1462081E-03 ( -23.03%)
   displ. norm   :     0.4431121 α      lambda       -0.1982380E-03
   maximum displ.:     0.2181418 α      in ANC's #5, #13, #8, ...

........................................................................
.............................. CYCLE   53 ..............................
........................................................................

 iter      E             dE          RMSdq      gap      omega  full diag
   1   -106.1830898 -0.106183E+03  0.579E-02    0.24       0.0  T
   2   -104.7599080  0.142318E+01  0.226E+00    0.23       1.0  T
   3   -106.1478273 -0.138792E+01  0.360E-01    0.24       1.0  T
   4   -106.1800086 -0.321814E-01  0.119E-01    0.24       1.0  T
   5   -106.1406231  0.393855E-01  0.395E-01    0.22       1.0  T
   6   -106.1822827 -0.416596E-01  0.841E-02    0.24       1.0  T
   7   -106.1837076 -0.142487E-02  0.343E-02    0.24       1.0  T
   8   -106.1793330  0.437458E-02  0.133E-01    0.24       1.0  T
   9   -106.1839368 -0.460380E-02  0.158E-02    0.24       1.0  T
  10   -106.1839907 -0.538610E-04  0.740E-03    0.24       1.7  T
  11   -106.1840032 -0.124741E-04  0.282E-03    0.24       4.4  T
  12   -106.1840052 -0.206124E-05  0.735E-04    0.24      17.0  T
  13   -106.1840053 -0.216637E-07  0.654E-04    0.24      19.1  T
  14   -106.1840053 -0.604275E-07  0.436E-04    0.24      28.6  T
  15   -106.1840054 -0.417074E-07  0.167E-04    0.24      74.7  T
  16   -106.1840054 -0.578109E-08  0.764E-05    0.24     163.6  T
     SCC iter.                  ...        0 min,  1.861 sec
     gradient                   ...        0 min,  0.080 sec
 * total energy  :  -105.3751107 Eh     change       -0.1468098E-03 Eh
   gradient norm :     0.0030187 Eh/α   predicted    -0.1185847E-03 ( -19.23%)
   displ. norm   :     0.3851683 α      lambda       -0.1648513E-03
   maximum displ.:     0.1890837 α      in ANC's #5, #13, #9, ...

........................................................................
.............................. CYCLE   54 ..............................
........................................................................

 iter      E             dE          RMSdq      gap      omega  full diag
   1   -106.1846742 -0.106185E+03  0.426E-02    0.24       0.0  T
   2   -105.6774842  0.507190E+00  0.138E+00    0.26       1.0  T
   3   -106.1792678 -0.501784E+00  0.143E-01    0.24       1.0  T
   4   -106.1793803 -0.112542E-03  0.141E-01    0.25       1.0  T
   5   -106.1840540 -0.467371E-02  0.660E-02    0.24       1.0  T
   6   -106.1836583  0.395734E-03  0.750E-02    0.24       1.0  T
   7   -106.1848441 -0.118583E-02  0.357E-02    0.24       1.0  T
   8   -106.1838144  0.102967E-02  0.707E-02    0.24       1.0  T
   9   -106.1851251 -0.131064E-02  0.120E-02    0.24       1.0  T
  10   -106.1851543 -0.292412E-04  0.575E-03    0.24       2.2  T
  11   -106.1851626 -0.830904E-05  0.135E-03    0.24       9.3  T
  12   -106.1851631 -0.444023E-06  0.353E-04    0.24      35.4  T
  13   -106.1851631 -0.762833E-08  0.289E-04    0.24      43.3  T
  14   -106.1851631 -0.147415E-07  0.159E-04    0.24      78.4  T
  15   -106.1851631 -0.588405E-08  0.540E-05    0.24     231.4  T
     SCC iter.                  ...        0 min,  1.971 sec
     gradient                   ...        0 min,  0.091 sec
 * total energy  :  -105.3752226 Eh     change       -0.1119661E-03 Eh
   gradient norm :     0.0035464 Eh/α   predicted    -0.9465493E-04 ( -15.46%)
   displ. norm   :     0.4319348 α      lambda       -0.1540822E-03
   maximum displ.:     0.2067383 α      in ANC's #5, #13, #8, ...

........................................................................
.............................. CYCLE   55 ..............................
........................................................................

 iter      E             dE          RMSdq      gap      omega  full diag
   1   -106.1824840 -0.106182E+03  0.259E-02    0.24       0.0  T
   2   -105.9386980  0.243786E+00  0.927E-01    0.21       1.0  T
   3   -106.1786371 -0.239939E+00  0.121E-01    0.25       1.0  T
   4   -106.1811762 -0.253912E-02  0.748E-02    0.24       1.0  T
   5   -106.1812779 -0.101730E-03  0.724E-02    0.24       1.0  T
   6   -106.1815094 -0.231418E-03  0.659E-02    0.24       1.0  T
   7   -106.1825720 -0.106260E-02  0.191E-02    0.24       1.0  T
   8   -106.1813547  0.121728E-02  0.702E-02    0.24       1.0  T
   9   -106.1826527 -0.129798E-02  0.586E-03    0.24       2.1  T
  10   -106.1826596 -0.695373E-05  0.266E-03    0.24       4.7  T
  11   -106.1826609 -0.126366E-05  0.141E-03    0.24       8.9  T
  12   -106.1826613 -0.408889E-06  0.705E-04    0.24      17.7  T
  13   -106.1826614 -0.793051E-07  0.452E-04    0.24      27.7  T
  14   -106.1826614 -0.442534E-07  0.200E-04    0.24      62.5  T
  15   -106.1826614 -0.765628E-08  0.102E-04    0.24     122.3  T
     SCC iter.                  ...        0 min,  1.868 sec
     gradient                   ...        0 min,  0.092 sec
 * total energy  :  -105.3753267 Eh     change       -0.1040709E-03 Eh
   gradient norm :     0.0041207 Eh/α   predicted    -0.9141546E-04 ( -12.16%)
   displ. norm   :     0.3515750 α      lambda       -0.1584288E-03
   maximum displ.:     0.1576726 α      in ANC's #5, #7, #9, ...

........................................................................
.............................. CYCLE   56 ..............................
........................................................................

 iter      E             dE          RMSdq      gap      omega  full diag
   1   -106.1835525 -0.106184E+03  0.473E-02    0.24       0.0  T
   2   -105.3305921  0.852960E+00  0.173E+00    0.19       1.0  T
   3   -106.1555841 -0.824992E+00  0.323E-01    0.25       1.0  T
   4   -106.1823680 -0.267838E-01  0.820E-02    0.24       1.0  T
   5   -106.1755939  0.677403E-02  0.180E-01    0.24       1.0  T
   6   -106.1797542 -0.416030E-02  0.132E-01    0.25       1.0  T
   7   -106.1836565 -0.390224E-02  0.428E-02    0.24       1.0  T
   8   -106.1837638 -0.107275E-03  0.387E-02    0.24       1.0  T
   9   -106.1840808 -0.317002E-03  0.166E-02    0.24       1.0  T
  10   -106.1841334 -0.526036E-04  0.926E-03    0.24       1.3  T
  11   -106.1841478 -0.144802E-04  0.561E-03    0.24       2.2  T
  12   -106.1841560 -0.811864E-05  0.152E-03    0.24       8.2  T
  13   -106.1841563 -0.384115E-06  0.886E-04    0.24      14.1  T
  14   -106.1841565 -0.174187E-06  0.346E-04    0.24      36.1  T
  15   -106.1841565 -0.255718E-07  0.151E-04    0.24      82.8  T
  16   -106.1841566 -0.543027E-08  0.466E-05    0.24     268.1  T
     SCC iter.                  ...        0 min,  1.934 sec
     gradient                   ...        0 min,  0.084 sec
 * total energy  :  -105.3754484 Eh     change       -0.1216971E-03 Eh
   gradient norm :     0.0036977 Eh/α   predicted    -0.8900650E-04 ( -26.86%)
   displ. norm   :     0.4171726 α      lambda       -0.1646361E-03
   maximum displ.:     0.1775210 α      in ANC's #5, #7, #9, ...

........................................................................
.............................. CYCLE   57 ..............................
........................................................................

 iter      E             dE          RMSdq      gap      omega  full diag
   1   -106.1843928 -0.106184E+03  0.524E-02    0.24       0.0  T
   2   -105.0732005  0.111119E+01  0.197E+00    0.18       1.0  T
   3   -106.1390015 -0.106580E+01  0.413E-01    0.25       1.0  T
   4   -106.1831872 -0.441857E-01  0.850E-02    0.24       1.0  T
   5   -106.1649096  0.182775E-01  0.275E-01    0.24       1.0  T
   6   -106.1819996 -0.170900E-01  0.113E-01    0.25       1.0  T
   7   -106.1840919 -0.209226E-02  0.620E-02    0.24       1.0  T
   8   -106.1848711 -0.779215E-03  0.315E-02    0.24       1.0  T
   9   -106.1850316 -0.160485E-03  0.193E-02    0.24       1.0  T
  10   -106.1850959 -0.642946E-04  0.119E-02    0.24       1.0  T
  11   -106.1851205 -0.246562E-04  0.710E-03    0.24       1.8  T
  12   -106.1851331 -0.126201E-04  0.212E-03    0.24       5.9  T
  13   -106.1851339 -0.754230E-06  0.123E-03    0.24      10.2  T
  14   -106.1851342 -0.341970E-06  0.463E-04    0.24      27.0  T
  15   -106.1851343 -0.484670E-07  0.163E-04    0.24      76.5  T
  16   -106.1851343 -0.614088E-08  0.577E-05    0.24     216.6  T
     SCC iter.                  ...        0 min,  1.776 sec
     gradient                   ...        0 min,  0.100 sec
 * total energy  :  -105.3755742 Eh     change       -0.1258413E-03 Eh
   gradient norm :     0.0029482 Eh/α   predicted    -0.9664562E-04 ( -23.20%)
   displ. norm   :     0.3871292 α      lambda       -0.1407002E-03
   maximum displ.:     0.1536375 α      in ANC's #5, #7, #9, ...

........................................................................
.............................. CYCLE   58 ..............................
........................................................................

 iter      E             dE          RMSdq      gap      omega  full diag
   1   -106.1858693 -0.106186E+03  0.367E-02    0.24       0.0  T
   2   -105.6815684  0.504301E+00  0.134E+00    0.20       1.0  T
   3   -106.1755142 -0.493946E+00  0.198E-01    0.25       1.0  T
   4   -106.1845844 -0.907018E-02  0.777E-02    0.24       1.0  T
   5   -106.1812489  0.333551E-02  0.136E-01    0.24       1.0  T
   6   -106.1830481 -0.179918E-02  0.111E-01    0.24       1.0  T
   7   -106.1860131 -0.296504E-02  0.279E-02    0.24       1.0  T
   8   -106.1856972  0.315964E-03  0.441E-02    0.24       1.0  T
   9   -106.1861609 -0.463789E-03  0.148E-02    0.24       1.0  T
  10   -106.1861925 -0.315443E-04  0.103E-02    0.24       1.2  T
  11   -106.1862154 -0.228786E-04  0.488E-03    0.24       2.6  T
  12   -106.1862215 -0.612824E-05  0.117E-03    0.24      10.7  T
  13   -106.1862217 -0.163357E-06  0.836E-04    0.24      15.0  T
  14   -106.1862218 -0.150827E-06  0.361E-04    0.24      34.6  T
  15   -106.1862218 -0.267357E-07  0.157E-04    0.24      79.6  T
  16   -106.1862218 -0.553011E-08  0.573E-05    0.24     218.2  T
     SCC iter.                  ...        0 min,  1.699 sec
     gradient                   ...        0 min,  0.089 sec
 * total energy  :  -105.3756781 Eh     change       -0.1038448E-03 Eh
   gradient norm :     0.0029484 Eh/α   predicted    -0.8089595E-04 ( -22.10%)
   displ. norm   :     0.3838588 α      lambda       -0.1223995E-03
   maximum displ.:     0.1532338 α      in ANC's #5, #9, #7, ...

........................................................................
.............................. CYCLE   59 ..............................
........................................................................

 iter      E             dE          RMSdq      gap      omega  full diag
   1   -106.1860670 -0.106186E+03  0.163E-02    0.24       0.0  T
   2   -106.1171243  0.689427E-01  0.506E-01    0.21       1.0  T
   3   -106.1851394 -0.680151E-01  0.582E-02    0.24       1.0  T
   4   -106.1850607  0.786817E-04  0.616E-02    0.24       1.0  T
   5   -106.1858841 -0.823394E-03  0.312E-02    0.24       1.0  T
   6   -106.1853035  0.580608E-03  0.553E-02    0.24       1.0  T
   7   -106.1860862 -0.782705E-03  0.130E-02    0.24       1.0  T
   8   -106.1854961  0.590091E-03  0.484E-02    0.24       1.0  T
   9   -106.1861134 -0.617333E-03  0.698E-03    0.24       1.8  T
  10   -106.1861195 -0.609829E-05  0.508E-03    0.24       2.5  T
  11   -106.1861265 -0.702626E-05  0.105E-03    0.24      11.9  T
  12   -106.1861267 -0.145880E-06  0.698E-04    0.24      17.9  T
  13   -106.1861268 -0.132313E-06  0.190E-04    0.24      65.8  T
  14   -106.1861268 -0.817838E-08  0.821E-05    0.24     152.3  T
     SCC iter.                  ...        0 min,  1.565 sec
     gradient                   ...        0 min,  0.115 sec
 * total energy  :  -105.3757704 Eh     change       -0.9233058E-04 Eh
   gradient norm :     0.0033651 Eh/α   predicted    -0.7022282E-04 ( -23.94%)
   displ. norm   :     0.3500593 α      lambda       -0.1304786E-03
   maximum displ.:     0.1427693 α      in ANC's #9, #3, #7, ...

........................................................................
.............................. CYCLE   60 ..............................
........................................................................

 iter      E             dE          RMSdq      gap      omega  full diag
   1   -106.1869530 -0.106187E+03  0.330E-02    0.24       0.0  T
   2   -105.8099224  0.377031E+00  0.116E+00    0.23       1.0  T
   3   -106.1804910 -0.370569E+00  0.160E-01    0.23       1.0  T
   4   -106.1852838 -0.479275E-02  0.860E-02    0.24       1.0  T
   5   -106.1826258  0.265798E-02  0.129E-01    0.23       1.0  T
   6   -106.1863260 -0.370021E-02  0.591E-02    0.24       1.0  T
   7   -106.1864359 -0.109902E-03  0.551E-02    0.24       1.0  T
   8   -106.1869549 -0.518988E-03  0.340E-02    0.24       1.0  T
   9   -106.1872501 -0.295197E-03  0.584E-03    0.24       2.1  T
  10   -106.1872541 -0.401881E-05  0.417E-03    0.24       3.0  T
  11   -106.1872585 -0.439747E-05  0.148E-03    0.24       8.4  T
  12   -106.1872589 -0.417077E-06  0.724E-04    0.24      17.3  T
  13   -106.1872590 -0.993979E-07  0.422E-04    0.24      29.6  T
  14   -106.1872591 -0.257957E-07  0.279E-04    0.24      44.9  T
  15   -106.1872591 -0.183773E-07  0.856E-05    0.24     146.0  T
  16   -106.1872591 -0.101207E-08  0.566E-05    0.24     220.8  T
     SCC iter.                  ...        0 min,  1.862 sec
     gradient                   ...        0 min,  0.114 sec
 * total energy  :  -105.3758674 Eh     change       -0.9703989E-04 Eh
   gradient norm :     0.0031664 Eh/α   predicted    -0.7323466E-04 ( -24.53%)
   displ. norm   :     0.4438444 α      lambda       -0.1231228E-03
   maximum displ.:     0.1821198 α      in ANC's #5, #9, #11, ...

........................................................................
.............................. CYCLE   61 ..............................
........................................................................

 iter      E             dE          RMSdq      gap      omega  full diag
   1   -106.1842578 -0.106184E+03  0.467E-02    0.24       0.0  T
   2   -105.1199456  0.106431E+01  0.194E+00    0.22       1.0  T
   3   -106.1735147 -0.105357E+01  0.208E-01    0.23       1.0  T
   4   -106.1783322 -0.481744E-02  0.157E-01    0.25       1.0  T
   5   -106.1728958  0.543640E-02  0.205E-01    0.23       1.0  T
   6   -106.1785280 -0.563224E-02  0.152E-01    0.24       1.0  T
   7   -106.1819983 -0.347029E-02  0.103E-01    0.24       1.0  T
   8   -106.1846152 -0.261689E-02  0.307E-02    0.24       1.0  T
   9   -106.1848481 -0.232928E-03  0.718E-03    0.24       1.7  T
  10   -106.1848598 -0.117414E-04  0.261E-03    0.24       4.8  T
  11   -106.1848601 -0.288883E-06  0.235E-03    0.24       5.3  T
  12   -106.1848615 -0.132068E-05  0.757E-04    0.24      16.5  T
  13   -106.1848615 -0.455395E-07  0.621E-04    0.24      20.1  T
  14   -106.1848615 -0.483321E-07  0.445E-04    0.24      28.1  T
  15   -106.1848616 -0.292560E-07  0.292E-04    0.24      42.8  T
  16   -106.1848616 -0.139123E-07  0.176E-04    0.24      71.0  T
  17   -106.1848616 -0.663309E-08  0.731E-05    0.24     170.9  T
     SCC iter.                  ...        0 min,  1.953 sec
     gradient                   ...        0 min,  0.091 sec
 * total energy  :  -105.3759551 Eh     change       -0.8762016E-04 Eh
   gradient norm :     0.0034963 Eh/α   predicted    -0.7369253E-04 ( -15.90%)
   displ. norm   :     0.3730675 α      lambda       -0.1501704E-03
   maximum displ.:     0.1613544 α      in ANC's #3, #9, #11, ...

........................................................................
.............................. CYCLE   62 ..............................
........................................................................

 iter      E             dE          RMSdq      gap      omega  full diag
   1   -106.1873371 -0.106187E+03  0.612E-02    0.24       0.0  T
   2   -104.6249681  0.156237E+01  0.235E+00    0.21       1.0  T
   3   -106.1365703 -0.151160E+01  0.443E-01    0.22       1.0  T
   4   -106.1848226 -0.482523E-01  0.117E-01    0.24       1.0  T
   5   -106.1625215  0.223011E-01  0.307E-01    0.23       1.0  T
   6   -106.1832758 -0.207543E-01  0.140E-01    0.24       1.0  T
   7   -106.1795758  0.369994E-02  0.177E-01    0.23       1.0  T
   8   -106.1882355 -0.865964E-02  0.249E-02    0.24       1.0  T
   9   -106.1883434 -0.107953E-03  0.120E-02    0.24       1.0  T
  10   -106.1883737 -0.303083E-04  0.543E-03    0.24       2.3  T
  11   -106.1883761 -0.236805E-05  0.441E-03    0.24       2.8  T
  12   -106.1883807 -0.461440E-05  0.155E-03    0.24       8.0  T
  13   -106.1883809 -0.200005E-06  0.127E-03    0.24       9.8  T
  14   -106.1883812 -0.237820E-06  0.832E-04    0.24      15.0  T
  15   -106.1883813 -0.153777E-06  0.306E-04    0.24      40.9  T
  16   -106.1883813 -0.197601E-07  0.127E-04    0.24      98.0  T
  17   -106.1883813 -0.348865E-08  0.538E-05    0.24     232.5  T
     SCC iter.                  ...        0 min,  1.720 sec
     gradient                   ...        0 min,  0.086 sec
 * total energy  :  -105.3760300 Eh     change       -0.7494783E-04 Eh
   gradient norm :     0.0044941 Eh/α   predicted    -0.8553812E-04 (  14.13%)
   displ. norm   :     0.3417892 α      lambda       -0.1096292E-03
   maximum displ.:     0.1368586 α      in ANC's #5, #9, #3, ...

........................................................................
.............................. CYCLE   63 ..............................
........................................................................

 iter      E             dE          RMSdq      gap      omega  full diag
   1   -106.1860800 -0.106186E+03  0.216E-02    0.24       0.0  T
   2   -106.0490707  0.137009E+00  0.719E-01    0.21       1.0  T
   3   -106.1850932 -0.136023E+00  0.628E-02    0.24       1.0  T
   4   -106.1846634  0.429866E-03  0.739E-02    0.24       1.0  T
   5   -106.1832584  0.140498E-02  0.103E-01    0.24       1.0  T
   6   -106.1861434 -0.288506E-02  0.142E-02    0.24       1.0  T
   7   -106.1853081  0.835377E-03  0.573E-02    0.24       1.0  T
   8   -106.1861850 -0.876929E-03  0.780E-03    0.24       1.6  T
   9   -106.1861923 -0.730401E-05  0.571E-03    0.24       2.2  T
  10   -106.1861996 -0.731115E-05  0.190E-03    0.24       6.6  T
  11   -106.1862002 -0.614492E-06  0.104E-03    0.24      12.1  T
  12   -106.1862005 -0.266592E-06  0.262E-04    0.24      47.7  T
  13   -106.1862005 -0.115944E-07  0.164E-04    0.24      76.3  T
  14   -106.1862005 -0.621259E-08  0.682E-05    0.24     183.4  T
     SCC iter.                  ...        0 min,  1.546 sec
     gradient                   ...        0 min,  0.140 sec
 * total energy  :  -105.3761138 Eh     change       -0.8380240E-04 Eh
   gradient norm :     0.0037678 Eh/α   predicted    -0.6122255E-04 ( -26.94%)
   displ. norm   :     0.3557806 α      lambda       -0.1403589E-03
   maximum displ.:     0.1406983 α      in ANC's #3, #5, #9, ...

........................................................................
.............................. CYCLE   64 ..............................
........................................................................

 iter      E             dE          RMSdq      gap      omega  full diag
   1   -106.1847364 -0.106185E+03  0.264E-02    0.24       0.0  T
   2   -105.8149018  0.369835E+00  0.113E+00    0.19       1.0  T
   3   -106.1832483 -0.368347E+00  0.790E-02    0.24       1.0  T
   4   -106.1785834  0.466491E-02  0.154E-01    0.24       1.0  T
   5   -106.1834741 -0.489065E-02  0.753E-02    0.24       1.0  T
   6   -106.1819819  0.149212E-02  0.105E-01    0.24       1.0  T
   7   -106.1849040 -0.292210E-02  0.800E-03    0.24       1.6  T
   8   -106.1842911  0.612980E-03  0.481E-02    0.24       1.0  T
   9   -106.1848925 -0.601433E-03  0.969E-03    0.24       1.3  T
  10   -106.1849166 -0.241110E-04  0.312E-03    0.24       4.0  T
  11   -106.1849163  0.295084E-06  0.318E-03    0.24       3.9  T
  12   -106.1849185 -0.225093E-05  0.142E-03    0.24       8.8  T
  13   -106.1849189 -0.349390E-06  0.886E-04    0.24      14.1  T
  14   -106.1849190 -0.124779E-06  0.563E-04    0.24      22.2  T
  15   -106.1849191 -0.705800E-07  0.231E-04    0.24      54.1  T
  16   -106.1849191 -0.104475E-07  0.119E-04    0.24     105.4  T
  17   -106.1849191 -0.258427E-08  0.662E-05    0.24     188.9  T
     SCC iter.                  ...        0 min,  1.802 sec
     gradient                   ...        0 min,  0.123 sec
 * total energy  :  -105.3762201 Eh     change       -0.1062609E-03 Eh
   gradient norm :     0.0036793 Eh/α   predicted    -0.7906893E-04 ( -25.59%)
   displ. norm   :     0.3918118 α      lambda       -0.1639808E-03
   maximum displ.:     0.1901314 α      in ANC's #3, #16, #9, ...

........................................................................
.............................. CYCLE   65 ..............................
........................................................................

 iter      E             dE          RMSdq      gap      omega  full diag
   1   -106.1843179 -0.106184E+03  0.542E-02    0.24       0.0  T
   2   -104.0224884  0.216183E+01  0.272E+00    0.15       1.0  T
   3   -106.1417587 -0.211927E+01  0.398E-01    0.25       1.0  T
   4   -106.1798823 -0.381235E-01  0.140E-01    0.24       1.0  T
   5   -106.1646038  0.152785E-01  0.276E-01    0.23       1.0  T
   6   -106.1832391 -0.186353E-01  0.867E-02    0.24       1.0  T
   7   -106.1845876 -0.134852E-02  0.441E-02    0.24       1.0  T
   8   -106.1845454  0.422034E-04  0.445E-02    0.24       1.0  T
   9   -106.1849759 -0.430506E-03  0.210E-02    0.24       1.0  T
  10   -106.1850431 -0.671724E-04  0.141E-02    0.24       1.0  T
  11   -106.1850668 -0.237340E-04  0.103E-02    0.24       1.2  T
  12   -106.1850865 -0.197144E-04  0.576E-03    0.24       2.2  T
  13   -106.1850892 -0.266417E-05  0.480E-03    0.24       2.6  T
  14   -106.1850928 -0.361474E-05  0.308E-03    0.24       4.1  T
  15   -106.1850950 -0.219750E-05  0.111E-03    0.24      11.2  T
  16   -106.1850953 -0.302702E-06  0.354E-04    0.24      35.3  T
  17   -106.1850953 -0.284193E-07  0.125E-04    0.24      99.9  T
  18   -106.1850954 -0.368860E-08  0.443E-05    0.24     282.5  T
     SCC iter.                  ...        0 min,  2.084 sec
     gradient                   ...        0 min,  0.130 sec
 * total energy  :  -105.3763387 Eh     change       -0.1186279E-03 Eh
   gradient norm :     0.0043540 Eh/α   predicted    -0.9458053E-04 ( -20.27%)
   displ. norm   :     0.4394138 α      lambda       -0.1407922E-03
   maximum displ.:     0.2149338 α      in ANC's #3, #16, #9, ...

........................................................................
.............................. CYCLE   66 ..............................
........................................................................

 iter      E             dE          RMSdq      gap      omega  full diag
   1   -106.1850201 -0.106185E+03  0.360E-02    0.24       0.0  T
   2   -105.5602271  0.624793E+00  0.149E+00    0.18       1.0  T
   3   -106.1721547 -0.611928E+00  0.216E-01    0.25       1.0  T
   4   -106.1834779 -0.113233E-01  0.840E-02    0.24       1.0  T
   5   -106.1827357  0.742220E-03  0.101E-01    0.24       1.0  T
   6   -106.1814932  0.124249E-02  0.120E-01    0.24       1.0  T
   7   -106.1852920 -0.379879E-02  0.156E-02    0.24       1.0  T
   8   -106.1847266  0.565405E-03  0.484E-02    0.24       1.0  T
   9   -106.1853149 -0.588293E-03  0.115E-02    0.24       1.1  T
  10   -106.1853391 -0.242442E-04  0.686E-03    0.24       1.8  T
  11   -106.1853489 -0.976756E-05  0.342E-03    0.24       3.7  T
  12   -106.1853512 -0.227786E-05  0.178E-03    0.24       7.0  T
  13   -106.1853515 -0.319222E-06  0.141E-03    0.24       8.9  T
  14   -106.1853519 -0.407632E-06  0.702E-04    0.24      17.8  T
  15   -106.1853520 -0.871576E-07  0.399E-04    0.24      31.4  T
  16   -106.1853520 -0.376447E-07  0.140E-04    0.24      89.5  T
  17   -106.1853520 -0.447426E-08  0.527E-05    0.24     237.3  T
     SCC iter.                  ...        0 min,  1.910 sec
     gradient                   ...        0 min,  0.094 sec
 * total energy  :  -105.3764502 Eh     change       -0.1114731E-03 Eh
   gradient norm :     0.0041349 Eh/α   predicted    -0.8399203E-04 ( -24.65%)
   displ. norm   :     0.4630009 α      lambda       -0.1627136E-03
   maximum displ.:     0.2542693 α      in ANC's #3, #9, #16, ...
 * RMSD in coord.:     0.8972385 α      energy gain  -0.8344164E-02 Eh

generating ANC from model Hessian ...
Using Lindh-Hessian (1995)
 Shifting diagonal of input Hessian by    1.0746287586117065E-002
 Lowest  eigenvalues of input Hessian
    0.010000    0.010504    0.010692    0.010736    0.000000    0.000000
    0.000000    0.000000    0.000000    0.000000    0.010763    0.010777
    0.010825    0.010889    0.010912    0.010942    0.011031    0.011108
 Highest eigenvalues
    1.215399    1.552588    1.848136    1.927834    2.029589    2.133280


........................................................................
.............................. CYCLE   67 ..............................
........................................................................

 iter      E             dE          RMSdq      gap      omega  full diag
   1   -106.1865763 -0.106187E+03  0.375E-02    0.24       0.0  T
   2   -105.5843899  0.602186E+00  0.148E+00    0.19       1.0  T
   3   -106.1708061 -0.586416E+00  0.237E-01    0.25       1.0  T
   4   -106.1856381 -0.148320E-01  0.694E-02    0.24       1.0  T
   5   -106.1832717  0.236641E-02  0.118E-01    0.24       1.0  T
   6   -106.1855712 -0.229945E-02  0.713E-02    0.24       1.0  T
   7   -106.1867741 -0.120294E-02  0.255E-02    0.24       1.0  T
   8   -106.1854434  0.133076E-02  0.745E-02    0.25       1.0  T
   9   -106.1869154 -0.147204E-02  0.855E-03    0.24       1.5  T
  10   -106.1869207 -0.534096E-05  0.724E-03    0.24       1.7  T
  11   -106.1869339 -0.131938E-04  0.235E-03    0.24       5.3  T
  12   -106.1869345 -0.553438E-06  0.172E-03    0.24       7.3  T
  13   -106.1869351 -0.659574E-06  0.798E-04    0.24      15.7  T
  14   -106.1869352 -0.978912E-07  0.524E-04    0.24      23.8  T
  15   -106.1869353 -0.589735E-07  0.235E-04    0.24      53.3  T
  16   -106.1869353 -0.101003E-07  0.130E-04    0.24      96.2  T
  17   -106.1869353 -0.369027E-08  0.564E-05    0.24     221.7  T
     SCC iter.                  ...        0 min,  1.791 sec
     gradient                   ...        0 min,  0.093 sec
 * total energy  :  -105.3765769 Eh     change       -0.1267298E-03 Eh
   gradient norm :     0.0038369 Eh/α   predicted     0.0000000E+00 (-100.00%)
   displ. norm   :     0.0544365 α      lambda       -0.6173587E-04
   maximum displ.:     0.0246591 α      in ANC's #1, #18, #20, ...

........................................................................
.............................. CYCLE   68 ..............................
........................................................................

 iter      E             dE          RMSdq      gap      omega  full diag
   1   -106.1876273 -0.106188E+03  0.164E-02    0.24       0.0  T
   2   -106.0940478  0.935795E-01  0.579E-01    0.27       1.0  T
   3   -106.1871828 -0.931350E-01  0.432E-02    0.24       1.0  T
   4   -106.1867503  0.432469E-03  0.598E-02    0.24       1.0  T
   5   -106.1876340 -0.883709E-03  0.178E-02    0.24       1.0  T
   6   -106.1872691  0.364934E-03  0.398E-02    0.24       1.0  T
   7   -106.1876882 -0.419099E-03  0.614E-03    0.24       2.0  T
   8   -106.1876131  0.751121E-04  0.175E-02    0.24       1.0  T
   9   -106.1876959 -0.827894E-04  0.284E-03    0.24       4.4  T
  10   -106.1876981 -0.216826E-05  0.473E-04    0.24      26.4  T
  11   -106.1876981 -0.282765E-07  0.268E-04    0.24      46.7  T
  12   -106.1876981 -0.666886E-08  0.202E-04    0.24      61.7  T
  13   -106.1876981  0.284729E-09  0.197E-04    0.24      63.4  T
  14   -106.1876981 -0.970488E-08  0.626E-05    0.24     199.6  T
     SCC iter.                  ...        0 min,  1.527 sec
     gradient                   ...        0 min,  0.082 sec
 * total energy  :  -105.3766268 Eh     change       -0.4988087E-04 Eh
   gradient norm :     0.0019242 Eh/α   predicted    -0.3104047E-04 ( -37.77%)
   displ. norm   :     0.2278822 α      lambda       -0.1035643E-03
   maximum displ.:     0.1024641 α      in ANC's #18, #1, #15, ...

   *** GEOMETRY OPTIMIZATION CONVERGED AFTER 68 ITERATIONS ***

------------------------------------------------------------------------
 total energy gain   :        -0.1114199 Eh      -69.9171 kcal/mol
 total RMSD          :         2.0812096 a0        1.1013 Å
 total power (kW/mol):        -4.3019555 (step)   -1.9614 (real)
------------------------------------------------------------------------

 ANCopt (total)                0 d,  0 h,  2 min, 29.147 sec
 optimizer setup                ...        0 min,  0.000 sec (  0.000%)
 model hessian                  ...        0 min,  0.092 sec (  0.062%)
 ANC generation                 ...        0 min,  0.092 sec (  0.062%)
 coordinate transformation      ...        0 min,  0.011 sec (  0.007%)
 single point calculation       ...        2 min, 28.779 sec ( 99.754%)
 optimization log               ...        0 min,  0.022 sec (  0.015%)
 hessian update                 ...        0 min,  0.043 sec (  0.029%)
 rational function              ...        0 min,  0.082 sec (  0.055%)

================
 final structure:
================
64
 xtb: 6.6.1 (unknown)
C           53.67413420083800       15.46880323185927       53.69832359471358
C           53.47765386936804       16.15772827590462       52.34854821948077
S           54.69571490179601       15.53886217162983       51.13961798885743
H           52.99004943684251       15.86180554442766       54.45797814481158
H           53.50721559221598       14.39281594289689       53.59816071306499
H           54.70044431629396       15.62102160327531       54.04251554632127
H           52.43647544297443       16.02204305312599       52.02182080033099
H           53.64197587960344       17.23675596463420       52.47440159781182
C           47.99209690945750        9.41894546442959       49.77683448721397
C           49.18658459270815       10.22983597078664       50.27684022686073
S           49.97917356100466       11.02780772921104       48.83804992755727
H           47.46568132508221        8.91505138153455       50.59449893105192
H           47.29049883875340       10.08028519587543       49.26426210167741
H           48.32861397770915        8.66813835070749       49.05803700978934
H           48.82793707293932       10.99423090266899       50.98063658698291
H           49.87068850058741        9.56676623454476       50.82294509464794
C           57.39793559297003        7.68515103084873       46.79652370510073
C           56.09561434440485        6.93320683817453       46.52472327605820
S           54.75014588250595        8.03633853920401       45.98368574914431
H           58.19824901474625        7.00476805389399       47.11107816674866
H           57.72057482413837        8.20779211522109       45.89130464510151
H           57.24206071550562        8.43412167302454       47.58446046318910
H           56.26641741523797        6.21218831247492       45.71175119439760
H           55.81679559410131        6.35311436054213       47.41708523106201
C           57.82332479539843        9.37662689357116       51.61963483692469
C           56.73742572936542        8.40234254305030       52.07883125775922
S           55.10873112327641        9.19510789267492       52.26088259111282
H           57.87088147357149       10.22857761372749       52.30435206713033
H           58.80735024910059        8.89495375229620       51.59226080399539
H           57.58801191246949        9.75343636792700       50.61597305022119
H           56.70675016659995        7.54409488074934       51.39057475027702
H           57.01298980282655        8.01126451646323       53.06948312166796
C           55.38692704340780       16.30756859253292       47.53815490881603
C           55.10870494268017       14.88275075747979       47.07358865448995
S           55.62948754510095       13.71489984712633       48.38706890354990
H           54.87631067785749       16.50190586432716       48.48869554598468
H           56.45949088061393       16.44240103412669       47.70228167989187
H           55.05223570148632       17.04420105806041       46.80022044188051
H           54.04988909070357       14.77721437385940       46.80699581615136
H           55.70522249626571       14.67288449733775       46.17581203718487
C           49.53306825493593       18.32626065156500       50.75002885659816
C           49.86062049798234       17.87464161955870       49.32032001496874
C           50.53320359361966       16.54044336588743       49.31826071516138
N           49.82642562118396       15.36056395658177       49.30211167771816
C           50.72216730800135       14.33694564256633       49.38461060180740
N           51.94802551098757       14.81251753017045       49.46239910571270
C           51.84399104736357       16.17661311668176       49.42197067969856
H           48.86799733463703       17.60738089610589       51.23061973114223
H           50.44684501852424       18.40529879282549       51.34193887575808
H           49.04152113314918       19.29851612153320       50.73350032574342
H           48.93467490626001       17.82919549943226       48.73905412148266
H           50.51568623932219       18.61593705166654       48.85137511377403
H           48.82959543030696       15.29062093469444       49.21744660684344
H           50.42533387545154       13.28574455305526       49.36213332809267
H           52.71565119153376       16.81353662095728       49.46641574782830
Fe          52.25485724580099       10.57958610479065       48.90016111945441
Fe          53.96498230388567       13.76677753087337       49.98756358668346
Fe          54.15405335197734        9.40012446385070       47.73589858715097
Fe          54.29310328164777        9.86662792069493       50.23207978897718
S           55.89470476060622       10.17278036918074       48.80502303591697
S           52.87486783345710        8.53642183310001       49.26719257588030
S           53.24722347678677       11.82975529212785       50.46596471322294
S           53.08909506449614       11.13923678251913       46.97992946064939
Fe          54.46153016513566       11.79056917354282       48.49996477022894

 Bond Distances (Angstroems)
 ---------------------------
C1-C2=1.5281         C1-H4=1.0952         C1-H5=1.0935         C1-H6=1.0931         C2-C1=1.5281         C2-S3=1.8243         
C2-H7=1.0996         C2-H8=1.0987         S3-C2=1.8243         S3-Fe57=2.2364       H4-C1=1.0952         H5-C1=1.0935         
H6-C1=1.0931         H7-C2=1.0996         H8-C2=1.0987         C9-C10=1.5279        C9-H12=1.0953        C9-H13=1.0919        
C9-H14=1.0925        C10-C9=1.5279        C10-S11=1.8262       C10-H15=1.0992       C10-H16=1.0981       S11-C10=1.8262       
S11-Fe56=2.3202      H12-C9=1.0953        H13-C9=1.0919        H14-C9=1.0925        H15-C10=1.0992       H16-C10=1.0981       
C17-C18=1.5282       C17-H20=1.0965       C17-H21=1.0939       C17-H22=1.0982       C18-C17=1.5282       C18-S19=1.8221       
C18-H23=1.1000       C18-H24=1.1003       S19-C18=1.8221       S19-Fe58=2.2990      H20-C17=1.0965       H21-C17=1.0939       
H22-C17=1.0982       H23-C18=1.1000       H24-C18=1.1003       C25-C26=1.5295       C25-H28=1.0940       C25-H29=1.0959       
C25-H30=1.0976       C26-C25=1.5295       C26-S27=1.8205       C26-H31=1.1006       C26-H32=1.1001       S27-C26=1.8205       
S27-Fe59=2.2874      H28-C25=1.0940       H29-C25=1.0959       H30-C25=1.0976       H31-C26=1.1006       H32-C26=1.1001       
C33-C34=1.5242       C33-H36=1.0964       C33-H37=1.0934       C33-H38=1.0951       C34-C33=1.5242       C34-S35=1.8331       
C34-H39=1.0970       C34-H40=1.0981       S35-C34=1.8331       S35-Fe57=2.3097      S35-Fe64=2.2539      H36-C33=1.0964       
H37-C33=1.0934       H38-C33=1.0951       H39-C34=1.0970       H40-C34=1.0981       C41-C42=1.5347       C41-H48=1.0909       
C41-H49=1.0916       C41-H50=1.0896       C42-C41=1.5347       C42-C43=1.4941       C42-H51=1.0942       C42-H52=1.0948       
C43-C42=1.4941       C43-N44=1.3755       C43-C47=1.3643       N44-C43=1.3755       N44-C45=1.3627       N44-H53=1.0029       
C45-N44=1.3627       C45-N46=1.3172       C45-H54=1.0925       N46-C45=1.3172       N46-C47=1.3687       N46-Fe57=2.3318      
C47-C43=1.3643       C47-N46=1.3687       C47-H55=1.0805       H48-C41=1.0909       H49-C41=1.0916       H50-C41=1.0896       
H51-C42=1.0942       H52-C42=1.0948       H53-N44=1.0029       H54-C45=1.0925       H55-C47=1.0805       Fe56-S11=2.3202      
Fe56-Fe58=2.5206     Fe56-Fe59=2.5371     Fe56-S61=2.1665      Fe56-S62=2.2359      Fe56-S63=2.1671      Fe56-Fe64=2.5487     
Fe57-S3=2.2364       Fe57-S35=2.3097      Fe57-N46=2.3318      Fe57-S62=2.1204      Fe57-Fe64=2.5229     Fe58-S19=2.2990      
Fe58-Fe56=2.5206     Fe58-Fe59=2.5432     Fe58-S60=2.1840      Fe58-S61=2.1742      Fe58-S63=2.1749      Fe58-Fe64=2.5284     
Fe59-S27=2.2874      Fe59-Fe56=2.5371     Fe59-Fe58=2.5432     Fe59-S60=2.1669      Fe59-S61=2.1707      Fe59-S62=2.2366      
Fe59-Fe64=2.5943     S60-Fe58=2.1840      S60-Fe59=2.1669      S60-Fe64=2.1827      S61-Fe56=2.1665      S61-Fe58=2.1742      
S61-Fe59=2.1707      S62-Fe56=2.2359      S62-Fe57=2.1204      S62-Fe59=2.2366      S62-Fe64=2.3111      S63-Fe56=2.1671      
S63-Fe58=2.1749      S63-Fe64=2.1490      Fe64-S35=2.2539      Fe64-Fe56=2.5487     Fe64-Fe57=2.5229     Fe64-Fe58=2.5284     
Fe64-Fe59=2.5943     Fe64-S60=2.1827      Fe64-S62=2.3111      Fe64-S63=2.1490      
 C  H  Rav=1.0953 sigma=0.0040  Rmin=1.0805  Rmax=1.1006    32
 C  C  Rav=1.5039 sigma=0.0540  Rmin=1.3643  Rmax=1.5347     8
 N  H  Rav=1.0029 sigma=0.0000  Rmin=1.0029  Rmax=1.0029     1
 N  C  Rav=1.3560 sigma=0.0229  Rmin=1.3172  Rmax=1.3755     4
 S  C  Rav=1.8252 sigma=0.0044  Rmin=1.8205  Rmax=1.8331     5
 Fe N  Rav=2.3318 sigma=0.0000  Rmin=2.3318  Rmax=2.3318     1
 Fe S  Rav=2.2183 sigma=0.0615  Rmin=2.1204  Rmax=2.3202    19
 Fe Fe Rav=2.5422 sigma=0.0233  Rmin=2.5206  Rmax=2.5943     7

 selected bond angles (degree)
 --------------------
H4-C1-C2=111.75                H5-C1-C2=110.07                H5-C1-H4=108.74                H6-C1-C2=109.64                
H6-C1-H4=108.55                H6-C1-H5=108.01                S3-C2-C1=110.28                H7-C2-C1=109.18                
H7-C2-S3=113.17                H8-C2-C1=108.81                H8-C2-S3=108.01                H8-C2-H7=107.27                
Fe57-S3-C2=113.08              H12-C9-C10=112.06              H13-C9-C10=109.54              H13-C9-H12=108.68              
H14-C9-C10=109.83              H14-C9-H12=108.85              H14-C9-H13=107.78              S11-C10-C9=108.26              
H15-C10-C9=108.88              H15-C10-S11=110.01             H16-C10-C9=109.23              H16-C10-S11=112.66             
H16-C10-H15=107.74             

 selected dihedral angles (degree)
 ---------------------------------
S3-C2-C1-H4=176.91            S3-C2-C1-H5=297.84            S3-C2-C1-H6= 56.52            H7-C2-C1-H4=301.84            
H7-C2-C1-H5= 62.77            H7-C2-C1-H6=181.45            H8-C2-C1-H4= 58.61            H8-C2-C1-H5=179.55            
H8-C2-C1-H6=298.22            Fe57-S3-C2-C1= 90.26          Fe57-S3-C2-H7=327.64          Fe57-S3-C2-H8=209.04          
S11-C10-C9-H12=180.26         S11-C10-C9-H13=300.96         S11-C10-C9-H14= 59.15         H15-C10-C9-H12=299.84         
H15-C10-C9-H13= 60.55         H15-C10-C9-H14=178.73         H16-C10-C9-H12= 57.25         H16-C10-C9-H13=177.96         
H16-C10-C9-H14=296.14         
           -------------------------------------------------
          |                Final Singlepoint                |
           -------------------------------------------------

          ...................................................
          :                      SETUP                      :
          :.................................................:
          :  # basis functions                 274          :
          :  # atomic orbitals                 260          :
          :  # shells                          142          :
          :  # electrons                       200          :
          :  # halogen bonds                     0          :
          :  max. iterations                   250          :
          :  Hamiltonian                  GFN1-xTB          :
          :  restarted?                      false          :
          :  GBSA solvation                   true          :
          :  PC potential                    false          :
          :  electronic temp.          300.0000000     K    :
          :  accuracy                    1.0000000          :
          :  -> integral cutoff          0.2500000E+02      :
          :  -> integral neglect         0.1000000E-07      :
          :  -> SCF convergence          0.1000000E-05 Eh   :
          :  -> wf. convergence          0.2000000E-04 e    :
          :  Broyden damping             0.4000000          :
          ...................................................

 iter      E             dE          RMSdq      gap      omega  full diag
   1   -106.1876981 -0.106188E+03  0.154E-05    0.24       0.0  T
   2   -106.1876980  0.772617E-07  0.535E-04    0.24      23.4  T
   3   -106.1876981 -0.770205E-07  0.325E-05    0.24     384.4  T
   4   -106.1876981 -0.256080E-09  0.133E-05    0.24     940.1  T

   *** convergence criteria satisfied after 4 iterations ***

         #    Occupation            Energy/Eh            Energy/eV
      -------------------------------------------------------------
         1        2.0000           -0.7637786             -20.7835
       ...           ...                  ...                  ...
        94        2.0000           -0.2155981              -5.8667
        95        2.0000           -0.2144742              -5.8361
        96        2.0000           -0.2136392              -5.8134
        97        1.9999           -0.2115601              -5.7568
        98        1.9993           -0.2099915              -5.7142
        99        1.9955           -0.2081684              -5.6645
       100        1.9845           -0.2069918              -5.6325 (HOMO)
       101        0.0207           -0.1980483              -5.3892 (LUMO)
       102        0.0000           -0.1917903              -5.2189
       103        0.0000           -0.1909404              -5.1958
       104        0.0000           -0.1888384              -5.1386
       105        0.0000           -0.1866027              -5.0777
       ...           ...                  ...                  ...
       260                         15.3489331             417.6657
      -------------------------------------------------------------
                  HL-Gap            0.0089435 Eh            0.2434 eV
             Fermi-level           -0.2023794 Eh           -5.5070 eV

 SCC (total)                   0 d,  0 h,  0 min,  0.622 sec
 SCC setup                      ...        0 min,  0.002 sec (  0.301%)
 Dispersion                     ...        0 min,  0.001 sec (  0.099%)
 classical contributions        ...        0 min,  0.000 sec (  0.019%)
 integral evaluation            ...        0 min,  0.032 sec (  5.168%)
 iterations                     ...        0 min,  0.462 sec ( 74.173%)
 molecular gradient             ...        0 min,  0.097 sec ( 15.654%)
 printout                       ...        0 min,  0.028 sec (  4.574%)

         :::::::::::::::::::::::::::::::::::::::::::::::::::::
         ::                     SUMMARY                     ::
         :::::::::::::::::::::::::::::::::::::::::::::::::::::
         :: total energy            -105.376626784710 Eh    ::
         :: total w/o Gsasa/hb      -105.372669660457 Eh    ::
         :: gradient norm              0.001924440542 Eh/a0 ::
         :: HOMO-LUMO gap              0.243365689609 eV    ::
         ::.................................................::
         :: SCC energy              -106.187698100110 Eh    ::
         :: -> electrostatic           0.585876898240 Eh    ::
         :: -> Gsolv                  -0.345096207862 Eh    ::
         ::    -> Gelec               -0.341139083609 Eh    ::
         ::    -> Gsasa               -0.006711485260 Eh    ::
         ::    -> Ghb                 -0.001491245664 Eh    ::
         ::    -> Gshift               0.004245606671 Eh    ::
         :: repulsion energy           0.870773590546 Eh    ::
         :: dispersion energy         -0.059702275147 Eh    ::
         :: halogen bond corr.         0.000000000000 Eh    ::
         :: add. restraining           0.000000000000 Eh    ::
         :: total charge              -2.999999999834 e     ::
         :::::::::::::::::::::::::::::::::::::::::::::::::::::

           -------------------------------------------------
          |                Property Printout                |
           -------------------------------------------------

    * Orbital Energies and Occupations

         #    Occupation            Energy/Eh            Energy/eV
      -------------------------------------------------------------
         1        2.0000           -0.7637786             -20.7835
       ...           ...                  ...                  ...
        88        2.0000           -0.2316162              -6.3026
        89        2.0000           -0.2260266              -6.1505
        90        2.0000           -0.2248328              -6.1180
        91        2.0000           -0.2242415              -6.1019
        92        2.0000           -0.2233521              -6.0777
        93        2.0000           -0.2213896              -6.0243
        94        2.0000           -0.2155981              -5.8667
        95        2.0000           -0.2144742              -5.8361
        96        2.0000           -0.2136392              -5.8134
        97        1.9999           -0.2115601              -5.7568
        98        1.9993           -0.2099915              -5.7142
        99        1.9955           -0.2081684              -5.6645
       100        1.9845           -0.2069918              -5.6325 (HOMO)
       101        0.0207           -0.1980483              -5.3892 (LUMO)
       102        0.0000           -0.1917903              -5.2189
       103        0.0000           -0.1909404              -5.1958
       104        0.0000           -0.1888384              -5.1386
       105        0.0000           -0.1866027              -5.0777
       106                         -0.1825766              -4.9682
       107                         -0.1814080              -4.9364
       108                         -0.1735316              -4.7220
       109                         -0.1661793              -4.5220
       110                         -0.1618049              -4.4029
       111                         -0.1612412              -4.3876
       ...                                ...                  ...
       260                         15.3489331             417.6657
      -------------------------------------------------------------
                  HL-Gap            0.0089435 Eh            0.2434 eV
             Fermi-level           -0.2023794 Eh           -5.5070 eV

  Mulliken/CM5 charges         n(s)   n(p)   n(d)
     1C    -0.06214 -0.21011   1.003  3.059  0.000
     2C     0.01608 -0.07783   1.025  2.959  0.000
     3S    -0.35062 -0.43966   1.901  4.456 -0.007
     4H    -0.01411  0.03642   1.014  0.000  0.000
     5H    -0.00109  0.05099   1.001  0.000  0.000
     6H    -0.01261  0.03958   1.013  0.000  0.000
     7H    -0.02538  0.03204   1.025  0.000  0.000
     8H    -0.04298  0.01212   1.043  0.000  0.000
     9C    -0.06739 -0.21536   1.004  3.063  0.000
    10C     0.02116 -0.07301   1.024  2.955  0.000
    11S    -0.35715 -0.43767   1.906  4.462 -0.011
    12H    -0.01250  0.03799   1.013  0.000  0.000
    13H    -0.01196  0.04046   1.012  0.000  0.000
    14H    -0.00689  0.04543   1.007  0.000  0.000
    15H    -0.03810  0.01652   1.038  0.000  0.000
    16H    -0.01758  0.03715   1.018  0.000  0.000
    17C    -0.06089 -0.20831   1.003  3.058  0.000
    18C     0.02412 -0.06945   1.022  2.954  0.000
    19S    -0.38053 -0.45841   1.901  4.490 -0.011
    20H    -0.02201  0.02840   1.022  0.000  0.000
    21H    -0.01911  0.03283   1.019  0.000  0.000
    22H    -0.00219  0.05280   1.002  0.000  0.000
    23H    -0.04955  0.00542   1.050  0.000  0.000
    24H    -0.03013  0.02419   1.030  0.000  0.000
    25C    -0.05930 -0.20681   1.002  3.057  0.000
    26C     0.02476 -0.06859   1.022  2.953  0.000
    27S    -0.37465 -0.45415   1.899  4.486 -0.011
    28H    -0.01736  0.03464   1.017  0.000  0.000
    29H    -0.02289  0.02761   1.023  0.000  0.000
    30H    -0.00394  0.05099   1.004  0.000  0.000
    31H    -0.03094  0.02336   1.031  0.000  0.000
    32H    -0.04919  0.00583   1.049  0.000  0.000
    33C    -0.06142 -0.20930   1.003  3.058  0.000
    34C     0.01769 -0.07808   1.027  2.955  0.000
    35S    -0.19263 -0.32912   1.892  4.304 -0.003
    36H     0.00238  0.05662   0.998  0.000  0.000
    37H    -0.01185  0.04032   1.012  0.000  0.000
    38H    -0.01423  0.03642   1.014  0.000  0.000
    39H    -0.01245  0.04280   1.012  0.000  0.000
    40H    -0.03667  0.01830   1.037  0.000  0.000
    41C    -0.07461 -0.22417   1.006  3.069  0.000
    42C    -0.04108 -0.14234   1.022  3.019  0.000
    43C     0.05024  0.11055   1.046  2.904  0.000
    44N    -0.28857 -0.64544   1.430  3.859  0.000
    45C     0.20858  0.30525   0.996  2.795  0.000
    46N    -0.29315 -0.52163   1.537  3.756  0.000
    47C     0.06434  0.08976   1.018  2.917  0.000
    48H     0.02272  0.07561   0.977  0.000  0.000
    49H     0.02477  0.07700   0.975  0.000  0.000
    50H     0.02505  0.07642   0.975  0.000  0.000
    51H     0.02227  0.07974   0.978  0.000  0.000
    52H     0.02382  0.07941   0.976  0.000  0.000
    53H     0.23135  0.42772   0.769  0.000  0.000
    54H     0.00876  0.08410   0.991  0.000  0.000
    55H     0.00088  0.06754   0.999  0.000  0.000
    56Fe   -0.03045  0.23755   0.143  0.949  6.939
    57Fe   -0.06260  0.18677   0.151  0.855  7.056
    58Fe   -0.03026  0.24582   0.151  0.966  6.913
    59Fe   -0.03202  0.23923   0.150  0.954  6.929
    60S    -0.12473 -0.35341   1.869  4.275 -0.019
    61S    -0.16427 -0.38876   1.865  4.317 -0.018
    62S    -0.01241 -0.27591   1.858  4.168 -0.014
    63S    -0.14687 -0.37559   1.865  4.300 -0.019
    64Fe   -0.01550  0.25141   0.117  0.952  6.946

Wiberg/Mayer (AO) data.
largest (>0.10) Wiberg bond orders for each atom

 ---------------------------------------------------------------------------
     #   Z sym  total        # sym  WBO       # sym  WBO       # sym  WBO
 ---------------------------------------------------------------------------
     1   6 C    3.992 --     2 C    1.016     6 H    0.988     5 H    0.986
                             4 H    0.985
     2   6 C    3.985 --     1 C    1.016     8 H    0.987     7 H    0.982
                             3 S    0.958
     3  16 S    1.932 --     2 C    0.958    57 Fe   0.731
     4   1 H    1.010 --     1 C    0.985
     5   1 H    1.029 --     1 C    0.986
     6   1 H    1.033 --     1 C    0.988
     7   1 H    1.024 --     2 C    0.982
     8   1 H    1.035 --     2 C    0.987
     9   6 C    3.992 --    10 C    1.017    13 H    0.988    14 H    0.987
                            12 H    0.985
    10   6 C    3.985 --     9 C    1.017    15 H    0.988    16 H    0.984
                            11 S    0.965
    11  16 S    1.943 --    10 C    0.965    56 Fe   0.601    54 H    0.107
    12   1 H    1.009 --     9 C    0.985
    13   1 H    1.033 --     9 C    0.988
    14   1 H    1.034 --     9 C    0.987
    15   1 H    1.031 --    10 C    0.988
    16   1 H    1.025 --    10 C    0.984
    17   6 C    3.988 --    18 C    1.016    21 H    0.989    20 H    0.985
                            22 H    0.969
    18   6 C    3.985 --    17 C    1.016    23 H    0.986    24 H    0.986
                            19 S    0.969
    19  16 S    1.881 --    18 C    0.969    58 Fe   0.659
    20   1 H    1.010 --    17 C    0.985
    21   1 H    1.029 --    17 C    0.989
    22   1 H    1.062 --    17 C    0.969
    23   1 H    1.034 --    18 C    0.986
    24   1 H    1.023 --    18 C    0.986
    25   6 C    3.988 --    26 C    1.015    28 H    0.988    29 H    0.986
                            30 H    0.971
    26   6 C    3.984 --    25 C    1.015    32 H    0.986    31 H    0.986
                            27 S    0.968
    27  16 S    1.904 --    26 C    0.968    59 Fe   0.673
    28   1 H    1.031 --    25 C    0.988
    29   1 H    1.011 --    25 C    0.986
    30   1 H    1.061 --    25 C    0.971
    31   1 H    1.024 --    26 C    0.986
    32   1 H    1.034 --    26 C    0.986
    33   6 C    3.992 --    34 C    1.021    37 H    0.988    38 H    0.985
                            36 H    0.975
    34   6 C    3.984 --    33 C    1.021    40 H    0.988    39 H    0.984
                            35 S    0.930
    35  16 S    2.262 --    34 C    0.930    64 Fe   0.580    57 Fe   0.563
    36   1 H    1.054 --    33 C    0.975
    37   1 H    1.024 --    33 C    0.988
    38   1 H    1.009 --    33 C    0.985
    39   1 H    1.019 --    34 C    0.984
    40   1 H    1.032 --    34 C    0.988
    41   6 C    3.997 --    42 C    1.000    48 H    0.989    49 H    0.988
                            50 H    0.988
    42   6 C    3.998 --    43 C    1.014    41 C    1.000    52 H    0.978
                            51 H    0.977
    43   6 C    3.916 --    47 C    1.575    44 N    1.143    42 C    1.014
                            45 C    0.101
    44   7 N    3.443 --    45 C    1.200    43 C    1.143    53 H    0.913
    45   6 C    3.903 --    46 N    1.508    44 N    1.200    54 H    0.935
                            43 C    0.101
    46   7 N    3.208 --    45 C    1.508    47 C    1.254    57 Fe   0.286
    47   6 C    3.966 --    43 C    1.575    46 N    1.254    55 H    0.973
    48   1 H    1.008 --    41 C    0.989
    49   1 H    1.010 --    41 C    0.988
    50   1 H    1.005 --    41 C    0.988
    51   1 H    1.006 --    42 C    0.977
    52   1 H    1.009 --    42 C    0.978
    53   1 H    0.950 --    44 N    0.913
    54   1 H    1.081 --    45 C    0.935    11 S    0.107
    55   1 H    1.038 --    47 C    0.973
    56  26 Fe   5.683 --    63 S    0.834    61 S    0.816    58 Fe   0.798
                            59 Fe   0.712    64 Fe   0.686    62 S    0.653
                            11 S    0.601    57 Fe   0.392
    57  26 Fe   4.549 --    62 S    0.858     3 S    0.731    64 Fe   0.685
                            35 S    0.563    59 Fe   0.472    56 Fe   0.392
                            46 N    0.286    58 Fe   0.264
    58  26 Fe   5.835 --    61 S    0.832    63 S    0.810    60 S    0.800
                            56 Fe   0.798    59 Fe   0.764    64 Fe   0.727
                            19 S    0.659    57 Fe   0.264
    59  26 Fe   5.717 --    60 S    0.828    61 S    0.822    58 Fe   0.764
                            56 Fe   0.712    27 S    0.673    62 S    0.639
                            64 Fe   0.609    57 Fe   0.472
    60  16 S    2.670 --    59 Fe   0.828    58 Fe   0.800    64 Fe   0.773
    61  16 S    2.588 --    58 Fe   0.832    59 Fe   0.822    56 Fe   0.816
    62  16 S    2.781 --    57 Fe   0.858    56 Fe   0.653    59 Fe   0.639
                            64 Fe   0.546
    63  16 S    2.657 --    64 Fe   0.859    56 Fe   0.834    58 Fe   0.810
    64  26 Fe   5.676 --    63 S    0.859    60 S    0.773    58 Fe   0.727
                            56 Fe   0.686    57 Fe   0.685    59 Fe   0.609
                            35 S    0.580    62 S    0.546
 ---------------------------------------------------------------------------

Topologies differ in total number of bonds
Writing topology from bond orders to xtbtopo.mol

 dipole moment from electron density (au)
     X       Y       Z   
-307.6609 -62.2826-279.5708  total (Debye): 1068.424

           -------------------------------------------------
          |                Geometry Summary                 |
           -------------------------------------------------

      molecular mass/u    :      809.2452985
   center of mass at/Å    :       53.5564360      11.7451397      49.2794085
  moments of inertia/u·Å² :        0.4984384E+04   0.9414133E+04   0.1044032E+05
rotational constants/cm⁻¹ :        0.3382090E-02   0.1790673E-02   0.1614666E-02

 * 64 selected distances

     #   Z          #   Z                                           value/Å
     1   6 C        2   6 C                                       1.5281087
     1   6 C        4   1 H                                       1.0952160
     1   6 C        5   1 H                                       1.0934548
     1   6 C        6   1 H                                       1.0931382
     2   6 C        7   1 H                                       1.0996427
     2   6 C        8   1 H                                       1.0987000
     9   6 C       10   6 C                                       1.5278581
     9   6 C       12   1 H                                       1.0952616
     9   6 C       13   1 H                                       1.0919436
     9   6 C       14   1 H                                       1.0925315
    10   6 C       15   1 H                                       1.0992075
    10   6 C       16   1 H                                       1.0981304
    17   6 C       18   6 C                                       1.5281808
    17   6 C       20   1 H                                       1.0965251
    17   6 C       21   1 H                                       1.0939248
    17   6 C       22   1 H                                       1.0982252
    18   6 C       23   1 H                                       1.0999842
    18   6 C       24   1 H                                       1.1002533
    25   6 C       26   6 C                                       1.5294668
    25   6 C       28   1 H                                       1.0940382
    25   6 C       29   1 H                                       1.0959310
    25   6 C       30   1 H                                       1.0975859
    26   6 C       31   1 H                                       1.1005577
    26   6 C       32   1 H                                       1.1001222
    33   6 C       34   6 C                                       1.5242492
    34   6 C       35  16 S                                       1.8331179
    33   6 C       36   1 H                                       1.0963684
    33   6 C       37   1 H                                       1.0933942
    33   6 C       38   1 H                                       1.0950768
    34   6 C       39   1 H                                       1.0969507
    34   6 C       40   1 H                                       1.0981257
    41   6 C       42   6 C                                       1.5347045
    42   6 C       43   6 C                                       1.4941411
    43   6 C       44   7 N                                       1.3754678
    44   7 N       45   6 C                                       1.3627010
    45   6 C       46   7 N                                       1.3171744
    43   6 C       47   6 C                                       1.3642919
    46   7 N       47   6 C                                       1.3686544
    41   6 C       48   1 H                                       1.0909057
    41   6 C       49   1 H                                       1.0916010
    41   6 C       50   1 H                                       1.0895745
    42   6 C       51   1 H                                       1.0942170
    42   6 C       52   1 H                                       1.0947783
    44   7 N       53   1 H                                       1.0028613 (min)
    45   6 C       54   1 H                                       1.0925380
    47   6 C       55   1 H                                       1.0804807
    56  26 Fe      58  26 Fe                                      2.5206317
    56  26 Fe      59  26 Fe                                      2.5370780
    58  26 Fe      60  16 S                                       2.1840083
    59  26 Fe      60  16 S                                       2.1668753
    56  26 Fe      61  16 S                                       2.1664825
    58  26 Fe      61  16 S                                       2.1742033
    59  26 Fe      61  16 S                                       2.1706792
    56  26 Fe      62  16 S                                       2.2359462
    57  26 Fe      62  16 S                                       2.1204012
    59  26 Fe      62  16 S                                       2.2366128
    56  26 Fe      63  16 S                                       2.1671299
    58  26 Fe      63  16 S                                       2.1748880
    35  16 S       64  26 Fe                                      2.2538677
    56  26 Fe      64  26 Fe                                      2.5487337 (max)
    58  26 Fe      64  26 Fe                                      2.5283525
    60  16 S       64  26 Fe                                      2.1827257
    62  16 S       64  26 Fe                                      2.3111108
    63  16 S       64  26 Fe                                      2.1490277

 * 7 distinct bonds (by element types)

   Z      Z             #   av. dist./Å        max./Å        min./Å
   1 H    6 C          32     1.0952620     1.1005577     1.0804807
   6 C    6 C           8     1.5038751     1.5347045     1.3642919
   1 H    7 N           1     1.0028613     1.0028613     1.0028613
   6 C    7 N           4     1.3559994     1.3754678     1.3171744
   6 C   16 S           1     1.8331179     1.8331179     1.8331179
  16 S   26 Fe         14     2.1924256     2.3111108     2.1204012
  26 Fe  26 Fe          4     2.5336990     2.5487337     2.5206317


optimized geometry written to: xtbopt.xyz


           -------------------------------------------------
          | TOTAL ENERGY             -105.376626784710 Eh   |
          | GRADIENT NORM               0.001924440542 Eh/α |
          | HOMO-LUMO GAP               0.243365689609 eV   |
           -------------------------------------------------

------------------------------------------------------------------------
 * finished run on 2026/09/12 at 19:25:55.224     
------------------------------------------------------------------------
 total:
 * wall-time:     0 d,  0 h,  2 min, 35.678 sec
 *  cpu-time:     0 d,  0 h,  3 min, 49.028 sec
 * ratio c/w:     1.471 speedup
 SCF:
 * wall-time:     0 d,  0 h,  0 min,  5.859 sec
 *  cpu-time:     0 d,  0 h,  0 min,  6.976 sec
 * ratio c/w:     1.191 speedup
 ANC optimizer:
 * wall-time:     0 d,  0 h,  2 min, 29.773 sec
 *  cpu-time:     0 d,  0 h,  3 min, 41.778 sec
Note: The following floating-point exceptions are signalling: IEEE_UNDERFLOW_FLAG IEEE_DENORMAL
normal termination of xtb
 * ratio c/w:     1.481 speedup

