64
 energy: -105.376626784710 gnorm: 0.001924440542 xtb: 6.6.1 (unknown)
C           53.67413420083800       15.46880323185927       53.69832359471358
C           53.47765386936804       16.15772827590462       52.34854821948077
S           54.69571490179601       15.53886217162983       51.13961798885743
H           52.99004943684251       15.86180554442766       54.45797814481158
H           53.50721559221598       14.39281594289689       53.59816071306499
H           54.70044431629396       15.62102160327531       54.04251554632127
H           52.43647544297443       16.02204305312599       52.02182080033099
H           53.64197587960344       17.23675596463420       52.47440159781182
C           47.99209690945750        9.41894546442959       49.77683448721397
C           49.18658459270815       10.22983597078664       50.27684022686073
S           49.97917356100466       11.02780772921104       48.83804992755727
H           47.46568132508221        8.91505138153455       50.59449893105192
H           47.29049883875340       10.08028519587543       49.26426210167741
H           48.32861397770915        8.66813835070749       49.05803700978934
H           48.82793707293932       10.99423090266899       50.98063658698291
H           49.87068850058741        9.56676623454476       50.82294509464794
C           57.39793559297003        7.68515103084873       46.79652370510073
C           56.09561434440485        6.93320683817453       46.52472327605820
S           54.75014588250595        8.03633853920401       45.98368574914431
H           58.19824901474625        7.00476805389399       47.11107816674866
H           57.72057482413837        8.20779211522109       45.89130464510151
H           57.24206071550562        8.43412167302454       47.58446046318910
H           56.26641741523797        6.21218831247492       45.71175119439760
H           55.81679559410131        6.35311436054213       47.41708523106201
C           57.82332479539843        9.37662689357116       51.61963483692469
C           56.73742572936542        8.40234254305030       52.07883125775922
S           55.10873112327641        9.19510789267492       52.26088259111282
H           57.87088147357149       10.22857761372749       52.30435206713033
H           58.80735024910059        8.89495375229620       51.59226080399539
H           57.58801191246949        9.75343636792700       50.61597305022119
H           56.70675016659995        7.54409488074934       51.39057475027702
H           57.01298980282655        8.01126451646323       53.06948312166796
C           55.38692704340780       16.30756859253292       47.53815490881603
C           55.10870494268017       14.88275075747979       47.07358865448995
S           55.62948754510095       13.71489984712633       48.38706890354990
H           54.87631067785749       16.50190586432716       48.48869554598468
H           56.45949088061393       16.44240103412669       47.70228167989187
H           55.05223570148632       17.04420105806041       46.80022044188051
H           54.04988909070357       14.77721437385940       46.80699581615136
H           55.70522249626571       14.67288449733775       46.17581203718487
C           49.53306825493593       18.32626065156500       50.75002885659816
C           49.86062049798234       17.87464161955870       49.32032001496874
C           50.53320359361966       16.54044336588743       49.31826071516138
N           49.82642562118396       15.36056395658177       49.30211167771816
C           50.72216730800135       14.33694564256633       49.38461060180740
N           51.94802551098757       14.81251753017045       49.46239910571270
C           51.84399104736357       16.17661311668176       49.42197067969856
H           48.86799733463703       17.60738089610589       51.23061973114223
H           50.44684501852424       18.40529879282549       51.34193887575808
H           49.04152113314918       19.29851612153320       50.73350032574342
H           48.93467490626001       17.82919549943226       48.73905412148266
H           50.51568623932219       18.61593705166654       48.85137511377403
H           48.82959543030696       15.29062093469444       49.21744660684344
H           50.42533387545154       13.28574455305526       49.36213332809267
H           52.71565119153376       16.81353662095728       49.46641574782830
Fe          52.25485724580099       10.57958610479065       48.90016111945441
Fe          53.96498230388567       13.76677753087337       49.98756358668346
Fe          54.15405335197734        9.40012446385070       47.73589858715097
Fe          54.29310328164777        9.86662792069493       50.23207978897718
S           55.89470476060622       10.17278036918074       48.80502303591697
S           52.87486783345710        8.53642183310001       49.26719257588030
S           53.24722347678677       11.82975529212785       50.46596471322294
S           53.08909506449614       11.13923678251913       46.97992946064939
Fe          54.46153016513566       11.79056917354282       48.49996477022894
