    28
 geometry
 Fe                    0.84221308     1.01295294     1.04615238
 Fe                    0.82357961    -1.02649077    -0.99492931
 Fe                   -0.82220431     1.02626901    -0.99469366
 Fe                   -0.84076238    -1.01262991     1.04610856
 S                    -1.36059190     1.23707628     1.24791097
 S                     1.36155236    -1.23673050     1.24765918
 S                     1.38869716     1.20883921    -1.19548547
 S                    -1.38770940    -1.20895211    -1.19572909
 S                     1.27792840     2.61047368     2.60355590
 C                     3.03015922     3.00330061     2.98300563
 H                     3.07065170     3.99504727     3.50732363
 H                     3.67710725     3.09861939     2.08475008
 H                     3.48556840     2.23861369     3.65272131
 S                     1.21739141    -2.58097822    -2.60914776
 C                     2.98079622    -2.96859454    -3.00088550
 H                     3.63926335    -2.08733579    -3.10509748
 H                     3.01189157    -3.50719900    -3.98595352
 H                     3.43244853    -3.64002901    -2.23418305
 S                    -1.22436966     2.57759303    -2.60450560
 C                    -2.97932655     2.96932774    -3.00169519
 H                    -3.63799500     2.08712058    -3.10540316
 H                    -3.01072473     3.50701844    -3.98662174
 H                    -3.43217292     3.64000450    -2.23357470
 S                    -1.28264632    -2.60775463     2.60050034
 C                    -3.02911488    -3.00347578     2.98325075
 H                    -3.06993139    -3.99508481     3.50732452
 H                    -3.67640643    -3.09876115     2.08494106
 H                    -3.48529239    -2.23824014     3.65270088
