    28
 geometry
 Fe                    0.91735830     0.99557625     1.03253437
 Fe                    0.90184030    -1.01148605    -0.97415323
 Fe                   -0.90182189     1.01145466    -0.97416531
 Fe                   -0.91734459    -0.99556035     1.03252274
 S                    -1.30584284     1.28041063     1.30134039
 S                     1.30593203    -1.28041517     1.30140816
 S                     1.32919470     1.25845370    -1.23852913
 S                    -1.32913852    -1.25842816    -1.23851565
 S                     1.50919403     2.64856876     2.60634941
 C                     3.16914970     3.30424515     3.27114628
 H                     2.93434288     4.31654272     3.63436463
 H                     4.01493107     3.37111301     2.54611519
 H                     3.51659181     2.74391730     4.16418725
 S                     1.45491997    -2.60936738    -2.63793222
 C                     3.13165050    -3.25916992    -3.29314188
 H                     3.97488675    -2.53981105    -3.37468342
 H                     2.88928476    -3.63516600    -4.30173727
 H                     3.48468006    -4.15197925    -2.73588500
 S                    -1.45518241     2.60913620    -2.63780854
 C                    -3.13159777     3.25919916    -3.29312408
 H                    -3.97483803     2.53979435    -3.37468601
 H                    -2.88924714     3.63515964    -4.30169624
 H                    -3.48465329     4.15195105    -2.73581265
 S                    -1.50949503    -2.64841407     2.60612681
 C                    -3.16909648    -3.30423797     3.27118913
 H                    -2.93427342    -4.31652033     3.63433281
 H                    -4.01487818    -3.37112453     2.54607633
 H                    -3.51654726    -2.74384236     4.16417711
