    28
 geometry
 Fe                    0.84296703     1.05369745     1.07805267
 Fe                    0.83065372    -1.05641543    -1.03351888
 Fe                   -0.83072793     1.05647978    -1.03337528
 Fe                   -0.84304337    -1.05378645     1.07787085
 S                    -1.36700459     1.22128194     1.23756874
 S                     1.36698733    -1.22149598     1.23744438
 S                     1.37769846     1.20917979    -1.19020895
 S                    -1.37768614    -1.20902799    -1.19035391
 S                     1.36102026     2.66113069     2.66460122
 C                     3.04847497     3.18342044     3.17638425
 H                     2.98327705     4.22335998     3.60402368
 H                     3.77404493     3.23344576     2.31673831
 H                     3.49219550     2.53586736     3.96924013
 S                     1.30884657    -2.63486692    -2.66524616
 C                     3.00539336    -3.16319656    -3.17307809
 H                     3.73516784    -2.31749944    -3.24451293
 H                     2.92206742    -3.60529611    -4.21047468
 H                     3.43649163    -3.95793231    -2.52941194
 S                    -1.30819974     2.63515211    -2.66557104
 C                    -3.00554002     3.16303388    -3.17300796
 H                    -3.73538605     2.31747687    -3.24448703
 H                    -2.92218381     3.60527544    -4.21041719
 H                    -3.43655046     3.95778370    -2.52934118
 S                    -1.36058393    -2.66127799     2.66480837
 C                    -3.04857078    -3.18333371     3.17631542
 H                    -2.98334361    -4.22329676     3.60403764
 H                    -3.77420065    -3.23340069     2.31675622
 H                    -3.49226500    -2.53575886     3.96916332
