    28
 geometry
 Fe                    0.86936800     1.03574956     1.06901006
 Fe                    0.85511714    -1.04425511    -1.01074051
 Fe                   -0.85511271     1.04424350    -1.01071117
 Fe                   -0.86935040    -1.03574496     1.06899343
 S                    -1.34439660     1.24088759     1.26458573
 S                     1.34442928    -1.24092905     1.26453707
 S                     1.35922377     1.22596630    -1.20259121
 S                    -1.35918314    -1.22601339    -1.20258070
 S                     1.38956455     2.68356173     2.66062290
 C                     3.09623948     3.24584513     3.20861153
 H                     2.96803977     4.27892882     3.62964862
 H                     3.87169037     3.28336119     2.42154888
 H                     3.50436593     2.62926962     4.04375645
 S                     1.40636342    -2.61648984    -2.64118155
 C                     3.03368537    -3.22033324    -3.25197851
 H                     3.81260213    -2.41749066    -3.29206478
 H                     2.89732389    -3.62856754    -4.27804184
 H                     3.45430727    -4.04270382    -2.62111921
 S                    -1.40633995     2.61643776    -2.64122901
 C                    -3.03375594     3.22024992    -3.25192612
 H                    -3.81266293     2.41749990    -3.29207156
 H                    -2.89733412     3.62859473    -4.27796313
 H                    -3.45428250     4.04266206    -2.62107485
 S                    -1.38939785    -2.68361437     2.66061149
 C                    -3.09633158    -3.24574335     3.20846523
 H                    -2.96803567    -4.27878691     3.62965256
 H                    -3.87177990    -3.28335943     2.42155998
 H                    -3.50435705    -2.62922615     4.04367020
