    28
 geometry
 Fe                    0.81827042     1.05844381     1.07815820
 Fe                    0.80620492    -1.05864434    -1.04120573
 Fe                   -0.80173778     1.05856268    -1.04099326
 Fe                   -0.81417414    -1.05819535     1.07775640
 S                    -1.38395457     1.20614280     1.21643781
 S                     1.38795836    -1.20609570     1.21698279
 S                     1.39920206     1.19399231    -1.17905150
 S                    -1.39532332    -1.19306985    -1.17924920
 S                     1.26732180     2.64749687     2.64923662
 C                     3.01969667     3.05029988     3.04090022
 H                     3.01954611     4.04745477     3.54054085
 H                     3.66241624     3.12909725     2.13522019
 H                     3.47474832     2.32197498     3.74528740
 S                     1.21832487    -2.61317616    -2.64827037
 C                     2.97038781    -3.03172983    -3.04400753
 H                     3.62327590    -2.13498651    -3.13936178
 H                     2.95762769    -3.54002206    -4.03838443
 H                     3.41608458    -3.73745240    -2.31652176
 S                    -1.24422695     2.59872147    -2.63450396
 C                    -2.96559224     3.03694631    -3.04641857
 H                    -3.61793432     2.13388376    -3.14033714
 H                    -2.95319753     3.53888425    -4.03947024
 H                    -3.41491197     3.73953764    -2.31586637
 S                    -1.28450698    -2.63832806     2.63888161
 C                    -3.01634888    -3.05145896     3.04401218
 H                    -3.01653639    -4.04768977     3.53982483
 H                    -3.65861567    -3.12948293     2.13413367
 H                    -3.47400499    -2.32110686     3.74626901
