    28
 geometry
 Fe                    0.93289311     0.98018438     1.01055163
 Fe                    0.91931314    -0.99438036    -0.96426558
 Fe                   -0.91936455     0.99434127    -0.96428211
 Fe                   -0.93294091    -0.98016162     1.01055385
 S                    -1.30178940     1.29004279     1.30561479
 S                     1.30180670    -1.29004717     1.30568290
 S                     1.32207418     1.27095850    -1.25515881
 S                    -1.32207524    -1.27094146    -1.25511539
 S                     1.59892376     2.58684056     2.58230993
 C                     3.17067401     3.32825187     3.31216937
 H                     2.91871749     4.37664023     3.60391089
 H                     4.09035425     3.41817057     2.62952508
 H                     3.53665240     2.76616327     4.22313841
 S                     1.58013600    -2.57158513    -2.57171970
 C                     3.13491781    -3.31397436    -3.32355485
 H                     4.05260321    -2.62335293    -3.42199420
 H                     2.88392757    -3.60334590    -4.37110305
 H                     3.51362141    -4.21851435    -2.75943470
 S                    -1.58004807     2.57157680    -2.57177023
 C                    -3.13495581     3.31391170    -3.32351697
 H                    -4.05266266     2.62336803    -3.42199519
 H                    -2.88392962     3.60335306    -4.37105466
 H                    -3.51360888     4.21846308    -2.75938136
 S                    -1.59881789    -2.58686944     2.58231538
 C                    -3.17069050    -3.32821650     3.31208710
 H                    -2.91869858    -4.37659208     3.60389651
 H                    -4.09040363    -3.41817728     2.62952387
 H                    -3.53662929    -2.76610751     4.22306703
