    28
 geometry
 Fe                    0.78015851     0.99535849     1.00573628
 Fe                    0.78216289    -0.98036536    -0.97072274
 Fe                   -0.78436385     0.98220058    -0.97052425
 Fe                   -0.78251582    -0.99437238     1.00666945
 S                    -1.41922026     1.20741612     1.23265293
 S                     1.41857995    -1.20576127     1.23165429
 S                     1.40248135     1.21438976    -1.18655599
 S                    -1.40566148    -1.21270558    -1.18546881
 S                     1.38973940     2.56695004     2.49447276
 C                     3.17172952     2.82786508     2.80525074
 H                     3.29048311     3.73861251     3.41839739
 H                     3.75501966     2.94184947     1.86530973
 H                     3.59746093     1.96398643     3.36831509
 S                     1.31342805    -2.46963390    -2.59092706
 C                     3.12935820    -2.79554891    -2.81410657
 H                     3.71640944    -1.85316660    -2.94041237
 H                     3.24134989    -3.42022813    -3.73531096
 H                     3.55232104    -3.35377577    -1.94914857
 S                    -1.34360130     2.45850851    -2.57773709
 C                    -3.12508753     2.80506763    -2.82205824
 H                    -3.71079389     1.85319708    -2.94342516
 H                    -3.23602604     3.41893645    -3.74099321
 H                    -3.55157671     3.35889632    -1.95111425
 S                    -1.35146218    -2.58724685     2.51065440
 C                    -3.17525238    -2.82411534     2.79682937
 H                    -3.29603769    -3.73641413     3.41947565
 H                    -3.75903958    -2.93936547     1.86213416
 H                    -3.60004320    -1.96053477     3.36095298
