    28
 geometry
 Fe                    0.77521037     1.00021067     1.00460740
 Fe                    0.77916213    -0.98188677    -0.97848102
 Fe                   -0.77965127     0.98259867    -0.97916915
 Fe                   -0.77634395    -1.00107907     1.00424967
 S                    -1.41581740     1.20275525     1.22626241
 S                     1.41530107    -1.20317734     1.22705474
 S                     1.39579735     1.21557771    -1.18932264
 S                    -1.39586952    -1.21484124    -1.19017693
 S                     1.39197599     2.57476718     2.51182594
 C                     3.19681643     2.80996230     2.79422789
 H                     3.33097151     3.72055645     3.41555709
 H                     3.77290800     2.92587760     1.84864092
 H                     3.62344269     1.95615670     3.35593173
 S                     1.36566795    -2.46908009    -2.57637670
 C                     3.14911871    -2.78905118    -2.81293904
 H                     3.73623348    -1.84681230    -2.92781454
 H                     3.27676688    -3.41797011    -3.73076058
 H                     3.57821054    -3.34162145    -1.94109980
 S                    -1.35958011     2.47251766    -2.57933176
 C                    -3.14884047     2.78887080    -2.81395836
 H                    -3.73618655     1.84605593    -2.92671668
 H                    -3.27761025     3.41801890    -3.73153078
 H                    -3.57958105     3.33989744    -1.93894305
 S                    -1.40406875    -2.57077251     2.50617679
 C                    -3.19358255    -2.81356421     2.79883639
 H                    -3.32874331    -3.72309240     3.41587213
 H                    -3.76975243    -2.92616023     1.84958613
 H                    -3.62195548    -1.95471437     3.35779178
