    28
 geometry
 Fe                    0.78548425     0.99869572     0.99281544
 Fe                    0.78843882    -0.98079621    -0.98609458
 Fe                   -0.78794297     0.98139804    -0.98672975
 Fe                   -0.78585351    -0.99991219     0.99236645
 S                    -1.38801272     1.21083562     1.22598698
 S                     1.38859423    -1.21162962     1.22706933
 S                     1.37259070     1.22348652    -1.21039898
 S                    -1.37177685    -1.22233387    -1.21116083
 S                     1.41850784     2.59521385     2.49396118
 C                     3.22133699     2.77974820     2.76716941
 H                     3.40976082     3.69811583     3.39873146
 H                     3.78978329     2.90018012     1.81787137
 H                     3.66795824     1.91049864     3.30567883
 S                     1.40778804    -2.50523460    -2.54488125
 C                     3.20247616    -2.76782365    -2.76780587
 H                     3.77750081    -1.82872720    -2.90187793
 H                     3.35161533    -3.39437244    -3.67620160
 H                     3.62567196    -3.31906081    -1.91456277
 S                    -1.40441669     2.50477197    -2.54693227
 C                    -3.20324582     2.76552969    -2.76479454
 H                    -3.77830309     1.83010534    -2.90191093
 H                    -3.35394194     3.39536426    -3.67505230
 H                    -3.62510160     3.31933710    -1.91694902
 S                    -1.41805477    -2.59709906     2.49251411
 C                    -3.22269404    -2.77712685     2.76580524
 H                    -3.41135426    -3.69606135     3.39945000
 H                    -3.79098476    -2.90017093     1.81935467
 H                    -3.66582444    -1.91293211     3.30657811
