    28
 geometry
 Fe                    0.81190197     1.06764505     1.08890713
 Fe                    0.79957510    -1.06747080    -1.04791936
 Fe                   -0.80043514     1.06741711    -1.04769315
 Fe                   -0.81308387    -1.06760288     1.08835515
 S                    -1.39016374     1.20069209     1.21466288
 S                     1.38935768    -1.20085624     1.21525534
 S                     1.39977289     1.18948242    -1.17255688
 S                    -1.40050920    -1.18851048    -1.17296893
 S                     1.26728162     2.66790427     2.65581943
 C                     3.02068440     3.07959237     3.05681016
 H                     3.00646893     4.07481128     3.55977053
 H                     3.67074268     3.13929402     2.16067610
 H                     3.47562338     2.35650163     3.77520051
 S                     1.22374985    -2.63105161    -2.64833171
 C                     2.96443958    -3.04784198    -3.07767084
 H                     3.62595429    -2.15919710    -3.14993505
 H                     2.93896673    -3.55886873    -4.06830223
 H                     3.41502151    -3.76519215    -2.34756430
 S                    -1.21549165     2.63510737    -2.65178312
 C                    -2.96620815     3.04562006    -3.07637332
 H                    -3.62802387     2.15926064    -3.14963964
 H                    -2.94021678     3.55889538    -4.06728568
 H                    -3.41566510     3.76389382    -2.34754712
 S                    -1.26183128    -2.67065000     2.65877529
 C                    -3.02205354    -3.07886892     3.05562724
 H                    -3.00745703    -4.07437271     3.56002312
 H                    -3.67231631    -3.13910509     2.16099377
 H                    -3.47608492    -2.35652884     3.77469465
