    28
 geometry
 Fe                    0.84136576     1.00257312     1.04227733
 Fe                    0.82369410    -1.01752462    -0.97903106
 Fe                   -0.82293438     1.01726891    -0.97873893
 Fe                   -0.84064086    -1.00255573     1.04208231
 S                    -1.36190543     1.23955609     1.25834251
 S                     1.36210326    -1.23952742     1.25780423
 S                     1.38896419     1.21211864    -1.19304126
 S                    -1.38839792    -1.21253923    -1.19356176
 S                     1.27791795     2.63781713     2.55872261
 C                     3.05474464     2.98142713     2.95401018
 H                     3.08893954     3.94655014     3.50433247
 H                     3.68474089     3.07215458     2.04175947
 H                     3.49244800     2.20008898     3.60746359
 S                     1.24105543    -2.53860212    -2.60621876
 C                     2.99781592    -2.94816341    -2.97813442
 H                     3.63508051    -2.03955990    -3.07843905
 H                     3.02467584    -3.50295177    -3.93724263
 H                     3.43776785    -3.60099622    -2.19508338
 S                    -1.24357789     2.53733507    -2.60398684
 C                    -2.99779811     2.94757148    -2.97731397
 H                    -3.63472864     2.03970232    -3.07895933
 H                    -3.02389550     3.50278947    -3.93634123
 H                    -3.43721215     3.60111246    -2.19568497
 S                    -1.27954192    -2.63723619     2.55709786
 C                    -3.05493345    -2.98054221     2.95371138
 H                    -3.08863478    -3.94548540     3.50442094
 H                    -3.68498433    -3.07228875     2.04210149
 H                    -3.49212849    -2.20009256     3.60765118
