    28
 geometry
 Fe                    0.86030818     1.04122706     1.07337733
 Fe                    0.84655341    -1.04905558    -1.01666426
 Fe                   -0.84644145     1.04906740    -1.01660284
 Fe                   -0.86020817    -1.04125667     1.07330104
 S                    -1.35180138     1.23477769     1.25753669
 S                     1.35192275    -1.23487920     1.25747441
 S                     1.36687675     1.21906749    -1.19727220
 S                    -1.36671846    -1.21904765    -1.19732111
 S                     1.42147965     2.67110082     2.63032608
 C                     3.09631042     3.23126038     3.19225074
 H                     2.96133777     4.24496845     3.62004099
 H                     3.85318034     3.27213800     2.39816782
 H                     3.49814705     2.59984547     4.01281123
 S                     1.37265377    -2.62709464    -2.64492752
 C                     3.04623456    -3.18153043    -3.22505935
 H                     3.80680489    -2.39304684    -3.27879725
 H                     2.89855955    -3.61947207    -4.23210631
 H                     3.44839068    -3.99954831    -2.58961128
 S                    -1.37300010     2.62678371    -2.64478831
 C                    -3.04624803     3.18150135    -3.22500779
 H                    -3.80680761     2.39305776    -3.27881845
 H                    -2.89850924     3.61946903    -4.23200630
 H                    -3.44834507     3.99951695    -2.58956613
 S                    -1.42176534    -2.67089939     2.63008022
 C                    -3.09632891    -3.23118996     3.19222979
 H                    -2.96126859    -4.24484384     3.62002454
 H                    -3.85318832    -3.27213621     2.39815043
 H                    -3.49812908    -2.59978078     4.01277775
