    28
 geometry
 Fe                    0.93794370     0.97308394     0.98840333
 Fe                    0.93179626    -0.97978599    -0.96482072
 Fe                   -0.93181460     0.97976225    -0.96482819
 Fe                   -0.93794659    -0.97306566     0.98841794
 S                    -1.31256636     1.28878230     1.29675793
 S                     1.31257976    -1.28881703     1.29680739
 S                     1.32258827     1.27952851    -1.27093650
 S                    -1.32257736    -1.27951471    -1.27086562
 S                     1.71335419     2.52919653     2.52692605
 C                     3.26345494     3.30325981     3.30126724
 H                     2.87917457     4.32760354     3.57193201
 H                     4.19097974     3.47829378     2.72315512
 H                     3.53298993     2.79555574     4.25020265
 S                     1.69689461    -2.52162886    -2.52795105
 C                     3.25011341    -3.29548981    -3.30032019
 H                     4.17664131    -2.72159951    -3.48035164
 H                     2.86130942    -3.57265855    -4.32233237
 H                     3.52108753    -4.24551329    -2.79191140
 S                    -1.69699493     2.52150406    -2.52793554
 C                    -3.25010338     3.29548601    -3.30030913
 H                    -4.17664296     2.72160918    -3.48035152
 H                    -2.86129103     3.57266259    -4.32230815
 H                    -3.52107183     4.24549278    -2.79186939
 S                    -1.71343982    -2.52916980     2.52676432
 C                    -3.26342751    -3.30323178     3.30124250
 H                    -2.87911950    -4.32754427     3.57191831
 H                    -4.19095286    -3.47829618     2.72314785
 H                    -3.53295889    -2.79550559     4.25014873
