    28
 geometry
 Fe                    0.82615014     1.03589639     1.05908126
 Fe                    0.81164505    -1.04128334    -1.02061960
 Fe                   -0.81747688     1.04112929    -1.02043438
 Fe                   -0.83181822    -1.03567522     1.05886451
 S                    -1.37643553     1.22138766     1.22881514
 S                     1.37108599    -1.22124525     1.22912867
 S                     1.38881489     1.20266492    -1.19007386
 S                    -1.39413677    -1.20219818    -1.19039268
 S                     1.30218076     2.60139744     2.61687965
 C                     3.01808054     3.02079793     3.01721120
 H                     3.03868251     4.01726715     3.51432446
 H                     3.66204679     3.11776782     2.10999368
 H                     3.47654822     2.27479829     3.70039921
 S                     1.25603313    -2.57259466    -2.61160932
 C                     2.97153359    -3.00874185    -3.01601924
 H                     3.62584293    -2.11194590    -3.12694354
 H                     2.98059147    -3.51392597    -4.00897906
 H                     3.42146090    -3.69321848    -2.27213044
 S                    -1.22053685     2.59149613    -2.63004347
 C                    -2.97742726     3.00299308    -3.01310489
 H                    -3.63266928     2.11148632    -3.12505269
 H                    -2.98650935     3.51497456    -4.00806880
 H                    -3.42424325     3.68987400    -2.27110386
 S                    -1.27935341    -2.61364801     2.63046464
 C                    -3.02219044    -3.01977627     3.01427038
 H                    -3.04271828    -4.01761792     3.51523222
 H                    -3.66694214    -3.11692704     2.11055362
 H                    -3.47823924    -2.27513286     3.69935717
