    28
 geometry
 Fe                    0.81730482     1.06699653     1.09045958
 Fe                    0.80675755    -1.06630470    -1.04442692
 Fe                   -0.80448033     1.06633527    -1.04421468
 Fe                   -0.81547390    -1.06696957     1.08990020
 S                    -1.38879479     1.20149232     1.21927554
 S                     1.39074738    -1.20165260     1.21983834
 S                     1.39936608     1.19225169    -1.17152371
 S                    -1.39736025    -1.19121886    -1.17192188
 S                     1.29329406     2.66581177     2.65644728
 C                     3.04915262     3.10881763     3.06331261
 H                     2.98348297     4.07933751     3.55474049
 H                     3.72060226     3.15958448     2.21411782
 H                     3.48033655     2.37491902     3.79129630
 S                     1.25882707    -2.62496017    -2.64380717
 C                     2.97826437    -3.06061590    -3.12182865
 H                     3.66669700    -2.20406494    -3.16646787
 H                     2.91526297    -3.55222832    -4.08831336
 H                     3.42746924    -3.77271818    -2.35389511
 S                    -1.26802796     2.61922500    -2.63830543
 C                    -2.97709103     3.06107598    -3.12192440
 H                    -3.66553483     2.20442257    -3.16697679
 H                    -2.91364385     3.55172147    -4.08764676
 H                    -3.42681838     3.77275491    -2.35406723
 S                    -1.29980574    -2.66202535     2.65229901
 C                    -3.04839079    -3.10876642     3.06370281
 H                    -2.98240480    -4.07878298     3.55450503
 H                    -3.71975470    -3.15975603     2.21413835
 H                    -3.47998358    -2.37468210     3.79128658
