    28
 geometry
 Fe                    0.82438545     0.99799120     1.03603130
 Fe                    0.80966532    -1.00941662    -0.97341491
 Fe                   -0.81121193     1.00944899    -0.97311363
 Fe                   -0.82558747    -0.99791134     1.03616133
 S                    -1.38164262     1.23219833     1.25184285
 S                     1.37999416    -1.23198399     1.25109090
 S                     1.40066926     1.20829184    -1.18579850
 S                    -1.40241953    -1.20863100    -1.18602094
 S                     1.30828113     2.58985202     2.53967636
 C                     3.06245357     2.93790418     2.89901326
 H                     3.12556958     3.88832127     3.48369043
 H                     3.67660637     3.03343927     1.98138076
 H                     3.50331044     2.12256510     3.52762630
 S                     1.24860620    -2.50062253    -2.59787259
 C                     3.00695839    -2.89345367    -2.92800503
 H                     3.62595713    -1.97331909    -3.03698437
 H                     3.06655319    -3.48299403    -3.88100735
 H                     3.44962881    -3.51863875    -2.11611247
 S                    -1.24492798     2.50313088    -2.60042818
 C                    -3.00675790     2.89461928    -2.92870398
 H                    -3.62543404     1.97189676    -3.03658464
 H                    -3.06638964     3.48290794    -3.88148762
 H                    -3.45065464     3.51866846    -2.11489406
 S                    -1.30629391    -2.59167305     2.54123441
 C                    -3.06187494    -2.93889965     2.90025472
 H                    -3.12549908    -3.88915815     3.48388452
 H                    -3.67628841    -3.03310424     1.98067695
 H                    -3.50365690    -2.12142940     3.52786414
