    28
 geometry
 Fe                    0.81491266     0.98663858     1.01515939
 Fe                    0.80422293    -0.99265233    -0.96474333
 Fe                   -0.80418104     0.99277272    -0.96436939
 Fe                   -0.81458826    -0.98672415     1.01525052
 S                    -1.39668892     1.22727420     1.24735833
 S                     1.39650157    -1.22707891     1.24617903
 S                     1.40818228     1.21001312    -1.19126350
 S                    -1.40862275    -1.21053213    -1.19164220
 S                     1.31237190     2.58880374     2.50336380
 C                     3.09627427     2.87319593     2.86075514
 H                     3.18064954     3.81868742     3.44923422
 H                     3.69473272     3.00476899     1.92741143
 H                     3.52588245     2.05319838     3.46423132
 S                     1.27236783    -2.48826974    -2.56575103
 C                     3.04967264    -2.84522697    -2.87742896
 H                     3.66052863    -1.93580408    -3.00736131
 H                     3.11798411    -3.44712483    -3.81377016
 H                     3.47373487    -3.44802768    -2.04672789
 S                    -1.27384518     2.48821832    -2.56387424
 C                    -3.04911909     2.84395872    -2.87764502
 H                    -3.66052349     1.93696985    -3.00747444
 H                    -3.11775831     3.44744642    -3.81408037
 H                    -3.47365159     3.44723881    -2.04715302
 S                    -1.30964337    -2.58955501     2.50450925
 C                    -3.09678160    -2.87220414     2.85841013
 H                    -3.18131856    -3.81790923     3.44971809
 H                    -3.69607608    -3.00463760     1.92856429
 H                    -3.52522015    -2.05343843     3.46313991
