    28
 geometry
 Fe                    0.88441486     1.02245340     1.06065962
 Fe                    0.87045185    -1.03429768    -0.99679315
 Fe                   -0.87042194     1.03428617    -0.99677573
 Fe                   -0.88436259    -1.02245236     1.06065380
 S                    -1.32811579     1.25576243     1.27901590
 S                     1.32817592    -1.25578914     1.27898077
 S                     1.34784292     1.23692158    -1.21088237
 S                    -1.34779351    -1.23696675    -1.21087844
 S                     1.49362525     2.63054968     2.63019336
 C                     3.09557338     3.27280726     3.25788612
 H                     2.95866846     4.32162069     3.63635151
 H                     3.89599636     3.31300827     2.45828552
 H                     3.50756114     2.67945337     4.11213970
 S                     1.41428429    -2.59560050    -2.66695634
 C                     3.04962098    -3.24051005    -3.26381175
 H                     3.85591089    -2.45264634    -3.31626816
 H                     2.90556080    -3.63687610    -4.31300467
 H                     3.46808073    -4.08915747    -2.66674636
 S                    -1.41437321     2.59547757    -2.66694539
 C                    -3.04963766     3.24046929    -3.26378335
 H                    -3.85592253     2.45262622    -3.31626268
 H                    -2.90555675     3.63689944    -4.31295509
 H                    -3.46805403     4.08912715    -2.66667852
 S                    -1.49384394    -2.63042657     2.62999109
 C                    -3.09556029    -3.27277158     3.25783152
 H                    -2.95861553    -4.32153926     3.63635255
 H                    -3.89598600    -3.31302104     2.45830216
 H                    -3.50752405    -2.67940768     4.11209838
