    28
 geometry
 Fe                    0.90546851     1.00480379     1.03414988
 Fe                    0.89066509    -1.01756752    -0.98703664
 Fe                   -0.89073064     1.01755977    -0.98702755
 Fe                   -0.90553428    -1.00479570     1.03413255
 S                    -1.31327615     1.27099660     1.28819114
 S                     1.31327516    -1.27100570     1.28822520
 S                     1.33298538     1.25193330    -1.23742695
 S                    -1.33303534    -1.25189279    -1.23743030
 S                     1.53265044     2.61591383     2.60369262
 C                     3.15109545     3.28501906     3.24869155
 H                     2.94265729     4.31140120     3.63883779
 H                     3.98084124     3.35816236     2.52396211
 H                     3.50982949     2.73719283     4.14970626
 S                     1.51905383    -2.60082159    -2.58157555
 C                     3.11595116    -3.24833451    -3.28050318
 H                     3.94362871    -2.52473927    -3.36470381
 H                     2.89174771    -3.64089234    -4.30040511
 H                     3.47362231    -4.15070435    -2.73557812
 S                    -1.51898199     2.60080841    -2.58162633
 C                    -3.11593852     3.24832825    -3.28049003
 H                    -3.94362901     2.52471182    -3.36469438
 H                    -2.89176860     3.64089592    -4.30039293
 H                    -3.47361993     4.15065869    -2.73551525
 S                    -1.53255693    -2.61595683     2.60371521
 C                    -3.15108381    -3.28499334     3.24868388
 H                    -2.94266114    -4.31139396     3.63882198
 H                    -3.98083792    -3.35816116     2.52392422
 H                    -3.50981752    -2.73712677     4.14967170
