    28
 geometry
 Fe                    0.79836166     0.98805052     1.01093967
 Fe                    0.79423234    -0.98662837    -0.96447659
 Fe                   -0.79356900     0.98601142    -0.96489500
 Fe                   -0.79834905    -0.98929468     1.01040979
 S                    -1.41085663     1.21648493     1.24049019
 S                     1.41026127    -1.21735243     1.24062906
 S                     1.41070705     1.20991838    -1.18639426
 S                    -1.40997333    -1.21100596    -1.18771108
 S                     1.30987109     2.59777702     2.50060949
 C                     3.12487175     2.84929285     2.81843063
 H                     3.23196626     3.77765179     3.43090992
 H                     3.71702069     2.97047496     1.89105927
 H                     3.55628140     1.99162400     3.39440866
 S                     1.28130019    -2.47784477    -2.57470596
 C                     3.08199317    -2.82430060    -2.83673110
 H                     3.67180458    -1.88392029    -2.97381377
 H                     3.16840252    -3.42757443    -3.76329444
 H                     3.50300379    -3.39955174    -1.98902343
 S                    -1.27362320     2.48054840    -2.57769732
 C                    -3.08313176     2.82287848    -2.83301018
 H                    -3.67173064     1.88313161    -2.97337551
 H                    -3.16891569     3.42735539    -3.76032857
 H                    -3.50287458     3.39968650    -1.99006496
 S                    -1.32463915    -2.59167029     2.49373720
 C                    -3.12353221    -2.85009763     2.82330169
 H                    -3.22976392    -3.77781077     3.43071155
 H                    -3.71460270    -2.97138790     1.89142777
 H                    -3.55451587    -1.99244639     3.39845724
