    28
 geometry
 Fe                    0.94370812     0.96954324     0.98988587
 Fe                    0.93903222    -0.97606609    -0.95642812
 Fe                   -0.93906582     0.97605999    -0.95642343
 Fe                   -0.94373180    -0.96954115     0.98988728
 S                    -1.30440249     1.29320795     1.30674406
 S                     1.30439722    -1.29325880     1.30678342
 S                     1.31298658     1.28636965    -1.27137297
 S                    -1.31299117    -1.28632792    -1.27131703
 S                     1.84478135     2.49689250     2.45628307
 C                     3.29185006     3.34762533     3.32947922
 H                     2.85384932     4.29096975     3.55975395
 H                     4.21947333     3.48134546     2.74441817
 H                     3.53380536     2.78739142     4.22992145
 S                     1.83710616    -2.43547029    -2.49426867
 C                     3.26926782    -3.32906922    -3.34205383
 H                     4.19285653    -2.74021167    -3.48386833
 H                     2.83580216    -3.55856017    -4.28600267
 H                     3.52274058    -4.22643779    -2.78249395
 S                    -1.83716363     2.43536235    -2.49425904
 C                    -3.26926126     3.32902683    -3.34201169
 H                    -4.19283252     2.74023554    -3.48387608
 H                    -2.83579512     3.55856612    -4.28593658
 H                    -3.52272561     4.22639113    -2.78247730
 S                    -1.84482210    -2.49687534     2.45618505
 C                    -3.29185855    -3.34759673     3.32943774
 H                    -2.85378695    -4.29089513     3.55974373
 H                    -4.21945076    -3.48134125     2.74439988
 H                    -3.53376903    -2.78733572     4.22986675
