    28
 geometry
 Fe                    0.80567421     0.99381865     0.98978362
 Fe                    0.80605027    -0.98104210    -0.98741657
 Fe                   -0.80708446     0.98153659    -0.98812724
 Fe                   -0.80691961    -0.99532240     0.98976246
 S                    -1.35729834     1.22785757     1.23235174
 S                     1.35682769    -1.22887845     1.23353075
 S                     1.35173603     1.23523162    -1.22523675
 S                    -1.35231186    -1.23411589    -1.22550676
 S                     1.45129512     2.57579678     2.51363566
 C                     3.26558446     2.73920064     2.75808325
 H                     3.45964430     3.64784441     3.37126700
 H                     3.81145327     2.88411758     1.79227846
 H                     3.70203773     1.87341124     3.28488605
 S                     1.41243330    -2.48060866    -2.59954936
 C                     3.24132530    -2.74507827    -2.74112775
 H                     3.80750158    -1.79888649    -2.88039836
 H                     3.42768749    -3.37183445    -3.64743040
 H                     3.67685311    -3.27142739    -1.86203653
 S                    -1.40435477     2.48512567    -2.60329234
 C                    -3.24304251     2.74300178    -2.73985635
 H                    -3.80923229     1.79913168    -2.88030340
 H                    -3.42929471     3.37230456    -3.64645568
 H                    -3.67696685     3.27128177    -1.86279042
 S                    -1.44979761    -2.57695173     2.51599770
 C                    -3.26596005    -2.73991647     2.75805282
 H                    -3.46079919    -3.64809023     3.37206492
 H                    -3.81223174    -2.88390962     1.79293401
 H                    -3.70080982    -1.87359836     3.28489945
