 argument  1 = A_HS_SVP.nw



============================== echo of input deck ==============================
echo

start A_HS_SVP

title "Model A Fe4S4 maximum-spin reference BP86 def2-SVP"

memory total 4 gb

charge -2

geometry units angstrom noautoz nocenter noautosym
    load format xyz start.xyz
end

basis spherical
    * library def2-svp
end

dft
    odft
    mult 19
    xc becke88 perdew86
    iterations 150

    convergence energy 1e-5
    convergence density 1e-4
    convergence gradient 1e-3
    convergence damp 40
    convergence lshift 0.5

    mulliken
    vectors input atomic output A_HS_SVP.movecs
end

task dft energy

================================================================================


                                         
                                         


             Northwest Computational Chemistry Package (NWChem) 7.2.2
             --------------------------------------------------------


                    Environmental Molecular Sciences Laboratory
                       Pacific Northwest National Laboratory
                                Richland, WA 99352

                              Copyright (c) 1994-2022
                       Pacific Northwest National Laboratory
                            Battelle Memorial Institute

             NWChem is an open-source computational chemistry package
                        distributed under the terms of the
                      Educational Community License (ECL) 2.0
             A copy of the license is included with this distribution
                              in the LICENSE.TXT file

                                  ACKNOWLEDGMENT
                                  --------------

            This software and its documentation were developed at the
            EMSL at Pacific Northwest National Laboratory, a multiprogram
            national laboratory, operated for the U.S. Department of Energy
            by Battelle under Contract Number DE-AC05-76RL01830. Support
            for this work was provided by the Department of Energy Office
            of Biological and Environmental Research, Office of Basic
            Energy Sciences, and the Office of Advanced Scientific Computing.


           Job information
           ---------------

    hostname        = AkhilLaptop
    program         = nwchem
    date            = Wed Sep  9 18:15:41 2026

    compiled        = Mon_Apr_01_11:12:32_2024
    source          = /build/nwchem-qbYJLs/nwchem-7.2.2/build-openmpi
    nwchem branch   = 7.2.2
    nwchem revision = N/A
    ga revision     = N/A
    use scalapack   = T
    input           = A_HS_SVP.nw
    prefix          = A_HS_SVP.
    data base       = ./A_HS_SVP.db
    status          = startup
    nproc           =        1
    time left       =     -1s



           Memory information
           ------------------

    heap     =  134217728 doubles =   1024.0 Mbytes
    stack    =  134217725 doubles =   1024.0 Mbytes
    global   =  268435456 doubles =   2048.0 Mbytes (distinct from heap & stack)
    total    =  536870909 doubles =   4096.0 Mbytes
    verify   = yes
    hardfail = no 


           Directory information
           ---------------------

  0 permanent = .
  0 scratch   = .




                                NWChem Input Module
                                -------------------


                Model A Fe4S4 maximum-spin reference BP86 def2-SVP
                --------------------------------------------------

 Scaling coordinates for geometry "geometry" by  1.889725989
 (inverse scale =  0.529177249)



                             Geometry "geometry" -> ""
                             -------------------------

 Output coordinates in angstroms (scale by  1.889725989 to convert to a.u.)

  No.       Tag          Charge          X              Y              Z
 ---- ---------------- ---------- -------------- -------------- --------------
    1 Fe                  26.0000     0.95459415     0.95459415     0.95459415
    2 Fe                  26.0000     0.95459415    -0.95459415    -0.95459415
    3 Fe                  26.0000    -0.95459415     0.95459415    -0.95459415
    4 Fe                  26.0000    -0.95459415    -0.95459415     0.95459415
    5 S                   16.0000    -1.29458595     1.29458595     1.29458595
    6 S                   16.0000     1.29458595    -1.29458595     1.29458595
    7 S                   16.0000     1.29458595     1.29458595    -1.29458595
    8 S                   16.0000    -1.29458595    -1.29458595    -1.29458595
    9 S                   16.0000     2.27095277     2.27095277     2.27095277
   10 C                    6.0000     3.32173026     3.32173026     3.32173026
   11 H                    1.0000     2.80483419     4.25816752     3.53150086
   12 H                    1.0000     4.25816752     3.53150086     2.80483419
   13 H                    1.0000     3.53150086     2.80483419     4.25816752
   14 S                   16.0000     2.27095277    -2.27095277    -2.27095277
   15 C                    6.0000     3.32173026    -3.32173026    -3.32173026
   16 H                    1.0000     4.25816752    -2.80483419    -3.53150086
   17 H                    1.0000     2.80483419    -3.53150086    -4.25816752
   18 H                    1.0000     3.53150086    -4.25816752    -2.80483419
   19 S                   16.0000    -2.27095277     2.27095277    -2.27095277
   20 C                    6.0000    -3.32173026     3.32173026    -3.32173026
   21 H                    1.0000    -4.25816752     2.80483419    -3.53150086
   22 H                    1.0000    -2.80483419     3.53150086    -4.25816752
   23 H                    1.0000    -3.53150086     4.25816752    -2.80483419
   24 S                   16.0000    -2.27095277    -2.27095277     2.27095277
   25 C                    6.0000    -3.32173026    -3.32173026     3.32173026
   26 H                    1.0000    -2.80483419    -4.25816752     3.53150086
   27 H                    1.0000    -4.25816752    -3.53150086     2.80483419
   28 H                    1.0000    -3.53150086    -2.80483419     4.25816752

      Atomic Mass 
      ----------- 

      Fe                55.934900
      S                 31.972070
      C                 12.000000
      H                  1.007825


 Effective nuclear repulsion energy (a.u.)    4848.0573252395

            Nuclear Dipole moment (a.u.) 
            ----------------------------
        X                 Y               Z
 ---------------- ---------------- ----------------
     0.0000000000     0.0000000000     0.0000000000


            XYZ format geometry
            -------------------
    28
 geometry
 Fe                    0.95459415     0.95459415     0.95459415
 Fe                    0.95459415    -0.95459415    -0.95459415
 Fe                   -0.95459415     0.95459415    -0.95459415
 Fe                   -0.95459415    -0.95459415     0.95459415
 S                    -1.29458595     1.29458595     1.29458595
 S                     1.29458595    -1.29458595     1.29458595
 S                     1.29458595     1.29458595    -1.29458595
 S                    -1.29458595    -1.29458595    -1.29458595
 S                     2.27095277     2.27095277     2.27095277
 C                     3.32173026     3.32173026     3.32173026
 H                     2.80483419     4.25816752     3.53150086
 H                     4.25816752     3.53150086     2.80483419
 H                     3.53150086     2.80483419     4.25816752
 S                     2.27095277    -2.27095277    -2.27095277
 C                     3.32173026    -3.32173026    -3.32173026
 H                     4.25816752    -2.80483419    -3.53150086
 H                     2.80483419    -3.53150086    -4.25816752
 H                     3.53150086    -4.25816752    -2.80483419
 S                    -2.27095277     2.27095277    -2.27095277
 C                    -3.32173026     3.32173026    -3.32173026
 H                    -4.25816752     2.80483419    -3.53150086
 H                    -2.80483419     3.53150086    -4.25816752
 H                    -3.53150086     4.25816752    -2.80483419
 S                    -2.27095277    -2.27095277     2.27095277
 C                    -3.32173026    -3.32173026     3.32173026
 H                    -2.80483419    -4.25816752     3.53150086
 H                    -4.25816752    -3.53150086     2.80483419
 H                    -3.53150086    -2.80483419     4.25816752

 ==============================================================================
                                internuclear distances
 ------------------------------------------------------------------------------
       center one      |      center two      | atomic units |  angstroms
 ------------------------------------------------------------------------------
    2 Fe               |   1 Fe               |     5.10226  |     2.70000
    3 Fe               |   1 Fe               |     5.10226  |     2.70000
    3 Fe               |   2 Fe               |     5.10226  |     2.70000
    4 Fe               |   1 Fe               |     5.10226  |     2.70000
    4 Fe               |   2 Fe               |     5.10226  |     2.70000
    4 Fe               |   3 Fe               |     5.10226  |     2.70000
    5 S                |   1 Fe               |     4.34637  |     2.30000
    5 S                |   3 Fe               |     4.34637  |     2.30000
    5 S                |   4 Fe               |     4.34637  |     2.30000
    6 S                |   1 Fe               |     4.34637  |     2.30000
    6 S                |   2 Fe               |     4.34637  |     2.30000
    6 S                |   4 Fe               |     4.34637  |     2.30000
    7 S                |   1 Fe               |     4.34637  |     2.30000
    7 S                |   2 Fe               |     4.34637  |     2.30000
    7 S                |   3 Fe               |     4.34637  |     2.30000
    8 S                |   2 Fe               |     4.34637  |     2.30000
    8 S                |   3 Fe               |     4.34637  |     2.30000
    8 S                |   4 Fe               |     4.34637  |     2.30000
    9 S                |   1 Fe               |     4.30858  |     2.28000
   10 C                |   9 S                |     3.43930  |     1.82000
   11 H                |  10 C                |     2.05980  |     1.09000
   12 H                |  10 C                |     2.05980  |     1.09000
   13 H                |  10 C                |     2.05980  |     1.09000
   14 S                |   2 Fe               |     4.30858  |     2.28000
   15 C                |  14 S                |     3.43930  |     1.82000
   16 H                |  15 C                |     2.05980  |     1.09000
   17 H                |  15 C                |     2.05980  |     1.09000
   18 H                |  15 C                |     2.05980  |     1.09000
   19 S                |   3 Fe               |     4.30858  |     2.28000
   20 C                |  19 S                |     3.43930  |     1.82000
   21 H                |  20 C                |     2.05980  |     1.09000
   22 H                |  20 C                |     2.05980  |     1.09000
   23 H                |  20 C                |     2.05980  |     1.09000
   24 S                |   4 Fe               |     4.30858  |     2.28000
   25 C                |  24 S                |     3.43930  |     1.82000
   26 H                |  25 C                |     2.05980  |     1.09000
   27 H                |  25 C                |     2.05980  |     1.09000
   28 H                |  25 C                |     2.05980  |     1.09000
 ------------------------------------------------------------------------------
                         number of included internuclear distances:         38
 ==============================================================================



 ==============================================================================
                                 internuclear angles
 ------------------------------------------------------------------------------
        center 1       |       center 2       |       center 3       |  degrees
 ------------------------------------------------------------------------------
    1 Fe               |   2 Fe               |   3 Fe               |    60.00
    1 Fe               |   2 Fe               |   4 Fe               |    60.00
    2 Fe               |   1 Fe               |   5 S                |   102.07
    1 Fe               |   6 S                |   2 Fe               |    71.88
    1 Fe               |   7 S                |   2 Fe               |    71.88
    2 Fe               |   1 Fe               |   9 S                |   144.74
    1 Fe               |   3 Fe               |   4 Fe               |    60.00
    1 Fe               |   5 S                |   3 Fe               |    71.88
    3 Fe               |   1 Fe               |   6 S                |   102.07
    1 Fe               |   7 S                |   3 Fe               |    71.88
    3 Fe               |   1 Fe               |   9 S                |   144.74
    1 Fe               |   5 S                |   4 Fe               |    71.88
    1 Fe               |   6 S                |   4 Fe               |    71.88
    4 Fe               |   1 Fe               |   7 S                |   102.07
    4 Fe               |   1 Fe               |   9 S                |   144.74
    5 S                |   1 Fe               |   6 S                |   105.50
    5 S                |   1 Fe               |   7 S                |   105.50
    5 S                |   1 Fe               |   9 S                |   113.20
    6 S                |   1 Fe               |   7 S                |   105.50
    6 S                |   1 Fe               |   9 S                |   113.20
    7 S                |   1 Fe               |   9 S                |   113.20
    2 Fe               |   1 Fe               |   3 Fe               |    60.00
    2 Fe               |   1 Fe               |   4 Fe               |    60.00
    2 Fe               |   6 S                |   1 Fe               |    71.88
    2 Fe               |   7 S                |   1 Fe               |    71.88
    1 Fe               |   2 Fe               |   8 S                |   102.07
    1 Fe               |   2 Fe               |  14 S                |   144.74
    2 Fe               |   3 Fe               |   4 Fe               |    60.00
    3 Fe               |   2 Fe               |   6 S                |   102.07
    2 Fe               |   7 S                |   3 Fe               |    71.88
    2 Fe               |   8 S                |   3 Fe               |    71.88
    3 Fe               |   2 Fe               |  14 S                |   144.74
    2 Fe               |   6 S                |   4 Fe               |    71.88
    4 Fe               |   2 Fe               |   7 S                |   102.07
    2 Fe               |   8 S                |   4 Fe               |    71.88
    4 Fe               |   2 Fe               |  14 S                |   144.74
    6 S                |   2 Fe               |   7 S                |   105.50
    6 S                |   2 Fe               |   8 S                |   105.50
    6 S                |   2 Fe               |  14 S                |   113.20
    7 S                |   2 Fe               |   8 S                |   105.50
    7 S                |   2 Fe               |  14 S                |   113.20
    8 S                |   2 Fe               |  14 S                |   113.20
    3 Fe               |   1 Fe               |   2 Fe               |    60.00
    3 Fe               |   1 Fe               |   4 Fe               |    60.00
    3 Fe               |   5 S                |   1 Fe               |    71.88
    3 Fe               |   7 S                |   1 Fe               |    71.88
    1 Fe               |   3 Fe               |   8 S                |   102.07
    1 Fe               |   3 Fe               |  19 S                |   144.74
    3 Fe               |   2 Fe               |   4 Fe               |    60.00
    2 Fe               |   3 Fe               |   5 S                |   102.07
    3 Fe               |   7 S                |   2 Fe               |    71.88
    3 Fe               |   8 S                |   2 Fe               |    71.88
    2 Fe               |   3 Fe               |  19 S                |   144.74
    3 Fe               |   5 S                |   4 Fe               |    71.88
    4 Fe               |   3 Fe               |   7 S                |   102.07
    3 Fe               |   8 S                |   4 Fe               |    71.88
    4 Fe               |   3 Fe               |  19 S                |   144.74
    5 S                |   3 Fe               |   7 S                |   105.50
    5 S                |   3 Fe               |   8 S                |   105.50
    5 S                |   3 Fe               |  19 S                |   113.20
    7 S                |   3 Fe               |   8 S                |   105.50
    7 S                |   3 Fe               |  19 S                |   113.20
    8 S                |   3 Fe               |  19 S                |   113.20
    4 Fe               |   1 Fe               |   2 Fe               |    60.00
    4 Fe               |   1 Fe               |   3 Fe               |    60.00
    4 Fe               |   5 S                |   1 Fe               |    71.88
    4 Fe               |   6 S                |   1 Fe               |    71.88
    1 Fe               |   4 Fe               |   8 S                |   102.07
    1 Fe               |   4 Fe               |  24 S                |   144.74
    4 Fe               |   2 Fe               |   3 Fe               |    60.00
    2 Fe               |   4 Fe               |   5 S                |   102.07
    4 Fe               |   6 S                |   2 Fe               |    71.88
    4 Fe               |   8 S                |   2 Fe               |    71.88
    2 Fe               |   4 Fe               |  24 S                |   144.74
    4 Fe               |   5 S                |   3 Fe               |    71.88
    3 Fe               |   4 Fe               |   6 S                |   102.07
    4 Fe               |   8 S                |   3 Fe               |    71.88
    3 Fe               |   4 Fe               |  24 S                |   144.74
    5 S                |   4 Fe               |   6 S                |   105.50
    5 S                |   4 Fe               |   8 S                |   105.50
    5 S                |   4 Fe               |  24 S                |   113.20
    6 S                |   4 Fe               |   8 S                |   105.50
    6 S                |   4 Fe               |  24 S                |   113.20
    8 S                |   4 Fe               |  24 S                |   113.20
    1 Fe               |   5 S                |   3 Fe               |    71.88
    1 Fe               |   5 S                |   4 Fe               |    71.88
    3 Fe               |   5 S                |   4 Fe               |    71.88
    1 Fe               |   6 S                |   2 Fe               |    71.88
    1 Fe               |   6 S                |   4 Fe               |    71.88
    2 Fe               |   6 S                |   4 Fe               |    71.88
    1 Fe               |   7 S                |   2 Fe               |    71.88
    1 Fe               |   7 S                |   3 Fe               |    71.88
    2 Fe               |   7 S                |   3 Fe               |    71.88
    2 Fe               |   8 S                |   3 Fe               |    71.88
    2 Fe               |   8 S                |   4 Fe               |    71.88
    3 Fe               |   8 S                |   4 Fe               |    71.88
    1 Fe               |   9 S                |  10 C                |   180.00
    9 S                |  10 C                |  11 H                |   109.47
    9 S                |  10 C                |  12 H                |   109.47
    9 S                |  10 C                |  13 H                |   109.47
   11 H                |  10 C                |  12 H                |   109.47
   11 H                |  10 C                |  13 H                |   109.47
   12 H                |  10 C                |  13 H                |   109.47
    2 Fe               |  14 S                |  15 C                |   180.00
   14 S                |  15 C                |  16 H                |   109.47
   14 S                |  15 C                |  17 H                |   109.47
   14 S                |  15 C                |  18 H                |   109.47
   16 H                |  15 C                |  17 H                |   109.47
   16 H                |  15 C                |  18 H                |   109.47
   17 H                |  15 C                |  18 H                |   109.47
    3 Fe               |  19 S                |  20 C                |   180.00
   19 S                |  20 C                |  21 H                |   109.47
   19 S                |  20 C                |  22 H                |   109.47
   19 S                |  20 C                |  23 H                |   109.47
   21 H                |  20 C                |  22 H                |   109.47
   21 H                |  20 C                |  23 H                |   109.47
   22 H                |  20 C                |  23 H                |   109.47
    4 Fe               |  24 S                |  25 C                |   180.00
   24 S                |  25 C                |  26 H                |   109.47
   24 S                |  25 C                |  27 H                |   109.47
   24 S                |  25 C                |  28 H                |   109.47
   26 H                |  25 C                |  27 H                |   109.47
   26 H                |  25 C                |  28 H                |   109.47
   27 H                |  25 C                |  28 H                |   109.47
 ------------------------------------------------------------------------------
                            number of included internuclear angles:        124
 ==============================================================================





 Summary of "ao basis" -> "" (spherical)
 ------------------------------------------------------------------------------
       Tag                 Description            Shells   Functions and Types
 ---------------- ------------------------------  ------  ---------------------
 *                          def2-svp                  on all atoms 


  perdew86 is a nonlocal functional; adding perdew81 local functional. 

                                 NWChem DFT Module
                                 -----------------


                Model A Fe4S4 maximum-spin reference BP86 def2-SVP


                      Basis "ao basis" -> "ao basis" (spherical)
                      -----
  Fe (Iron)
  ---------
            Exponent  Coefficients 
       -------------- ---------------------------------------------------------
  1 S  6.09236406E+04  0.001430
  1 S  9.14788940E+03  0.010959
  1 S  2.08135059E+03  0.054333
  1 S  5.87559771E+02  0.188850
  1 S  1.91090440E+02  0.382531
  1 S  6.57327301E+01  0.293083

  2 S  1.27258919E+02 -0.109646
  2 S  1.48309130E+01  0.643876
  2 S  6.06533074E+00  0.454723

  3 S  1.04499437E+01 -0.225396
  3 S  1.72452280E+00  0.721644
  3 S  7.17721773E-01  0.449855

  4 S  9.14498283E-02  1.000000

  5 S  3.37066910E-02  1.000000

  6 P  7.73437510E+02  0.009433
  6 P  1.82151497E+02  0.070030
  6 P  5.75472728E+01  0.269937
  6 P  2.06149889E+01  0.527000
  6 P  7.63485579E+00  0.342841

  7 P  3.87193280E+00  0.339744
  7 P  1.49247241E+00  0.568426
  7 P  5.60612850E-01  0.236494

  8 P  1.34915000E-01  1.000000

  9 D  3.89681334E+01  0.027880
  9 D  1.08000671E+01  0.148583
  9 D  3.61364580E+00  0.369055
  9 D  1.21299679E+00  0.477451

 10 D  3.65243932E-01  1.000000

 11 F  1.59800000E+00  1.000000

  S (Sulphur)
  -----------
            Exponent  Coefficients 
       -------------- ---------------------------------------------------------
  1 S  9.18493030E+03 -0.002229
  1 S  1.38151055E+03 -0.016683
  1 S  3.13871476E+02 -0.075262
  1 S  8.80538706E+01 -0.193768
  1 S  2.70399149E+01 -0.177180

  2 S  4.56487313E+01 -0.107361
  2 S  4.96645223E+00  0.650663
  2 S  2.01162420E+00  0.597122

  3 S  3.56610770E-01  1.000000

  4 S  1.35072215E-01  1.000000

  5 P  2.61982334E+02 -0.009273
  5 P  6.13068947E+01 -0.066548
  5 P  1.91037299E+01 -0.248286
  5 P  6.65677204E+00 -0.487038
  5 P  2.39596352E+00 -0.393379

  6 P  6.17761617E-01  1.000000

  7 P  1.69933769E-01  1.000000

  8 D  5.50000000E-01  1.000000

  C (Carbon)
  ----------
            Exponent  Coefficients 
       -------------- ---------------------------------------------------------
  1 S  1.23840169E+03  0.005457
  1 S  1.86290050E+02  0.040638
  1 S  4.22511763E+01  0.180256
  1 S  1.16765579E+01  0.463151
  1 S  3.59305065E+00  0.440872

  2 S  4.02451474E-01  1.000000

  3 S  1.30901827E-01  1.000000

  4 P  9.46809706E+00  0.038388
  4 P  2.01035451E+00  0.211170
  4 P  5.47710047E-01  0.513282

  5 P  1.52686138E-01  1.000000

  6 D  8.00000000E-01  1.000000

  H (Hydrogen)
  ------------
            Exponent  Coefficients 
       -------------- ---------------------------------------------------------
  1 S  1.30107010E+01  0.019682
  1 S  1.96225720E+00  0.137965
  1 S  4.44537960E-01  0.478319

  2 S  1.21949620E-01  1.000000

  3 P  8.00000000E-01  1.000000



 Summary of "ao basis" -> "ao basis" (spherical)
 ------------------------------------------------------------------------------
       Tag                 Description            Shells   Functions and Types
 ---------------- ------------------------------  ------  ---------------------
 Fe                         def2-svp                11       31   5s3p2d1f
 S                          def2-svp                 8       18   4s3p1d
 C                          def2-svp                 6       14   3s2p1d
 H                          def2-svp                 3        5   2s1p




 Summary of "ao basis" -> "ao basis" (spherical)
 ------------------------------------------------------------------------------
       Tag                 Description            Shells   Functions and Types
 ---------------- ------------------------------  ------  ---------------------
 Fe                         def2-svp                11       31   5s3p2d1f
 S                          def2-svp                 8       18   4s3p1d
 C                          def2-svp                 6       14   3s2p1d
 H                          def2-svp                 3        5   2s1p


  Caching 1-el integrals 

            General Information
            -------------------
          SCF calculation type: DFT
          Wavefunction type:  spin polarized.
          No. of atoms     :    28
          No. of electrons :   270
           Alpha electrons :   144
            Beta electrons :   126
          Charge           :    -2
          Spin multiplicity:    19
          Use of symmetry is: off; symmetry adaption is: off
          Maximum number of iterations: 150
          AO basis - number of functions:   384
                     number of shells:   168
          Convergence on energy requested:  1.00D-05
          Convergence on density requested:  1.00D-04
          Convergence on gradient requested:  1.00D-03

              XC Information
              --------------
                    Becke 1988 Exchange Functional  1.000          
                Perdew 1981 Correlation Functional  1.000 local    
                Perdew 1986 Correlation Functional  1.000 non-local

             Grid Information
             ----------------
          Grid used for XC integration:  medium    
          Radial quadrature: Mura-Knowles        
          Angular quadrature: Lebedev. 
          Tag              B.-S. Rad. Rad. Pts. Rad. Cut. Ang. Pts.
          ---              ---------- --------- --------- ---------
          Fe                  1.40      112          14.0       590
          S                   1.00       88          14.0       590
          C                   0.70       49          17.0       434
          H                   0.35       45          19.0       434
          Grid pruning is: on 
          Number of quadrature shells:  1888
          Spatial weights used:  Erf1

          Convergence Information
          -----------------------
          Convergence aids based upon iterative change in 
          total energy or number of iterations. 
          Levelshifting, if invoked, occurs when the 
          HOMO/LUMO gap drops below (HL_TOL):  1.00D-02
          DIIS, if invoked, will attempt to extrapolate 
          using up to (NFOCK): 10 stored Fock matrices.

                    Damping(40%)  Levelshifting(0.5)       DIIS
                  --------------- ------------------- ---------------
          dE  on:    start            ASAP                start   
          dE off:    2 iters        150 iters           150 iters 


      Screening Tolerance Information
      -------------------------------
          Density screening/tol_rho:  1.00D-10
          AO Gaussian exp screening on grid/accAOfunc:  12
          CD Gaussian exp screening on grid/accCDfunc:  20
          XC Gaussian exp screening on grid/accXCfunc:  20
          Schwarz screening/accCoul:  1.00D-08


      Superposition of Atomic Density Guess
      -------------------------------------

 Sum of atomic energies:       -8383.76239648

 Renormalizing density from     268.00 to    270

      Non-variational initial energy
      ------------------------------

 Total energy =   -8426.094069
 1-e energy   =  -21422.828164
 2-e energy   =    8148.676769
 HOMO         =       0.199289
 LUMO         =       0.212312

  WARNING: movecs_in_org=atomic not equal to movecs_in=./A_HS_SVP.movecs
   Time after variat. SCF:     22.3

     ---------------------------------------------
      Total Density - Mulliken Population Analysis
     ---------------------------------------------

    Atom       Charge   Shell Charges
 -----------   ------   -------------------------------------------------------
    1 Fe  26    24.85   2.00  2.00  1.99  0.50  0.12  6.00  5.97  0.56  3.82  1.89  0.00
    2 Fe  26    24.85   2.00  2.00  1.99  0.50  0.12  6.00  5.97  0.56  3.82  1.89  0.00
    3 Fe  26    24.85   2.00  2.00  1.99  0.50  0.12  6.00  5.97  0.56  3.82  1.89  0.00
    4 Fe  26    24.85   2.00  2.00  1.99  0.50  0.12  6.00  5.97  0.56  3.82  1.89  0.00
    5 S   16    16.76   2.00  1.99  1.12  0.75  5.93  1.72  3.21  0.05
    6 S   16    16.76   2.00  1.99  1.12  0.75  5.93  1.72  3.21  0.05
    7 S   16    16.76   2.00  1.99  1.12  0.75  5.93  1.72  3.21  0.05
    8 S   16    16.76   2.00  1.99  1.12  0.75  5.93  1.72  3.21  0.05
    9 S   16    16.81   2.00  1.99  1.15  0.69  5.93  1.77  3.23  0.05
   10 C    6     6.17   1.99  0.94  0.18  1.91  1.12  0.03
   11 H    1     0.97   0.70  0.25  0.03
   12 H    1     0.97   0.70  0.25  0.03
   13 H    1     0.97   0.70  0.25  0.03
   14 S   16    16.81   2.00  1.99  1.15  0.69  5.93  1.77  3.23  0.05
   15 C    6     6.17   1.99  0.94  0.18  1.91  1.12  0.03
   16 H    1     0.97   0.70  0.25  0.03
   17 H    1     0.97   0.70  0.25  0.03
   18 H    1     0.97   0.70  0.25  0.03
   19 S   16    16.81   2.00  1.99  1.15  0.69  5.93  1.77  3.23  0.05
   20 C    6     6.17   1.99  0.94  0.18  1.91  1.12  0.03
   21 H    1     0.97   0.70  0.25  0.03
   22 H    1     0.97   0.70  0.25  0.03
   23 H    1     0.97   0.70  0.25  0.03
   24 S   16    16.81   2.00  1.99  1.15  0.69  5.93  1.77  3.23  0.05
   25 C    6     6.17   1.99  0.94  0.18  1.91  1.12  0.03
   26 H    1     0.97   0.70  0.25  0.03
   27 H    1     0.97   0.70  0.25  0.03
   28 H    1     0.97   0.70  0.25  0.03

     --------------------------------------------
      Spin Density - Mulliken Population Analysis
     --------------------------------------------

    Atom       Charge   Shell Charges
 -----------   ------   -------------------------------------------------------
    1 Fe  26     3.80   0.00  0.00  0.00 -0.00  0.01  0.00  0.00  0.12  2.64  1.02  0.00
    2 Fe  26     3.80   0.00  0.00  0.00 -0.00  0.01  0.00  0.00  0.12  2.64  1.02  0.00
    3 Fe  26     3.80   0.00  0.00  0.00 -0.00  0.01  0.00  0.00  0.12  2.64  1.02  0.00
    4 Fe  26     3.80   0.00  0.00  0.00 -0.00  0.01  0.00  0.00  0.12  2.64  1.02  0.00
    5 S   16     0.37   0.00  0.00  0.01 -0.00  0.00  0.12  0.22  0.02
    6 S   16     0.37   0.00  0.00  0.01 -0.00  0.00  0.12  0.22  0.02
    7 S   16     0.37   0.00  0.00  0.01 -0.00  0.00  0.12  0.22  0.02
    8 S   16     0.37   0.00  0.00  0.01 -0.00  0.00  0.12  0.22  0.02
    9 S   16     0.18   0.00  0.00  0.01  0.03  0.00  0.05  0.07  0.03
   10 C    6     0.06   0.00  0.02 -0.03  0.04  0.04  0.00
   11 H    1     0.03   0.00  0.02  0.00
   12 H    1     0.03   0.00  0.02  0.00
   13 H    1     0.03   0.00  0.02  0.00
   14 S   16     0.18   0.00  0.00  0.01  0.03  0.00  0.05  0.07  0.03
   15 C    6     0.06   0.00  0.02 -0.03  0.04  0.04  0.00
   16 H    1     0.03   0.00  0.02  0.00
   17 H    1     0.03   0.00  0.02  0.00
   18 H    1     0.03   0.00  0.02  0.00
   19 S   16     0.18   0.00  0.00  0.01  0.03  0.00  0.05  0.07  0.03
   20 C    6     0.06   0.00  0.02 -0.03  0.04  0.04  0.00
   21 H    1     0.03   0.00  0.02  0.00
   22 H    1     0.03   0.00  0.02  0.00
   23 H    1     0.03   0.00  0.02  0.00
   24 S   16     0.18   0.00  0.00  0.01  0.03  0.00  0.05  0.07  0.03
   25 C    6     0.06   0.00  0.02 -0.03  0.04  0.04  0.00
   26 H    1     0.03   0.00  0.02  0.00
   27 H    1     0.03   0.00  0.02  0.00
   28 H    1     0.03   0.00  0.02  0.00
   Time prior to 1st pass:     22.5

 Integral file          = ./A_HS_SVP.aoints.0
 Record size in doubles =    65536    No. of integs per rec  =    32766
 Max. records in memory =        0    Max. records in file   =  1749948
 No. of bits per label  =       16    No. of bits per value  =       64


 #quartets = 1.855D+07 #integrals = 3.569D+08 #direct =  0.0% #cached =100.0%


 Grid_pts file          = ./A_HS_SVP.gridpts.0
 Record size in doubles =  12289        No. of grid_pts per rec  =   3070
 Max. records in memory =    400        Max. recs in file   =   9277112


           Memory utilization after 1st SCF pass: 
           Heap Space remaining (MW):      129.12           129124664
          Stack Space remaining (MW):      134.21           134212780

   convergence    iter        energy       DeltaE   RMS-Dens  Diis-err    time
 ---------------- ----- ----------------- --------- --------- ---------  ------
 d=40,ls=0.0,diis     1  -8397.9360254560 -1.32D+04  2.15D-02  7.25D+00   303.2
                                                     1.68D-02  3.07D+00
 d=40,ls=0.5,diis     2  -8384.0945027044  1.38D+01  6.43D-03  2.75D+01   408.6
                                                     5.76D-03  1.89D+01
 d= 0,ls=0.5,diis     3  -8379.9319885750  4.16D+00  6.41D-03  3.65D+01   504.9
                                                     5.03D-03  3.62D+01
 d= 0,ls=0.5,diis     4  -8389.2301210682 -9.30D+00  4.04D-03  1.95D+01   599.2
                                                     2.57D-03  3.03D+01
 d= 0,ls=0.5,diis     5  -8395.1120999668 -5.88D+00  3.48D-03  8.06D+00   693.1
                                                     2.16D-03  1.36D+01
 d= 0,ls=0.5,diis     6  -8398.1975171853 -3.09D+00  2.94D-03  1.96D+00   788.9
                                                     1.60D-03  3.66D+00
 d= 0,ls=0.5,diis     7  -8399.2245367612 -1.03D+00  1.90D-03  1.98D-01   887.4
                                                     1.12D-03  5.45D-01
 d= 0,ls=0.5,diis     8  -8399.4573984923 -2.33D-01  1.56D-03  2.97D-02   985.1
                                                     8.42D-04  3.81D-02
  Resetting Diis
 d= 0,ls=0.5,diis     9  -8399.4884832645 -3.11D-02  1.23D-03  1.69D-01  1080.5
                                                     7.02D-04  9.58D-02
 d= 0,ls=0.5,diis    10  -8399.4529486114  3.55D-02  2.91D-03  3.81D-01  1184.9
                                                     2.08D-03  2.72D-01
 d= 0,ls=0.5,diis    11  -8399.0031506189  4.50D-01  1.04D-03  1.62D+00  1291.3
                                                     6.21D-04  2.09D+00
 d= 0,ls=0.5,diis    12  -8399.3261852090 -3.23D-01  1.05D-03  5.96D-01  1398.5
                                                     4.58D-04  8.95D-01
 d= 0,ls=0.5,diis    13  -8399.5026479932 -1.76D-01  1.27D-03  2.17D-01  1503.5
                                                     3.85D-04  3.56D-01
 d= 0,ls=0.5,diis    14  -8399.5938320555 -9.12D-02  1.65D-03  7.53D-02  1613.5
                                                     3.13D-04  1.34D-01
 d= 0,ls=0.5,diis    15  -8399.6463436019 -5.25D-02  1.90D-03  3.13D-02  1718.7
                                                     2.72D-04  5.32D-02
 d= 0,ls=0.5,diis    16  -8399.6847006893 -3.84D-02  1.88D-03  1.56D-02  1822.6
                                                     2.36D-04  1.98D-02
 d= 0,ls=0.5,diis    17  -8399.7133389430 -2.86D-02  1.66D-03  1.17D-02  1926.6
                                                     2.08D-04  9.22D-03
 d= 0,ls=0.5,diis    18  -8399.7355550459 -2.22D-02  1.36D-03  8.58D-03  2028.8
                                                     1.75D-04  4.42D-03
 d= 0,ls=0.5,diis    19  -8399.7513826929 -1.58D-02  1.03D-03  6.64D-03  2132.6
                                                     1.53D-04  4.03D-03
 d= 0,ls=0.5,diis    20  -8399.7617954403 -1.04D-02  7.58D-04  6.49D-03  2235.4
                                                     1.29D-04  5.71D-03
 d= 0,ls=0.5,diis    21  -8399.7689394928 -7.14D-03  5.59D-04  6.28D-03  2339.3
                                                     1.14D-04  6.51D-03
 d= 0,ls=0.5,diis    22  -8399.7743171715 -5.38D-03  4.21D-04  5.02D-03  2443.4
                                                     1.04D-04  5.71D-03
 d= 0,ls=0.5,diis    23  -8399.7780687394 -3.75D-03  3.15D-04  3.88D-03  2548.7
                                                     1.04D-04  4.67D-03
 d= 0,ls=0.5,diis    24  -8399.7813694137 -3.30D-03  2.39D-04  2.26D-03  2652.4
                                                     8.44D-05  2.58D-03
 d= 0,ls=0.5,diis    25  -8399.7833203385 -1.95D-03  1.84D-04  1.37D-03  2759.4
                                                     7.54D-05  1.78D-03
 d= 0,ls=0.5,diis    26  -8399.7846551031 -1.33D-03  1.44D-04  9.25D-04  2865.2
                                                     6.82D-05  1.32D-03
 d= 0,ls=0.5,diis    27  -8399.7855821255 -9.27D-04  1.11D-04  7.30D-04  2971.3
                                                     6.21D-05  1.06D-03
 d= 0,ls=0.5,diis    28  -8399.7863221698 -7.40D-04  8.70D-05  4.70D-04  3075.6
                                                     5.68D-05  7.62D-04
 d= 0,ls=0.5,diis    29  -8399.7868547627 -5.33D-04  6.81D-05  3.66D-04  3178.6
                                                     5.20D-05  6.13D-04
 d= 0,ls=0.5,diis    30  -8399.7872673547 -4.13D-04  5.37D-05  2.84D-04  3281.6
                                                     4.77D-05  4.99D-04
 d= 0,ls=0.5,diis    31  -8399.7875728537 -3.05D-04  4.18D-05  2.85D-04  3385.9
                                                     4.59D-05  4.74D-04
 d= 0,ls=0.5,diis    32  -8399.7878895213 -3.17D-04  3.28D-05  1.24D-04  3491.3
                                                     4.18D-05  2.74D-04
 d= 0,ls=0.5,diis    33  -8399.7881191745 -2.30D-04  2.63D-05  8.94D-05  3596.3
                                                     3.92D-05  2.14D-04
 d= 0,ls=0.5,diis    34  -8399.7882991481 -1.80D-04  2.11D-05  8.89D-05  3700.7
                                                     3.72D-05  1.99D-04
 d= 0,ls=0.5,diis    35  -8399.7884535929 -1.54D-04  1.63D-05  1.00D-04  3808.7
                                                     3.58D-05  1.97D-04
 d= 0,ls=0.5,diis    36  -8399.7885987123 -1.45D-04  1.26D-05  9.34D-05  3927.3
                                                     3.50D-05  1.83D-04
 d= 0,ls=0.5,diis    37  -8399.7887371129 -1.38D-04  9.99D-06  7.92D-05  4041.0
                                                     3.45D-05  1.65D-04
 d= 0,ls=0.5,diis    38  -8399.7888691971 -1.32D-04  8.11D-06  6.73D-05  4164.7
                                                     3.45D-05  1.49D-04
 d= 0,ls=0.5,diis    39  -8399.7889992442 -1.30D-04  6.29D-06  5.47D-05  4270.1
                                                     3.48D-05  1.34D-04
 d= 0,ls=0.5,diis    40  -8399.7891292474 -1.30D-04  5.34D-06  4.49D-05  4366.7
                                                     3.54D-05  1.21D-04
 d= 0,ls=0.5,diis    41  -8399.7892621693 -1.33D-04  1.06D-05  3.76D-05  4465.5
                                                     3.79D-05  1.06D-04
 d= 0,ls=0.5,diis    42  -8399.7894120131 -1.50D-04  5.00D-06  7.27D-06  4564.1
                                                     3.83D-05  7.40D-05
 d= 0,ls=0.5,diis    43  -8399.7895553538 -1.43D-04  3.69D-06  1.27D-05  4662.4
                                                     3.95D-05  8.07D-05
 d= 0,ls=0.5,diis    44  -8399.7897073161 -1.52D-04  2.59D-06  1.86D-05  4760.9
                                                     4.11D-05  9.08D-05
 d= 0,ls=0.5,diis    45  -8399.7898671132 -1.60D-04  1.95D-06  3.70D-05  4858.7
                                                     4.29D-05  1.12D-04
 d= 0,ls=0.5,diis    46  -8399.7900374702 -1.70D-04  2.11D-06  6.42D-05  4958.8
                                                     4.48D-05  1.42D-04
 d= 0,ls=0.5,diis    47  -8399.7902214166 -1.84D-04  3.03D-06  9.73D-05  5057.2
                                                     4.69D-05  1.78D-04
 d= 0,ls=0.5,diis    48  -8399.7904191661 -1.98D-04  2.13D-06  1.44D-04  5157.1
                                                     4.90D-05  2.20D-04
 d= 0,ls=0.5,diis    49  -8399.7906385280 -2.19D-04  2.33D-06  1.86D-04  5255.0
                                                     5.13D-05  2.64D-04
 d= 0,ls=0.5,diis    50  -8399.7908792936 -2.41D-04  1.30D-06  2.36D-04  5352.5
                                                     5.37D-05  3.14D-04
 d= 0,ls=0.5,diis    51  -8399.7911442613 -2.65D-04  5.80D-06  2.91D-04  5454.0
                                                     5.63D-05  3.66D-04
 d= 0,ls=0.5,diis    52  -8399.7914203566 -2.76D-04  7.16D-06  4.20D-04  5551.0
                                                     5.86D-05  4.56D-04
 d= 0,ls=0.5,diis    53  -8399.7916957363 -2.75D-04  5.29D-06  6.32D-04  5645.5
                                                     6.09D-05  6.06D-04
 d= 0,ls=0.5,diis    54  -8399.7919910088 -2.95D-04  5.15D-06  8.53D-04  5740.1
                                                     6.31D-05  7.70D-04
 d= 0,ls=0.5,diis    55  -8399.7923237225 -3.33D-04  3.15D-06  1.05D-03  5834.4
                                                     6.56D-05  8.99D-04
 d= 0,ls=0.5,diis    56  -8399.7926942297 -3.71D-04  4.39D-06  1.21D-03  5930.4
                                                     6.79D-05  1.03D-03
 d= 0,ls=0.5,diis    57  -8399.7931100694 -4.16D-04  3.34D-06  1.35D-03  6028.8
                                                     7.06D-05  1.12D-03
 d= 0,ls=0.5,diis    58  -8399.7935618819 -4.52D-04  7.15D-06  1.51D-03  6126.2
                                                     7.37D-05  1.23D-03
 d= 0,ls=0.5,diis    59  -8399.7941183730 -5.56D-04  1.07D-05  1.40D-03  6223.1
                                                     7.73D-05  1.22D-03
 d= 0,ls=0.5,diis    60  -8399.7947309782 -6.13D-04  1.03D-05  1.32D-03  6321.9
                                                     8.00D-05  1.19D-03
 d= 0,ls=0.5,diis    61  -8399.7953389829 -6.08D-04  5.01D-06  1.47D-03  6421.7
                                                     8.21D-05  1.26D-03
 d= 0,ls=0.5,diis    62  -8399.7959472331 -6.08D-04  3.55D-06  1.72D-03  6531.3
                                                     8.45D-05  1.42D-03
 d= 0,ls=0.5,diis    63  -8399.7966100224 -6.63D-04  1.76D-05  1.88D-03  6629.8
                                                     8.78D-05  1.54D-03
 d= 0,ls=0.5,diis    64  -8399.7973245580 -7.15D-04  2.13D-05  2.10D-03  6727.4
                                                     9.03D-05  1.52D-03
 d= 0,ls=0.5,diis    65  -8399.7978659333 -5.41D-04  3.07D-05  2.73D-03  6825.6
                                                     9.40D-05  2.15D-03
 d= 0,ls=0.5,diis    66  -8399.7986250012 -7.59D-04  2.65D-05  2.80D-03  6923.1
                                                     9.22D-05  2.15D-03
 d= 0,ls=0.5,diis    67  -8399.7993868088 -7.62D-04  1.71D-05  2.63D-03  7017.8
                                                     9.16D-05  2.30D-03
 d= 0,ls=0.5,diis    68  -8399.8002354771 -8.49D-04  1.08D-05  2.58D-03  7113.0
                                                     9.19D-05  2.30D-03
 d= 0,ls=0.5,diis    69  -8399.8011183858 -8.83D-04  7.53D-06  2.51D-03  7210.3
                                                     9.22D-05  2.20D-03
 d= 0,ls=0.5,diis    70  -8399.8019530826 -8.35D-04  1.18D-05  2.65D-03  7305.8
                                                     9.26D-05  2.20D-03
 d= 0,ls=0.5,diis    71  -8399.8028253523 -8.72D-04  3.36D-05  2.64D-03  7401.4
                                                     9.69D-05  2.14D-03
 d= 0,ls=0.5,diis    72  -8399.8040570527 -1.23D-03  6.63D-05  1.49D-03  7501.2
                                                     1.05D-04  1.33D-03
