      -----------------------------------------------------------      
     |                   =====================                   |     
     |                           x T B                           |     
     |                   =====================                   |     
     |                         S. Grimme                         |     
     |          Mulliken Center for Theoretical Chemistry        |     
     |                    University of Bonn                     |     
      -----------------------------------------------------------      

   * xtb version 6.6.1 (unknown) compiled by 'builduser@buildhost' on 2023-08-07

   xtb is free software: you can redistribute it and/or modify it under
   the terms of the GNU Lesser General Public License as published by
   the Free Software Foundation, either version 3 of the License, or
   (at your option) any later version.
   
   xtb is distributed in the hope that it will be useful,
   but WITHOUT ANY WARRANTY; without even the implied warranty of
   MERCHANTABILITY or FITNESS FOR A PARTICULAR PURPOSE.  See the
   GNU Lesser General Public License for more details.
   
   Cite this work as:
   * C. Bannwarth, E. Caldeweyher, S. Ehlert, A. Hansen, P. Pracht,
     J. Seibert, S. Spicher, S. Grimme, WIREs Comput. Mol. Sci., 2020, 11,
     e01493. DOI: 10.1002/wcms.1493
   
   for GFN2-xTB:
   * C. Bannwarth, S. Ehlert and S. Grimme., J. Chem. Theory Comput., 2019,
     15, 1652-1671. DOI: 10.1021/acs.jctc.8b01176
   for GFN1-xTB:
   * S. Grimme, C. Bannwarth, P. Shushkov, J. Chem. Theory Comput., 2017,
     13, 1989-2009. DOI: 10.1021/acs.jctc.7b00118
   for GFN0-xTB:
   * P. Pracht, E. Caldeweyher, S. Ehlert, S. Grimme, ChemRxiv, 2019, preprint.
     DOI: 10.26434/chemrxiv.8326202.v1
   for GFN-FF:
   * S. Spicher and S. Grimme, Angew. Chem. Int. Ed., 2020, 59, 15665-15673.
     DOI: 10.1002/anie.202004239
   
   for ALPB and GBSA implicit solvation:
   * S. Ehlert, M. Stahn, S. Spicher, S. Grimme, J. Chem. Theory Comput.,
     2021, 17, 4250-4261. DOI: 10.1021/acs.jctc.1c00471
   
   for DFT-D4:
   * E. Caldeweyher, C. Bannwarth and S. Grimme, J. Chem. Phys., 2017,
     147, 034112. DOI: 10.1063/1.4993215
   * E. Caldeweyher, S. Ehlert, A. Hansen, H. Neugebauer, S. Spicher,
     C. Bannwarth and S. Grimme, J. Chem. Phys., 2019, 150, 154122.
     DOI: 10.1063/1.5090222
   * E. Caldeweyher, J.-M. Mewes, S. Ehlert and S. Grimme, Phys. Chem. Chem. Phys.
     2020, 22, 8499-8512. DOI: 10.1039/D0CP00502A
   
   for sTDA-xTB:
   * S. Grimme and C. Bannwarth, J. Chem. Phys., 2016, 145, 054103.
     DOI: 10.1063/1.4959605
   
   in the mass-spec context:
   * V. Asgeirsson, C. Bauer and S. Grimme, Chem. Sci., 2017, 8, 4879.
     DOI: 10.1039/c7sc00601b
   * J. Koopman and S. Grimme, ACS Omega 2019, 4, 12, 15120-15133.
     DOI: 10.1021/acsomega.9b02011
   
   for metadynamics refer to:
   * S. Grimme, J. Chem. Theory Comput., 2019, 155, 2847-2862
     DOI: 10.1021/acs.jctc.9b00143
   
   for SPH calculations refer to:
   * S. Spicher and S. Grimme, J. Chem. Theory Comput., 2021, 17, 1701-1714
     DOI: 10.1021/acs.jctc.0c01306
   
   with help from (in alphabetical order)
   P. Atkinson, C. Bannwarth, F. Bohle, G. Brandenburg, E. Caldeweyher
   M. Checinski, S. Dohm, S. Ehlert, S. Ehrlich, I. Gerasimov, C. Hölzer
   A. Katbashev, J. Koopman, C. Lavigne, S. Lehtola, F. März, M. Müller,
   F. Musil, H. Neugebauer, J. Pisarek, C. Plett, P. Pracht, F. Pultar,
   J. Seibert, P. Shushkov, S. Spicher, M. Stahn, M. Steiner, T. Strunk,
   J. Stückrath, T. Rose, and J. Unsleber
   
 * started run on 2026/09/11 at 20:08:26.374     

           -------------------------------------------------
          |                Calculation Setup                |
           -------------------------------------------------

          program call               : xtb A_start.xyz --gfn 1 --chrg -2 --uhf 0 --alpb water --opt loose
          coordinate file            : A_start.xyz
          omp threads                :                     8

   ID    Z sym.   atoms
    1   26 Fe     1-4
    2   16 S      5-9, 14, 19, 24
    3    6 C      10, 15, 20, 25
    4    1 H      11-13, 16-18, 21-23, 26-28

molecular fragmentation (1/2 indicates fragments):
1111111122222222222222222222
# atoms in fragment 1/2:     8    20
 fragment masses (1/2) :      351.64      188.40
CMA distance (Bohr)    :   0.005
constraining FC (au)   :  0.0500

           -------------------------------------------------
          |                 G F N 1 - x T B                 |
           -------------------------------------------------

        Reference                      10.1021/acs.jctc.7b00118
      * Hamiltonian:
        H0-scaling (s, p, d)           1.850000    2.250000    2.000000
        zeta-weighting                 0.000000
      * Dispersion:
        s8                             2.400000
        a1                             0.630000
        a2                             5.000000
        s9                             0.000000
      * Repulsion:
        kExp                           1.500000
        rExp                           1.000000
      * Coulomb:
        alpha                          2.000000
        third order                    atomic
        anisotropic                    false
      * Halogen bond correction:
        rad-scale                      1.300000
        damping                        0.440000

      * Solvation model:               ALPB
        Solvent                        water
        Parameter file                 internal GFN1-xTB/ALPB
        Dielectric constant                8.0200E+01
        Reference state                gsolv [1 M gas/solution]
        Free energy shift                  4.2456E-03 Eh       2.6642E+00 kcal/mol
        Temperature                        2.9815E+02 K
        Density                            1.0000E+00 kg/L
        Solvent mass                       1.8000E+01 g/mol
        Interaction kernel             P16
        Born radius scaling (c1)           1.9452E+00
        Born radii integrator          GBOBC
        Born offset                        0.0000E+00 a0       0.0000E+00 AA
        H-bond correction              true
        Ion screening                  false
        Surface tension                    1.0000E-05 Eh       1.5569E+01 dyn/cm
        Grid points                               230 per atom

          ...................................................
          :                      SETUP                      :
          :.................................................:
          :  # basis functions                 160          :
          :  # atomic orbitals                 148          :
          :  # shells                           68          :
          :  # electrons                       110          :
          :  # halogen bonds                     0          :
          :  max. iterations                   250          :
          :  Hamiltonian                  GFN1-xTB          :
          :  restarted?                      false          :
          :  GBSA solvation                   true          :
          :  PC potential                    false          :
          :  electronic temp.          300.0000000     K    :
          :  accuracy                    1.0000000          :
          :  -> integral cutoff          0.2500000E+02      :
          :  -> integral neglect         0.1000000E-07      :
          :  -> SCF convergence          0.1000000E-05 Eh   :
          :  -> wf. convergence          0.2000000E-04 e    :
          :  Broyden damping             0.4000000          :
          ...................................................

 iter      E             dE          RMSdq      gap      omega  full diag
   1    -30.8469105 -0.308469E+02  0.204E+01    0.00       0.0  T
   2     87.2032504  0.118050E+03  0.364E+01    0.00       1.0  T
   3    -56.1216145 -0.143325E+03  0.760E+00    0.02       1.0  T
   4    -43.5657775  0.125558E+02  0.126E+01    0.10       1.0  T
   5    -28.4227437  0.151430E+02  0.145E+01    0.08       1.0  T
   6     -7.0822223  0.213405E+02  0.183E+01    0.25       1.0  T
   7    -27.1150939 -0.200329E+02  0.150E+01    0.17       1.0  T
   8    -19.6048299  0.751026E+01  0.161E+01    0.09       1.0  T
   9    -48.2034326 -0.285986E+02  0.990E+00    0.15       1.0  T
  10    -44.9447026  0.325873E+01  0.108E+01    0.07       1.0  T
  11    -43.7391717  0.120553E+01  0.110E+01    0.13       1.0  T
  12    -49.5577888 -0.581862E+01  0.872E+00    0.14       1.0  T
  13    -47.4803729  0.207742E+01  0.948E+00    0.11       1.0  T
  14    -45.7576806  0.172269E+01  0.101E+01    0.06       1.0  T
  15    -48.9495436 -0.319186E+01  0.878E+00    0.09       1.0  T
  16    -48.0249491  0.924595E+00  0.918E+00    0.08       1.0  T
  17    -47.8992591  0.125690E+00  0.924E+00    0.08       1.0  T
  18    -48.4182084 -0.518949E+00  0.898E+00    0.08       1.0  T
  19    -52.2332184 -0.381501E+01  0.705E+00    0.10       1.0  T
  20    -55.8241405 -0.359092E+01  0.433E+00    0.11       1.0  T
  21    -56.4680116 -0.643871E+00  0.347E+00    0.10       1.0  T
  22    -57.3942569 -0.926245E+00  0.143E+00    0.16       1.0  T
  23    -57.3340584  0.601985E-01  0.142E+00    0.13       1.0  T
  24    -57.2585977  0.754607E-01  0.164E+00    0.15       1.0  T
  25    -57.4736806 -0.215083E+00  0.775E-01    0.14       1.0  T
  26    -57.4594545  0.142260E-01  0.850E-01    0.17       1.0  T
  27    -57.4133462  0.461083E-01  0.105E+00    0.14       1.0  T
  28    -57.5272935 -0.113947E+00  0.221E-01    0.17       1.0  T
  29    -57.5172846  0.100089E-01  0.371E-01    0.17       1.0  T
  30    -57.5270511 -0.976651E-02  0.216E-01    0.17       1.0  T
  31    -57.5316322 -0.458112E-02  0.618E-02    0.18       1.0  T
  32    -57.5319558 -0.323612E-03  0.258E-02    0.18       1.0  T
  33    -57.5319869 -0.311307E-04  0.163E-02    0.18       1.2  T
  34    -57.5320090 -0.220660E-04  0.761E-03    0.18       2.5  T
  35    -57.5320144 -0.538156E-05  0.247E-03    0.18       7.7  T
  36    -57.5320148 -0.375935E-06  0.148E-03    0.18      12.8  T
  37    -57.5320149 -0.174123E-06  0.704E-04    0.18      26.9  T
  38    -57.5320150 -0.476346E-07  0.225E-04    0.18      84.0  T
  39    -57.5320150 -0.412243E-08  0.967E-05    0.18     195.3  T
  40    -57.5320150 -0.952546E-09  0.147E-05    0.18    1287.8  T

   *** convergence criteria satisfied after 40 iterations ***

         #    Occupation            Energy/Eh            Energy/eV
      -------------------------------------------------------------
         1        2.0000           -0.7699224             -20.9507
       ...           ...                  ...                  ...
        49        2.0000           -0.2820822              -7.6758
        50        2.0000           -0.2804328              -7.6310
        51        2.0000           -0.2799272              -7.6172
        52        2.0000           -0.2735460              -7.4436
        53        2.0000           -0.2735329              -7.4432
        54        1.9994           -0.2710280              -7.3750
        55        1.9193           -0.2663027              -7.2465 (HOMO)
        56        0.0409           -0.2596164              -7.0645 (LUMO)
        57        0.0405           -0.2596072              -7.0643
        58        0.0000           -0.2510801              -6.8322
        59        0.0000           -0.2476522              -6.7390
        60                         -0.2432313              -6.6187
       ...                                ...                  ...
       148                         10.5724479             287.6910
      -------------------------------------------------------------
                  HL-Gap            0.0066863 Eh            0.1819 eV
             Fermi-level           -0.2632925 Eh           -7.1646 eV

 SCC (total)                   0 d,  0 h,  0 min,  0.951 sec
 SCC setup                      ...        0 min,  0.002 sec (  0.180%)
 Dispersion                     ...        0 min,  0.000 sec (  0.024%)
 classical contributions        ...        0 min,  0.000 sec (  0.003%)
 integral evaluation            ...        0 min,  0.014 sec (  1.424%)
 iterations                     ...        0 min,  0.897 sec ( 94.277%)
 molecular gradient             ...        0 min,  0.029 sec (  3.053%)
 printout                       ...        0 min,  0.010 sec (  1.033%)

         :::::::::::::::::::::::::::::::::::::::::::::::::::::
         ::                     SUMMARY                     ::
         :::::::::::::::::::::::::::::::::::::::::::::::::::::
         :: total energy             -57.320065644089 Eh    ::
         :: total w/o Gsasa/hb       -57.316623599490 Eh    ::
         :: gradient norm              0.101440878494 Eh/a0 ::
         :: HOMO-LUMO gap              0.181943378135 eV    ::
         ::.................................................::
         :: SCC energy               -57.532014988060 Eh    ::
         :: -> electrostatic           0.294473563405 Eh    ::
         :: -> Gsolv                  -0.166370997141 Eh    ::
         ::    -> Gelec               -0.162928952541 Eh    ::
         ::    -> Gsasa               -0.007509399556 Eh    ::
         ::    -> Ghb                 -0.000178251715 Eh    ::
         ::    -> Gshift               0.004245606671 Eh    ::
         :: repulsion energy           0.237319367154 Eh    ::
         :: dispersion energy         -0.025370023183 Eh    ::
         :: halogen bond corr.         0.000000000000 Eh    ::
         :: add. restraining           0.000000000000 Eh    ::
         :: total charge              -2.000000000000 e     ::
         :::::::::::::::::::::::::::::::::::::::::::::::::::::

      ----------------------------------------------------------- 
     |                   =====================                   |
     |                        A N C O P T                        |
     |                   =====================                   |
     |               Approximate Normal Coordinate               |
     |                Rational Function Optimizer                |
      ----------------------------------------------------------- 

          ...................................................
          :                      SETUP                      :
          :.................................................:
          :   optimization level             loose          :
          :   max. optcycles                   200          :
          :   ANC micro-cycles                  20          :
          :   degrees of freedom                78          :
          :.................................................:
          :   RF solver                   davidson          :
          :   write xtbopt.log                true          :
          :   linear?                        false          :
          :   energy convergence         0.5000000E-04 Eh   :
          :   grad. convergence          0.4000000E-02 Eh/α :
          :   maxmium RF displ.          1.0000000          :
          :   Hlow (freq-cutoff)         0.1000000E-01      :
          :   Hmax (freq-cutoff)         5.0000000          :
          :   S6 in model hess.         20.0000000          :
          ...................................................

generating ANC from model Hessian ...
Using Lindh-Hessian (1995)
 Shifting diagonal of input Hessian by    1.0009788546570648E-002
 Lowest  eigenvalues of input Hessian
    0.010000    0.000000    0.000000    0.000000    0.000000    0.000000
    0.000000    0.010018    0.010032    0.010032    0.010060    0.010702
    0.010908    0.010909    0.010929    0.011045    0.011046    0.011109
 Highest eigenvalues
    1.000841    1.001137    1.001412    1.001754    1.001899    1.003024


........................................................................
.............................. CYCLE    1 ..............................
........................................................................

 iter      E             dE          RMSdq      gap      omega  full diag
   1    -57.5320150 -0.575320E+02  0.103E-05    0.18       0.0  T
   2    -57.5320150  0.126262E-07  0.329E-04    0.18      57.4  T
   3    -57.5320150 -0.124578E-07  0.417E-05    0.18     452.8  T
   4    -57.5320150 -0.136851E-09  0.192E-05    0.18     983.1  T
     SCC iter.                  ...        0 min,  0.100 sec
     gradient                   ...        0 min,  0.022 sec
 * total energy  :   -57.3200656 Eh     change        0.2044231E-10 Eh
   gradient norm :     0.1014409 Eh/α   predicted     0.0000000E+00 (-100.00%)
   displ. norm   :     0.5669840 α      lambda       -0.5308841E-01
   maximum displ.:     0.4475816 α      in ANC's #38, #62, #51, ...

........................................................................
.............................. CYCLE    2 ..............................
........................................................................

 iter      E             dE          RMSdq      gap      omega  full diag
   1    -57.5917624 -0.575918E+02  0.847E-01    0.48       0.0  T
   2    -56.9140634  0.677699E+00  0.297E+00    0.31       1.0  T
   3    -57.2968615 -0.382798E+00  0.183E+00    0.33       1.0  T
   4    -56.2053314  0.109153E+01  0.349E+00    0.30       1.0  T
   5    -57.5340775 -0.132875E+01  0.895E-01    0.39       1.0  T
   6    -57.5887558 -0.546784E-01  0.582E-01    0.40       1.0  T
   7    -57.5636695  0.250863E-01  0.712E-01    0.38       1.0  T
   8    -57.6211817 -0.575122E-01  0.159E-01    0.40       1.0  T
   9    -57.6235366 -0.235489E-02  0.612E-02    0.40       1.0  T
  10    -57.6237701 -0.233538E-03  0.357E-02    0.40       1.0  T
  11    -57.6238597 -0.896161E-04  0.211E-02    0.41       1.0  T
  12    -57.6238968 -0.370523E-04  0.102E-02    0.41       1.8  T
  13    -57.6239034 -0.658430E-05  0.662E-03    0.41       2.9  T
  14    -57.6239074 -0.401136E-05  0.286E-03    0.41       6.6  T
  15    -57.6239083 -0.938992E-06  0.366E-04    0.41      51.6  T
  16    -57.6239083 -0.356310E-08  0.316E-04    0.41      59.9  T
  17    -57.6239083 -0.746008E-08  0.190E-04    0.41      99.5  T
  18    -57.6239083 -0.402633E-08  0.348E-05    0.41     543.8  T
     SCC iter.                  ...        0 min,  0.403 sec
     gradient                   ...        0 min,  0.027 sec
 * total energy  :   -57.3570241 Eh     change       -0.3695850E-01 Eh
   gradient norm :     0.0323059 Eh/α   predicted    -0.3518077E-01 (  -4.81%)
   displ. norm   :     0.4986269 α      lambda       -0.1178505E-01
   maximum displ.:     0.3254128 α      in ANC's #21, #26, #38, ...

........................................................................
.............................. CYCLE    3 ..............................
........................................................................

 iter      E             dE          RMSdq      gap      omega  full diag
   1    -57.6615885 -0.576616E+02  0.232E-01    0.57       0.0  T
   2    -57.6513783  0.102102E-01  0.392E-01    0.52       1.0  T
   3    -57.4301629  0.221215E+00  0.143E+00    0.51       1.0  T
   4    -57.6262509 -0.196088E+00  0.626E-01    0.55       1.0  T
   5    -57.6588971 -0.326461E-01  0.234E-01    0.55       1.0  T
   6    -57.6440163  0.148808E-01  0.419E-01    0.55       1.0  T
   7    -57.6617525 -0.177363E-01  0.113E-01    0.54       1.0  T
   8    -57.6612278  0.524765E-03  0.131E-01    0.54       1.0  T
   9    -57.6631209 -0.189317E-02  0.334E-02    0.54       1.0  T
  10    -57.6632270 -0.106036E-03  0.150E-02    0.54       1.3  T
  11    -57.6632459 -0.189586E-04  0.707E-03    0.54       2.7  T
  12    -57.6632510 -0.506869E-05  0.217E-03    0.54       8.7  T
  13    -57.6632514 -0.365553E-06  0.120E-03    0.54      15.8  T
  14    -57.6632515 -0.808305E-07  0.858E-04    0.54      22.0  T
  15    -57.6632515 -0.825782E-07  0.102E-04    0.54     186.1  T
  16    -57.6632515 -0.112302E-08  0.226E-05    0.54     835.0  T
     SCC iter.                  ...        0 min,  0.352 sec
     gradient                   ...        0 min,  0.026 sec
 * total energy  :   -57.3607842 Eh     change       -0.3760101E-02 Eh
   gradient norm :     0.0270656 Eh/α   predicted    -0.7357580E-02 (  95.68%)
   displ. norm   :     0.1571955 α      lambda       -0.3351612E-02
   maximum displ.:     0.0728046 α      in ANC's #30, #55, #62, ...

........................................................................
.............................. CYCLE    4 ..............................
........................................................................

 iter      E             dE          RMSdq      gap      omega  full diag
   1    -57.6542830 -0.576543E+02  0.124E-01    0.48       0.0  T
   2    -57.6533741  0.908935E-03  0.148E-01    0.51       1.0  T
   3    -57.4654658  0.187908E+00  0.126E+00    0.46       1.0  T
   4    -57.6545020 -0.189036E+00  0.656E-02    0.50       1.0  T
   5    -57.6463579  0.814418E-02  0.269E-01    0.50       1.0  T
   6    -57.6546409 -0.828300E-02  0.666E-02    0.50       1.0  T
   7    -57.6549176 -0.276796E-03  0.318E-02    0.50       1.0  T
   8    -57.6523581  0.255950E-02  0.149E-01    0.50       1.0  T
   9    -57.6549873 -0.262917E-02  0.484E-03    0.50       3.9  T
  10    -57.6549884 -0.107530E-05  0.284E-03    0.50       6.7  T
  11    -57.6549893 -0.869630E-06  0.469E-04    0.50      40.3  T
  12    -57.6549893 -0.142765E-07  0.236E-04    0.50      80.1  T
  13    -57.6549893 -0.401536E-08  0.824E-05    0.50     229.5  T
  14    -57.6549893 -0.432529E-09  0.366E-05    0.50     516.7  T
     SCC iter.                  ...        0 min,  0.351 sec
     gradient                   ...        0 min,  0.025 sec
 * total energy  :   -57.3623600 Eh     change       -0.1575756E-02 Eh
   gradient norm :     0.0043685 Eh/α   predicted    -0.1717251E-02 (   8.98%)
   displ. norm   :     0.0874561 α      lambda       -0.1548756E-03
   maximum displ.:     0.0686680 α      in ANC's #2, #26, #12, ...

........................................................................
.............................. CYCLE    5 ..............................
........................................................................

 iter      E             dE          RMSdq      gap      omega  full diag
   1    -57.6563797 -0.576564E+02  0.195E-02    0.50       0.0  T
   2    -57.6537732  0.260647E-02  0.156E-01    0.50       1.0  T
   3    -57.6524312  0.134203E-02  0.184E-01    0.50       1.0  T
   4    -57.6563338 -0.390261E-02  0.260E-02    0.50       1.0  T
   5    -57.6562051  0.128692E-03  0.406E-02    0.50       1.0  T
   6    -57.6563949 -0.189794E-03  0.764E-03    0.50       2.5  T
   7    -57.6563966 -0.167263E-05  0.591E-03    0.50       3.2  T
   8    -57.6563814  0.152009E-04  0.128E-02    0.50       1.5  T
   9    -57.6564003 -0.189063E-04  0.170E-03    0.50      11.1  T
  10    -57.6564005 -0.267819E-06  0.123E-04    0.50     154.1  T
  11    -57.6564005 -0.703089E-09  0.723E-05    0.50     261.4  T
     SCC iter.                  ...        0 min,  0.280 sec
     gradient                   ...        0 min,  0.028 sec
 * total energy  :   -57.3624605 Eh     change       -0.1005498E-03 Eh
   gradient norm :     0.0017122 Eh/α   predicted    -0.7802999E-04 ( -22.40%)
   displ. norm   :     0.1125167 α      lambda       -0.5789264E-04
   maximum displ.:     0.1021939 α      in ANC's #2, #12, #21, ...

........................................................................
.............................. CYCLE    6 ..............................
........................................................................

 iter      E             dE          RMSdq      gap      omega  full diag
   1    -57.6588175 -0.576588E+02  0.240E-02    0.51       0.0  T
   2    -57.6499230  0.889455E-02  0.282E-01    0.50       1.0  T
   3    -57.6531731 -0.325017E-02  0.221E-01    0.50       1.0  T
   4    -57.6588386 -0.566543E-02  0.148E-02    0.51       1.3  T
   5    -57.6577043  0.113429E-02  0.984E-02    0.51       1.0  T
   6    -57.6588568 -0.115254E-02  0.498E-03    0.51       3.8  T
   7    -57.6588363  0.205449E-04  0.139E-02    0.51       1.4  T
   8    -57.6588543 -0.179925E-04  0.657E-03    0.51       2.9  T
   9    -57.6588589 -0.464380E-05  0.177E-03    0.51      10.7  T
  10    -57.6588592 -0.259386E-06  0.171E-04    0.51     110.5  T
  11    -57.6588592 -0.180381E-08  0.920E-05    0.51     205.3  T
     SCC iter.                  ...        0 min,  0.249 sec
     gradient                   ...        0 min,  0.024 sec
 * total energy  :   -57.3624913 Eh     change       -0.3079419E-04 Eh
   gradient norm :     0.0029457 Eh/α   predicted    -0.2911014E-04 (  -5.47%)
   displ. norm   :     0.0482681 α      lambda       -0.4679376E-04
   maximum displ.:     0.0411165 α      in ANC's #2, #21, #12, ...

   *** GEOMETRY OPTIMIZATION CONVERGED AFTER 6 ITERATIONS ***

------------------------------------------------------------------------
 total energy gain   :        -0.0424257 Eh      -26.6225 kcal/mol
 total RMSD          :         0.1928828 a0        0.1021 Å
 total power (kW/mol):       -18.5647762 (step)  -50.7362 (real)
------------------------------------------------------------------------

 ANCopt (total)                0 d,  0 h,  0 min,  2.195 sec
 optimizer setup                ...        0 min,  0.000 sec (  0.008%)
 model hessian                  ...        0 min,  0.003 sec (  0.141%)
 ANC generation                 ...        0 min,  0.004 sec (  0.165%)
 coordinate transformation      ...        0 min,  0.000 sec (  0.011%)
 single point calculation       ...        0 min,  2.175 sec ( 99.059%)
 optimization log               ...        0 min,  0.002 sec (  0.086%)
 hessian update                 ...        0 min,  0.009 sec (  0.411%)
 rational function              ...        0 min,  0.002 sec (  0.077%)

================
 final structure:
================
28
 xtb: 6.6.1 (unknown)
Fe           0.91005180954757        0.88866376568415        0.89486124608892
Fe           0.90183630282193       -0.89713344805442       -0.89204973208246
Fe          -0.90158893669340        0.89662211910848       -0.89054478649522
Fe          -0.91015540751631       -0.88795555904264        0.89302352596089
S           -1.20765493335564        1.21281473369459        1.20903817765217
S            1.20739189454999       -1.21258368530052        1.20783800878708
S            1.21864197519005        1.20158480125673       -1.20504301186537
S           -1.21849567152027       -1.20159661254084       -1.20668218020284
S            1.95473105432770        2.28583322889482        2.29628027499645
C            3.76189980411635        2.14263635282643        2.15070892440619
H            4.20092894447750        2.85416210379775        2.85371610400321
H            4.11972369285417        2.39180937842119        1.14769751053818
H            4.12177829585161        1.14299615180964        2.41037564627322
S            1.93630196461204       -2.30130956997162       -2.29412008901001
C            3.74405894968986       -2.16130781035012       -2.15236485096429
H            4.10453436978654       -1.15909810963850       -2.40103269409769
H            4.18059310581783       -2.86505460570658       -2.86473812366897
H            4.10389162301675       -2.42271415004095       -1.15313676751308
S           -1.93605960454013        2.30182530613355       -2.29211831033852
C           -3.74388341811027        2.16039460293401       -2.15167698274708
H           -4.10338314000136        1.15820742531840       -2.40186049088334
H           -4.18074909162280        2.86476119215339       -2.86331649972879
H           -4.10438947367104        2.42007709703153       -1.15223343377916
S           -1.95478209829339       -2.28625150062121        2.29386393409123
C           -3.76210990928123       -2.14180524551676        2.15064916670987
H           -4.20096356050940       -2.85295674498216        2.85422910216396
H           -4.12124828202134       -2.39077011136673        1.14805158899390
H           -4.12090020952279       -1.14185105591909        2.41058473270099

 Bond Distances (Angstroems)
 ---------------------------
Fe1-Fe2=2.5263       Fe1-Fe3=2.5436       Fe1-Fe4=2.5435       Fe1-S5=2.1653        Fe1-S6=2.1451        Fe1-S7=2.1454        
Fe1-S9=2.2377        Fe2-Fe1=2.5263       Fe2-Fe3=2.5436       Fe2-Fe4=2.5436       Fe2-S6=2.1453        Fe2-S7=2.1454        
Fe2-S8=2.1651        Fe2-S14=2.2378       Fe3-Fe1=2.5436       Fe3-Fe2=2.5436       Fe3-Fe4=2.5231       Fe3-S5=2.1452        
Fe3-S7=2.1650        Fe3-S8=2.1454        Fe3-S19=2.2381       Fe4-Fe1=2.5435       Fe4-Fe2=2.5436       Fe4-Fe3=2.5231       
Fe4-S5=2.1451        Fe4-S6=2.1653        Fe4-S8=2.1453        Fe4-S24=2.2380       S5-Fe1=2.1653        S5-Fe3=2.1452        
S5-Fe4=2.1451        S6-Fe1=2.1451        S6-Fe2=2.1453        S6-Fe4=2.1653        S7-Fe1=2.1454        S7-Fe2=2.1454        
S7-Fe3=2.1650        S8-Fe2=2.1651        S8-Fe3=2.1454        S8-Fe4=2.1453        S9-Fe1=2.2377        S9-C10=1.8187        
C10-S9=1.8187        C10-H11=1.0924       C10-H12=1.0937       C10-H13=1.0937       H11-C10=1.0924       H12-C10=1.0937       
H13-C10=1.0937       S14-Fe2=2.2378       S14-C15=1.8187       C15-S14=1.8187       C15-H16=1.0937       C15-H17=1.0924       
C15-H18=1.0937       H16-C15=1.0937       H17-C15=1.0924       H18-C15=1.0937       S19-Fe3=2.2381       S19-C20=1.8188       
C20-S19=1.8188       C20-H21=1.0937       C20-H22=1.0924       C20-H23=1.0937       H21-C20=1.0937       H22-C20=1.0924       
H23-C20=1.0937       S24-Fe4=2.2380       S24-C25=1.8187       C25-S24=1.8187       C25-H26=1.0924       C25-H27=1.0937       
C25-H28=1.0937       H26-C25=1.0924       H27-C25=1.0937       H28-C25=1.0937       
 C  H  Rav=1.0933 sigma=0.0006  Rmin=1.0924  Rmax=1.0937    12
 S  C  Rav=1.8187 sigma=0.0000  Rmin=1.8187  Rmax=1.8188     4
 Fe S  Rav=2.1734 sigma=0.0381  Rmin=2.1451  Rmax=2.2381    16
 Fe Fe Rav=2.5373 sigma=0.0090  Rmin=2.5231  Rmax=2.5436     6

 selected bond angles (degree)
 --------------------
Fe3-Fe1-Fe2= 60.23             Fe4-Fe1-Fe2= 60.23             Fe4-Fe1-Fe3= 59.47             S5-Fe1-Fe2=101.85              
S5-Fe1-Fe3= 53.47              S5-Fe1-Fe4= 53.47              S6-Fe1-Fe2= 53.93              S6-Fe1-Fe3=101.78              
S6-Fe1-Fe4= 54.20              S6-Fe1-S5=105.13               S7-Fe1-Fe2= 53.93              S7-Fe1-Fe3= 54.19              
S7-Fe1-Fe4=101.78              S7-Fe1-S5=105.12               S7-Fe1-S6=105.41               S9-Fe1-Fe2=152.36              
S9-Fe1-Fe3=140.37              S9-Fe1-Fe4=140.41              S9-Fe1-S5=105.80               S9-Fe1-S6=117.10               
S9-Fe1-S7=117.05               Fe3-Fe2-Fe1= 60.22             Fe4-Fe2-Fe1= 60.22             Fe4-Fe2-Fe3= 59.47             
S6-Fe2-Fe1= 53.92              S6-Fe2-Fe3=101.78              S6-Fe2-Fe4= 54.20              S7-Fe2-Fe1= 53.93              
S7-Fe2-Fe3= 54.19              S7-Fe2-Fe4=101.77              S7-Fe2-S6=105.40               S8-Fe2-Fe1=101.85              
S8-Fe2-Fe3= 53.48              S8-Fe2-Fe4= 53.48              S8-Fe2-S6=105.13               S8-Fe2-S7=105.13               
S14-Fe2-Fe1=152.28             S14-Fe2-Fe3=140.41             S14-Fe2-Fe4=140.47             S14-Fe2-S6=117.08              
S14-Fe2-S7=117.01              S14-Fe2-S8=105.87              Fe2-Fe3-Fe1= 59.55             Fe4-Fe3-Fe1= 60.27             
Fe4-Fe3-Fe2= 60.27             S5-Fe3-Fe1= 54.20              S5-Fe3-Fe2=101.87              S5-Fe3-Fe4= 53.98              
S7-Fe3-Fe1= 53.48              S7-Fe3-Fe2= 53.48              S7-Fe3-Fe4=101.87              S7-Fe3-S5=105.14               
S8-Fe3-Fe1=101.86              S8-Fe3-Fe2= 54.19              S8-Fe3-Fe4= 53.98              S8-Fe3-S5=105.50               
S8-Fe3-S7=105.13               S19-Fe3-Fe1=140.42             S19-Fe3-Fe2=140.36             S19-Fe3-Fe4=152.28             
S19-Fe3-S5=117.03              S19-Fe3-S7=105.86              S19-Fe3-S8=116.97              Fe2-Fe4-Fe1= 59.55             
Fe3-Fe4-Fe1= 60.27             Fe3-Fe4-Fe2= 60.27             S5-Fe4-Fe1= 54.20              S5-Fe4-Fe2=101.87              
S5-Fe4-Fe3= 53.98              S6-Fe4-Fe1= 53.47              S6-Fe4-Fe2= 53.48              S6-Fe4-Fe3=101.86              
S6-Fe4-S5=105.13               S8-Fe4-Fe1=101.87              S8-Fe4-Fe2= 54.20              S8-Fe4-Fe3= 53.99              
S8-Fe4-S5=105.51               S8-Fe4-S6=105.13               S24-Fe4-Fe1=140.35             S24-Fe4-Fe2=140.31             
S24-Fe4-Fe3=152.37             S24-Fe4-S5=117.06              S24-Fe4-S6=105.77              S24-Fe4-S8=117.01              
Fe3-S5-Fe1= 72.33              Fe4-S5-Fe1= 72.32              Fe4-S5-Fe3= 72.04              Fe2-S6-Fe1= 72.15              
Fe4-S6-Fe1= 72.32              Fe4-S6-Fe2= 72.32              Fe2-S7-Fe1= 72.14              Fe3-S7-Fe1= 72.33              
Fe3-S7-Fe2= 72.33              Fe3-S8-Fe2= 72.33              Fe4-S8-Fe2= 72.33              Fe4-S8-Fe3= 72.03              
C10-S9-Fe1=111.38              H11-C10-S9=107.25              H12-C10-S9=112.37              H12-C10-H11=108.08             
H13-C10-S9=112.33              H13-C10-H11=108.08             H13-C10-H12=108.56             

 selected dihedral angles (degree)
 ---------------------------------
Fe3-Fe2-Fe1-Fe4= 69.70        Fe3-Fe2-Fe1-S5= 34.85         Fe3-Fe2-Fe1-S6=135.06         Fe3-Fe2-Fe1-S7=294.66         
Fe3-Fe2-Fe1-S9=214.91         Fe4-Fe2-Fe1-Fe3=290.30        Fe4-Fe2-Fe1-S5=325.15         Fe4-Fe2-Fe1-S6= 65.36         
Fe4-Fe2-Fe1-S7=224.96         Fe4-Fe2-Fe1-S9=145.21         S6-Fe2-Fe1-Fe3=224.94         S6-Fe2-Fe1-Fe4=294.64         
S6-Fe2-Fe1-S5=259.79          S6-Fe2-Fe1-S7=159.60          S6-Fe2-Fe1-S9= 79.86          S7-Fe2-Fe1-Fe3= 65.34         
S7-Fe2-Fe1-Fe4=135.04         S7-Fe2-Fe1-S5=100.19          S7-Fe2-Fe1-S6=200.40          S7-Fe2-Fe1-S9=280.26          
S8-Fe2-Fe1-Fe3=325.15         S8-Fe2-Fe1-Fe4= 34.84         S8-Fe2-Fe1-S5=  0.00          S8-Fe2-Fe1-S6=100.20          
S8-Fe2-Fe1-S7=259.80          S8-Fe2-Fe1-S9=180.06          S14-Fe2-Fe1-Fe3=145.07        S14-Fe2-Fe1-Fe4=214.77        
S14-Fe2-Fe1-S5=179.92         S14-Fe2-Fe1-S6=280.13         S14-Fe2-Fe1-S7= 79.73         S14-Fe2-Fe1-S9=  0.00         
Fe2-Fe3-Fe1-Fe4=289.07        Fe2-Fe3-Fe1-S5=224.10         Fe2-Fe3-Fe1-S6=324.32         Fe2-Fe3-Fe1-S7= 64.93         
Fe2-Fe3-Fe1-S9=155.40         Fe4-Fe3-Fe1-Fe2= 70.93        Fe4-Fe3-Fe1-S5=295.03         Fe4-Fe3-Fe1-S6= 35.24         
Fe4-Fe3-Fe1-S7=135.86         Fe4-Fe3-Fe1-S9=226.33         S5-Fe3-Fe1-Fe2=135.90         S5-Fe3-Fe1-Fe4= 64.97         
S5-Fe3-Fe1-S6=100.21          S5-Fe3-Fe1-S7=200.83          S5-Fe3-Fe1-S9=291.30          S7-Fe3-Fe1-Fe2=295.07         
S7-Fe3-Fe1-Fe4=224.14         S7-Fe3-Fe1-S5=159.17          S7-Fe3-Fe1-S6=259.38          S7-Fe3-Fe1-S9= 90.46          
S8-Fe3-Fe1-Fe2= 35.22         S8-Fe3-Fe1-Fe4=324.29         S8-Fe3-Fe1-S5=259.32          S8-Fe3-Fe1-S6=359.54          
S8-Fe3-Fe1-S7=100.16          S8-Fe3-Fe1-S9=190.62          S19-Fe3-Fe1-Fe2=226.30        S19-Fe3-Fe1-Fe4=155.37        
S19-Fe3-Fe1-S5= 90.40         S19-Fe3-Fe1-S6=190.61         S19-Fe3-Fe1-S7=291.23         S19-Fe3-Fe1-S9= 21.70         
Fe1-Fe3-Fe2-Fe4= 70.92        Fe1-Fe3-Fe2-S6= 35.68         Fe1-Fe3-Fe2-S7=295.07         Fe1-Fe3-Fe2-S8=135.90         
Fe1-Fe3-Fe2-S14=204.70        Fe4-Fe3-Fe2-Fe1=289.08        Fe4-Fe3-Fe2-S6=324.75         Fe4-Fe3-Fe2-S7=224.14         
Fe4-Fe3-Fe2-S8= 64.97         Fe4-Fe3-Fe2-S14=133.78        S5-Fe3-Fe2-Fe1=324.77         S5-Fe3-Fe2-Fe4= 35.70         
S5-Fe3-Fe2-S6=  0.45          S5-Fe3-Fe2-S7=259.84          S5-Fe3-Fe2-S8=100.67          S5-Fe3-Fe2-S14=169.48         
S7-Fe3-Fe2-Fe1= 64.93         S7-Fe3-Fe2-Fe4=135.86         S7-Fe3-Fe2-S6=100.61          S7-Fe3-Fe2-S8=200.83          
S7-Fe3-Fe2-S14=269.64         S8-Fe3-Fe2-Fe1=224.10         S8-Fe3-Fe2-Fe4=295.03         S8-Fe3-Fe2-S6=259.78          
S8-Fe3-Fe2-S7=159.17          S8-Fe3-Fe2-S14= 68.80         S19-Fe3-Fe2-Fe1=133.78        S19-Fe3-Fe2-Fe4=204.70        
S19-Fe3-Fe2-S6=169.45         S19-Fe3-Fe2-S7= 68.84         S19-Fe3-Fe2-S8=269.67         S19-Fe3-Fe2-S14=338.48        
Fe2-Fe4-Fe1-Fe3= 70.93        Fe2-Fe4-Fe1-S5=135.90         Fe2-Fe4-Fe1-S6=295.07         Fe2-Fe4-Fe1-S7= 35.69         
Fe2-Fe4-Fe1-S9=204.54         Fe3-Fe4-Fe1-Fe2=289.07        Fe3-Fe4-Fe1-S5= 64.97         Fe3-Fe4-Fe1-S6=224.14         
Fe3-Fe4-Fe1-S7=324.77         Fe3-Fe4-Fe1-S9=133.62         S5-Fe4-Fe1-Fe2=224.10         S5-Fe4-Fe1-Fe3=295.03         
S5-Fe4-Fe1-S6=159.17          S5-Fe4-Fe1-S7=259.79          S5-Fe4-Fe1-S9= 68.65          S6-Fe4-Fe1-Fe2= 64.93         
S6-Fe4-Fe1-Fe3=135.86         S6-Fe4-Fe1-S5=200.83          S6-Fe4-Fe1-S7=100.62          S6-Fe4-Fe1-S9=269.47          
S8-Fe4-Fe1-Fe2=324.78         S8-Fe4-Fe1-Fe3= 35.71         S8-Fe4-Fe1-S5=100.68          S8-Fe4-Fe1-S6=259.85          
S8-Fe4-Fe1-S7=  0.48          S8-Fe4-Fe1-S9=169.33          S24-Fe4-Fe1-Fe2=133.60        S24-Fe4-Fe1-Fe3=204.52        
S24-Fe4-Fe1-S5=269.49         S24-Fe4-Fe1-S6= 68.67         S24-Fe4-Fe1-S7=169.29         S24-Fe4-Fe1-S9=338.14         
Fe1-Fe4-Fe2-Fe3=289.07        Fe1-Fe4-Fe2-S6= 64.92         Fe1-Fe4-Fe2-S7=324.31         Fe1-Fe4-Fe2-S8=224.09         
Fe1-Fe4-Fe2-S14=155.37        Fe3-Fe4-Fe2-Fe1= 70.93        Fe3-Fe4-Fe2-S6=135.85         Fe3-Fe4-Fe2-S7= 35.24         
Fe3-Fe4-Fe2-S8=295.02         Fe3-Fe4-Fe2-S14=226.30        S5-Fe4-Fe2-Fe1= 35.23         S5-Fe4-Fe2-Fe3=324.30         
S5-Fe4-Fe2-S6=100.15          S5-Fe4-Fe2-S7=359.54          S5-Fe4-Fe2-S8=259.32          S5-Fe4-Fe2-S14=190.60         
S6-Fe4-Fe2-Fe1=295.08         S6-Fe4-Fe2-Fe3=224.15         S6-Fe4-Fe2-S7=259.39          S6-Fe4-Fe2-S8=159.17          
S6-Fe4-Fe2-S14= 90.45         S8-Fe4-Fe2-Fe1=135.91         S8-Fe4-Fe2-Fe3= 64.98         S8-Fe4-Fe2-S6=200.83          
S8-Fe4-Fe2-S7=100.22          S8-Fe4-Fe2-S14=291.28         S24-Fe4-Fe2-Fe1=226.35        S24-Fe4-Fe2-Fe3=155.42        
S24-Fe4-Fe2-S6=291.27         S24-Fe4-Fe2-S7=190.66         S24-Fe4-Fe2-S8= 90.44         S24-Fe4-Fe2-S14= 21.72        
Fe1-Fe4-Fe3-Fe2= 69.77        Fe1-Fe4-Fe3-S5=294.68         Fe1-Fe4-Fe3-S7= 34.88         Fe1-Fe4-Fe3-S8=135.07         
Fe1-Fe4-Fe3-S19=214.81        Fe2-Fe4-Fe3-Fe1=290.23        Fe2-Fe4-Fe3-S5=224.91         Fe2-Fe4-Fe3-S7=325.12         
Fe2-Fe4-Fe3-S8= 65.31         Fe2-Fe4-Fe3-S19=145.04        S5-Fe4-Fe3-Fe1= 65.32         S5-Fe4-Fe3-Fe2=135.09         
S5-Fe4-Fe3-S7=100.20          S5-Fe4-Fe3-S8=200.40          S5-Fe4-Fe3-S19=280.13         S6-Fe4-Fe3-Fe1=325.12         
S6-Fe4-Fe3-Fe2= 34.89         S6-Fe4-Fe3-S5=259.80          S6-Fe4-Fe3-S7=  0.00          S6-Fe4-Fe3-S8=100.20          
S6-Fe4-Fe3-S19=179.93         S8-Fe4-Fe3-Fe1=224.93         S8-Fe4-Fe3-Fe2=294.69         S8-Fe4-Fe3-S5=159.60          
S8-Fe4-Fe3-S7=259.81          S8-Fe4-Fe3-S19= 79.73         S24-Fe4-Fe3-Fe1=145.17        S24-Fe4-Fe3-Fe2=214.94        
S24-Fe4-Fe3-S5= 79.85         S24-Fe4-Fe3-S7=180.06         S24-Fe4-Fe3-S8=280.25         S24-Fe4-Fe3-S19=  0.00        
Fe3-S5-Fe1-Fe2=321.89         Fe3-S5-Fe1-Fe4=283.77         Fe3-S5-Fe1-S6=266.39          Fe3-S5-Fe1-S7= 17.38          
Fe3-S5-Fe1-S9=141.86          Fe4-S5-Fe1-Fe2= 38.11         Fe4-S5-Fe1-Fe3= 76.23         Fe4-S5-Fe1-S6=342.62          
Fe4-S5-Fe1-S7= 93.61          Fe4-S5-Fe1-S9=218.08          Fe1-S5-Fe3-Fe2= 37.81         Fe1-S5-Fe3-Fe4= 76.60         
Fe1-S5-Fe3-S7=342.78          Fe1-S5-Fe3-S8= 93.61          Fe1-S5-Fe3-S19=225.66         Fe4-S5-Fe3-Fe1=283.40         
Fe4-S5-Fe3-Fe2=321.21         Fe4-S5-Fe3-S7=266.18          Fe4-S5-Fe3-S8= 17.01          Fe4-S5-Fe3-S19=149.06         
Fe1-S5-Fe4-Fe2=322.19         Fe1-S5-Fe4-Fe3=283.40         Fe1-S5-Fe4-S6= 17.22          Fe1-S5-Fe4-S8=266.39          
Fe1-S5-Fe4-S24=134.24         Fe3-S5-Fe4-Fe1= 76.60         Fe3-S5-Fe4-Fe2= 38.79         Fe3-S5-Fe4-S6= 93.82          
Fe3-S5-Fe4-S8=342.99          Fe3-S5-Fe4-S24=210.84         Fe2-S6-Fe1-Fe3= 38.78         Fe2-S6-Fe1-Fe4= 76.58         
Fe2-S6-Fe1-S5= 93.79          Fe2-S6-Fe1-S7=343.01          Fe2-S6-Fe1-S9=210.87          Fe4-S6-Fe1-Fe2=283.42         
Fe4-S6-Fe1-Fe3=322.21         Fe4-S6-Fe1-S5= 17.22          Fe4-S6-Fe1-S7=266.43          Fe4-S6-Fe1-S9=134.29          
Fe1-S6-Fe2-Fe3=321.22         Fe1-S6-Fe2-Fe4=283.42         Fe1-S6-Fe2-S7= 16.99          Fe1-S6-Fe2-S8=266.20          
Fe1-S6-Fe2-S14=149.05         Fe4-S6-Fe2-Fe1= 76.58         Fe4-S6-Fe2-Fe3= 37.80         Fe4-S6-Fe2-S7= 93.57          
Fe4-S6-Fe2-S8=342.78          Fe4-S6-Fe2-S14=225.63         Fe1-S6-Fe4-Fe2= 76.34         Fe1-S6-Fe4-Fe3= 38.17         
Fe1-S6-Fe4-S5=342.62          Fe1-S6-Fe4-S8= 93.72          Fe1-S6-Fe4-S24=218.14         Fe2-S6-Fe4-Fe1=283.66         
Fe2-S6-Fe4-Fe3=321.83         Fe2-S6-Fe4-S5=266.28          Fe2-S6-Fe4-S8= 17.38          Fe2-S6-Fe4-S24=141.80         
Fe2-S7-Fe1-Fe3=283.42         Fe2-S7-Fe1-Fe4=321.21         Fe2-S7-Fe1-S5=266.20          Fe2-S7-Fe1-S6= 16.99          
Fe2-S7-Fe1-S9=149.16          Fe3-S7-Fe1-Fe2= 76.58         Fe3-S7-Fe1-Fe4= 37.79         Fe3-S7-Fe1-S5=342.78          
Fe3-S7-Fe1-S6= 93.57          Fe3-S7-Fe1-S9=225.74          Fe1-S7-Fe2-Fe3= 76.58         Fe1-S7-Fe2-Fe4= 38.79         
Fe1-S7-Fe2-S6=343.01          Fe1-S7-Fe2-S8= 93.80          Fe1-S7-Fe2-S14=210.91         Fe3-S7-Fe2-Fe1=283.42         
Fe3-S7-Fe2-Fe4=322.21         Fe3-S7-Fe2-S6=266.43          Fe3-S7-Fe2-S8= 17.22          Fe3-S7-Fe2-S14=134.33         
Fe1-S7-Fe3-Fe2=283.67         Fe1-S7-Fe3-Fe4=321.84         Fe1-S7-Fe3-S5= 17.39          Fe1-S7-Fe3-S8=266.29          
Fe1-S7-Fe3-S19=141.87         Fe2-S7-Fe3-Fe1= 76.33         Fe2-S7-Fe3-Fe4= 38.17         Fe2-S7-Fe3-S5= 93.72          
Fe2-S7-Fe3-S8=342.62          Fe2-S7-Fe3-S19=218.20         Fe3-S8-Fe2-Fe1= 38.11         Fe3-S8-Fe2-Fe4= 76.22         
Fe3-S8-Fe2-S6= 93.60          Fe3-S8-Fe2-S7=342.62          Fe3-S8-Fe2-S14=218.15         Fe4-S8-Fe2-Fe1=321.90         
Fe4-S8-Fe2-Fe3=283.78         Fe4-S8-Fe2-S6= 17.38          Fe4-S8-Fe2-S7=266.40          Fe4-S8-Fe2-S14=141.93         
Fe2-S8-Fe3-Fe1=322.19         Fe2-S8-Fe3-Fe4=283.39         Fe2-S8-Fe3-S5=266.38          Fe2-S8-Fe3-S7= 17.22          
Fe2-S8-Fe3-S19=134.30         Fe4-S8-Fe3-Fe1= 38.80         Fe4-S8-Fe3-Fe2= 76.61         Fe4-S8-Fe3-S5=342.99          
Fe4-S8-Fe3-S7= 93.83          Fe4-S8-Fe3-S19=210.90         Fe2-S8-Fe4-Fe1= 37.80         Fe2-S8-Fe4-Fe3= 76.60         
Fe2-S8-Fe4-S5= 93.61          Fe2-S8-Fe4-S6=342.78          Fe2-S8-Fe4-S24=225.79         Fe3-S8-Fe4-Fe1=321.20         
Fe3-S8-Fe4-Fe2=283.40         Fe3-S8-Fe4-S5= 17.01          Fe3-S8-Fe4-S6=266.18          Fe3-S8-Fe4-S24=149.19         
C10-S9-Fe1-Fe2=  0.20         C10-S9-Fe1-Fe3=231.35         C10-S9-Fe1-Fe4=129.20         C10-S9-Fe1-S5=180.26          
C10-S9-Fe1-S6= 63.55          C10-S9-Fe1-S7=296.93          H11-C10-S9-Fe1=179.58         H12-C10-S9-Fe1= 60.95         
H13-C10-S9-Fe1=298.19         

 CMA Distance (Angstroems)
 ---------------------------
R(CMA):  0.0009
           -------------------------------------------------
          |                Final Singlepoint                |
           -------------------------------------------------

          ...................................................
          :                      SETUP                      :
          :.................................................:
          :  # basis functions                 160          :
          :  # atomic orbitals                 148          :
          :  # shells                           68          :
          :  # electrons                       110          :
          :  # halogen bonds                     0          :
          :  max. iterations                   250          :
          :  Hamiltonian                  GFN1-xTB          :
          :  restarted?                      false          :
          :  GBSA solvation                   true          :
          :  PC potential                    false          :
          :  electronic temp.          300.0000000     K    :
          :  accuracy                    1.0000000          :
          :  -> integral cutoff          0.2500000E+02      :
          :  -> integral neglect         0.1000000E-07      :
          :  -> SCF convergence          0.1000000E-05 Eh   :
          :  -> wf. convergence          0.2000000E-04 e    :
          :  Broyden damping             0.4000000          :
          ...................................................

 iter      E             dE          RMSdq      gap      omega  full diag
   1    -57.6588592 -0.576589E+02  0.558E-05    0.51       0.0  T
   2    -57.6588589  0.250184E-06  0.145E-03    0.51      13.1  T
   3    -57.6588592 -0.249719E-06  0.942E-05    0.51     200.6  T
   4    -57.6588592 -0.532346E-09  0.511E-05    0.51     370.2  T

   *** convergence criteria satisfied after 4 iterations ***

         #    Occupation            Energy/Eh            Energy/eV
      -------------------------------------------------------------
         1        2.0000           -0.7718542             -21.0032
       ...           ...                  ...                  ...
        49        2.0000           -0.2694446              -7.3320
        50        2.0000           -0.2687113              -7.3120
        51        2.0000           -0.2686688              -7.3109
        52        2.0000           -0.2594517              -7.0600
        53        2.0000           -0.2594126              -7.0590
        54        2.0000           -0.2565208              -6.9803
        55        1.9998           -0.2532158              -6.8904 (HOMO)
        56        0.0001           -0.2345133              -6.3814 (LUMO)
        57        0.0001           -0.2344655              -6.3801
        58        0.0000           -0.2335243              -6.3545
        59                         -0.2279996              -6.2042
        60                         -0.2195462              -5.9742
       ...                                ...                  ...
       148                         13.0656431             355.5342
      -------------------------------------------------------------
                  HL-Gap            0.0187026 Eh            0.5089 eV
             Fermi-level           -0.2442455 Eh           -6.6463 eV

 SCC (total)                   0 d,  0 h,  0 min,  0.186 sec
 SCC setup                      ...        0 min,  0.001 sec (  0.341%)
 Dispersion                     ...        0 min,  0.000 sec (  0.080%)
 classical contributions        ...        0 min,  0.000 sec (  0.020%)
 integral evaluation            ...        0 min,  0.012 sec (  6.654%)
 iterations                     ...        0 min,  0.096 sec ( 51.519%)
 molecular gradient             ...        0 min,  0.067 sec ( 35.823%)
 printout                       ...        0 min,  0.010 sec (  5.525%)

         :::::::::::::::::::::::::::::::::::::::::::::::::::::
         ::                     SUMMARY                     ::
         :::::::::::::::::::::::::::::::::::::::::::::::::::::
         :: total energy             -57.362491343584 Eh    ::
         :: total w/o Gsasa/hb       -57.359396037247 Eh    ::
         :: gradient norm              0.002945559031 Eh/a0 ::
         :: HOMO-LUMO gap              0.508922832082 eV    ::
         ::.................................................::
         :: SCC energy               -57.658859171739 Eh    ::
         :: -> electrostatic           0.295928953374 Eh    ::
         :: -> Gsolv                  -0.161621760738 Eh    ::
         ::    -> Gelec               -0.158526454401 Eh    ::
         ::    -> Gsasa               -0.007150776724 Eh    ::
         ::    -> Ghb                 -0.000190136284 Eh    ::
         ::    -> Gshift               0.004245606671 Eh    ::
         :: repulsion energy           0.322384454691 Eh    ::
         :: dispersion energy         -0.026016626536 Eh    ::
         :: halogen bond corr.         0.000000000000 Eh    ::
         :: add. restraining           0.000000000000 Eh    ::
         :: total charge              -2.000000000904 e     ::
         :::::::::::::::::::::::::::::::::::::::::::::::::::::

           -------------------------------------------------
          |                Property Printout                |
           -------------------------------------------------

    * Orbital Energies and Occupations

         #    Occupation            Energy/Eh            Energy/eV
      -------------------------------------------------------------
         1        2.0000           -0.7718542             -21.0032
       ...           ...                  ...                  ...
        43        2.0000           -0.2999171              -8.1612
        44        2.0000           -0.2998900              -8.1604
        45        2.0000           -0.2792304              -7.5982
        46        2.0000           -0.2777232              -7.5572
        47        2.0000           -0.2707973              -7.3688
        48        2.0000           -0.2697544              -7.3404
        49        2.0000           -0.2694446              -7.3320
        50        2.0000           -0.2687113              -7.3120
        51        2.0000           -0.2686688              -7.3109
        52        2.0000           -0.2594517              -7.0600
        53        2.0000           -0.2594126              -7.0590
        54        2.0000           -0.2565208              -6.9803
        55        1.9998           -0.2532158              -6.8904 (HOMO)
        56        0.0001           -0.2345133              -6.3814 (LUMO)
        57        0.0001           -0.2344655              -6.3801
        58        0.0000           -0.2335243              -6.3545
        59                         -0.2279996              -6.2042
        60                         -0.2195462              -5.9742
        61                         -0.2194577              -5.9717
        62                         -0.2011882              -5.4746
        63                         -0.2002856              -5.4500
        64                         -0.2002451              -5.4489
        65                         -0.1025062              -2.7893
        66                         -0.1016179              -2.7652
       ...                                ...                  ...
       148                         13.0656431             355.5342
      -------------------------------------------------------------
                  HL-Gap            0.0187026 Eh            0.5089 eV
             Fermi-level           -0.2442455 Eh           -6.6463 eV

  Mulliken/CM5 charges         n(s)   n(p)   n(d)
     1Fe   -0.01870  0.28076   0.151  0.972  6.896
     2Fe   -0.01869  0.28077   0.151  0.972  6.896
     3Fe   -0.01863  0.28082   0.151  0.972  6.896
     4Fe   -0.01867  0.28078   0.151  0.972  6.895
     5S    -0.10227 -0.33727   1.866  4.256 -0.019
     6S    -0.10217 -0.33716   1.866  4.256 -0.019
     7S    -0.10214 -0.33712   1.866  4.256 -0.019
     8S    -0.10223 -0.33722   1.866  4.256 -0.019
     9S    -0.31384 -0.40155   1.893  4.430 -0.010
    10C    -0.01472 -0.14730   0.998  3.016  0.000
    11H    -0.02477  0.02769   1.025  0.000  0.000
    12H    -0.01278  0.03889   1.013  0.000  0.000
    13H    -0.01300  0.03867   1.013  0.000  0.000
    14S    -0.31387 -0.40157   1.893  4.430 -0.010
    15C    -0.01465 -0.14723   0.998  3.016  0.000
    16H    -0.01277  0.03890   1.013  0.000  0.000
    17H    -0.02480  0.02765   1.025  0.000  0.000
    18H    -0.01297  0.03870   1.013  0.000  0.000
    19S    -0.31391 -0.40155   1.893  4.430 -0.010
    20C    -0.01466 -0.14724   0.998  3.016  0.000
    21H    -0.01278  0.03889   1.013  0.000  0.000
    22H    -0.02482  0.02762   1.025  0.000  0.000
    23H    -0.01297  0.03870   1.013  0.000  0.000
    24S    -0.31386 -0.40152   1.893  4.430 -0.010
    25C    -0.01474 -0.14732   0.998  3.016  0.000
    26H    -0.02478  0.02767   1.025  0.000  0.000
    27H    -0.01281  0.03886   1.013  0.000  0.000
    28H    -0.01299  0.03868   1.013  0.000  0.000

Wiberg/Mayer (AO) data.
largest (>0.10) Wiberg bond orders for each atom

 ---------------------------------------------------------------------------
     #   Z sym  total        # sym  WBO       # sym  WBO       # sym  WBO
 ---------------------------------------------------------------------------
     1  26 Fe   5.751 --     6 S    0.856     7 S    0.856     5 S    0.813
                             9 S    0.764     2 Fe   0.739     4 Fe   0.731
                             3 Fe   0.731
     2  26 Fe   5.751 --     6 S    0.856     7 S    0.856     8 S    0.814
                            14 S    0.764     1 Fe   0.739     4 Fe   0.731
                             3 Fe   0.731
     3  26 Fe   5.753 --     5 S    0.856     8 S    0.856     7 S    0.813
                            19 S    0.763     4 Fe   0.741     1 Fe   0.731
                             2 Fe   0.731
     4  26 Fe   5.753 --     5 S    0.856     8 S    0.856     6 S    0.813
                            24 S    0.763     3 Fe   0.741     1 Fe   0.731
                             2 Fe   0.731
     5  16 S    2.693 --     4 Fe   0.856     3 Fe   0.856     1 Fe   0.813
     6  16 S    2.693 --     1 Fe   0.856     2 Fe   0.856     4 Fe   0.813
     7  16 S    2.693 --     1 Fe   0.856     2 Fe   0.856     3 Fe   0.813
     8  16 S    2.693 --     4 Fe   0.856     3 Fe   0.856     2 Fe   0.814
     9  16 S    2.018 --    10 C    0.978     1 Fe   0.764
    10   6 C    3.989 --    11 H    0.994    13 H    0.993    12 H    0.993
                             9 S    0.978
    11   1 H    1.027 --    10 C    0.994
    12   1 H    1.018 --    10 C    0.993
    13   1 H    1.018 --    10 C    0.993
    14  16 S    2.018 --    15 C    0.978     2 Fe   0.764
    15   6 C    3.989 --    17 H    0.994    18 H    0.993    16 H    0.993
                            14 S    0.978
    16   1 H    1.018 --    15 C    0.993
    17   1 H    1.027 --    15 C    0.994
    18   1 H    1.018 --    15 C    0.993
    19  16 S    2.018 --    20 C    0.978     3 Fe   0.763
    20   6 C    3.989 --    22 H    0.994    23 H    0.993    21 H    0.993
                            19 S    0.978
    21   1 H    1.018 --    20 C    0.993
    22   1 H    1.027 --    20 C    0.994
    23   1 H    1.018 --    20 C    0.993
    24  16 S    2.018 --    25 C    0.978     4 Fe   0.763
    25   6 C    3.989 --    26 H    0.994    28 H    0.993    27 H    0.993
                            24 S    0.978
    26   1 H    1.027 --    25 C    0.994
    27   1 H    1.018 --    25 C    0.993
    28   1 H    1.018 --    25 C    0.993
 ---------------------------------------------------------------------------

Topologies differ in total number of bonds
Writing topology from bond orders to xtbtopo.mol

 dipole moment from electron density (au)
     X       Y       Z   
   0.0009  -0.0001  -0.0046  total (Debye):    0.012

           -------------------------------------------------
          |                Geometry Summary                 |
           -------------------------------------------------

      molecular mass/u    :      540.0371096
   center of mass at/Å    :        0.0000182       0.0000365       0.0010034
  moments of inertia/u·Å² :        0.2647656E+04   0.3064525E+04   0.3065896E+04
rotational constants/cm⁻¹ :        0.6367004E-02   0.5500895E-02   0.5498435E-02

 * 30 selected distances

     #   Z          #   Z                                           value/Å
     1  26 Fe       2  26 Fe                                      2.5262999 (max)
     3  26 Fe       4  26 Fe                                      2.5230751
     1  26 Fe       5  16 S                                       2.1652861
     3  26 Fe       5  16 S                                       2.1452048
     4  26 Fe       5  16 S                                       2.1451359
     1  26 Fe       6  16 S                                       2.1451357
     2  26 Fe       6  16 S                                       2.1453211
     4  26 Fe       6  16 S                                       2.1652942
     1  26 Fe       7  16 S                                       2.1454012
     2  26 Fe       7  16 S                                       2.1454486
     3  26 Fe       7  16 S                                       2.1650153
     2  26 Fe       8  16 S                                       2.1650635
     3  26 Fe       8  16 S                                       2.1454360
     4  26 Fe       8  16 S                                       2.1452761
     1  26 Fe       9  16 S                                       2.2377251
    10   6 C       11   1 H                                       1.0923529 (min)
    10   6 C       12   1 H                                       1.0936897
Note: The following floating-point exceptions are signalling: IEEE_UNDERFLOW_FLAG IEEE_DENORMAL
normal termination of xtb
    10   6 C       13   1 H                                       1.0937185
     2  26 Fe      14  16 S                                       2.2377739
    15   6 C       16   1 H                                       1.0937105
    15   6 C       17   1 H                                       1.0923816
    15   6 C       18   1 H                                       1.0937412
     3  26 Fe      19  16 S                                       2.2381097
    20   6 C       21   1 H                                       1.0937144
    20   6 C       22   1 H                                       1.0924353
    20   6 C       23   1 H                                       1.0937492
     4  26 Fe      24  16 S                                       2.2380418
    25   6 C       26   1 H                                       1.0924074
    25   6 C       27   1 H                                       1.0936937
    25   6 C       28   1 H                                       1.0937118

 * 3 distinct bonds (by element types)

   Z      Z             #   av. dist./Å        max./Å        min./Å
   1 H    6 C          12     1.0932755     1.0937492     1.0923529
  16 S   26 Fe         16     2.1734168     2.2381097     2.1451357
  26 Fe  26 Fe          2     2.5246875     2.5262999     2.5230751


optimized geometry written to: xtbopt.xyz


           -------------------------------------------------
          | TOTAL ENERGY              -57.362491343584 Eh   |
          | GRADIENT NORM               0.002945559031 Eh/α |
          | HOMO-LUMO GAP               0.508922832082 eV   |
           -------------------------------------------------

------------------------------------------------------------------------
 * finished run on 2026/09/11 at 20:08:29.765     
------------------------------------------------------------------------
 total:
 * wall-time:     0 d,  0 h,  0 min,  3.391 sec
 *  cpu-time:     0 d,  0 h,  0 min,  8.567 sec
 * ratio c/w:     2.527 speedup
 SCF:
 * wall-time:     0 d,  0 h,  0 min,  0.953 sec
 *  cpu-time:     0 d,  0 h,  0 min,  1.380 sec
 * ratio c/w:     1.449 speedup
 ANC optimizer:
 * wall-time:     0 d,  0 h,  0 min,  2.390 sec
 *  cpu-time:     0 d,  0 h,  0 min,  6.845 sec
 * ratio c/w:     2.864 speedup

