68
B proton approach; O-H=1.60 A
C      54.63828292     14.88323360     52.17620422
C      54.19942299     15.83756281     51.07000166
S      53.76646172     15.02194403     49.49742514
H      54.84735123     15.42390417     53.10637312
H      53.85236975     14.14501407     52.36993939
H      55.54450279     14.34588404     51.87912602
H      53.32595662     16.40791799     51.42130251
H      55.00182987     16.56531412     50.88318990
C      47.43083328      9.63453124     49.21237278
C      48.74550430     10.03845040     49.87624697
S      49.73645878     10.95187124     48.64798614
H      46.78497121      9.07293992     49.89460824
H      46.89583741     10.52718964     48.88071284
H      47.63380025      9.01719540     48.33362660
H      48.52303808     10.66193013     50.75396037
H      49.25829064      9.13420023     50.23128956
C      57.37977620      8.43686672     47.78686423
C      56.26633631      7.91381688     46.88231416
S      55.08233352      9.20214726     46.36879655
H      58.05497242      7.62987364     48.09124723
H      57.96526598      9.19657328     47.26178873
H      56.95260974      8.89353313     48.68616859
H      56.71608546      7.50427702     45.96702154
H      55.75308629      7.08226592     47.38700698
C      57.49260235     10.18072689     51.97661747
C      56.49186265      9.08584705     52.34808747
S      54.82284769      9.73757116     52.68192224
H      57.51904911     10.93971292     52.76362355
H      58.50258951      9.77344422     51.85174804
H      57.19251646     10.66961803     51.03942652
H      56.48712625      8.31560108     51.56163317
H      56.83489312      8.59825339     53.27222097
C      57.74505413     15.90271350     47.81848933
C      56.44691519     15.45782826     47.14642686
S      56.67521326     13.78447711     46.44714451
H      57.99385515     15.23141114     48.64435584
H      58.56731696     15.86613918     47.09928800
H      57.67206708     16.92456492     48.20755036
H      55.62216410     15.52919853     47.87784719
H      56.22469910     16.15561230     46.32436677
C      49.99386978     17.20519460     52.05073795
C      49.35389775     17.37665786     50.66761287
C      49.59839420     16.19214942     49.79031674
N      48.74411949     15.11231977     49.76718386
C      49.25517528     14.20593363     48.88814442
N      50.37404706     14.64692550     48.37886762
C      50.61119353     15.87126755     48.92983774
H      49.60034129     16.31457265     52.54317356
H      51.07844793     17.10888245     51.96271287
H      49.77072623     18.07212617     52.67196348
H      48.27736745     17.52735272     50.79094736
H      49.76207069     18.27446261     50.19244609
H      47.87326760     15.05750717     50.25660024
H      48.81965753     13.22764632     48.70289149
H      51.50836345     16.42868107     48.70025745
Fe     51.94722422     10.88981093     49.22523574
Fe     53.73121567     12.79398135     49.61792597
Fe     54.14882005     10.11101565     48.18751048
Fe     53.91251912     10.46754802     50.68360153
S      55.48235843     11.42957721     49.45520335
S      52.90945427      8.95919356     49.49255857
S      52.40203218     11.98343659     51.08829407
S      52.99493157     11.93211368     47.45171228
Ni     55.20806632     12.42816016     47.46498216
C      52.11955606     12.14772994     45.83131945
O      52.13593988     13.30594445     45.38778646
O      51.59484655     11.12911446     45.35899165
H      52.15707445     14.80000149     44.81564410
