      -----------------------------------------------------------      
     |                   =====================                   |     
     |                           x T B                           |     
     |                   =====================                   |     
     |                         S. Grimme                         |     
     |          Mulliken Center for Theoretical Chemistry        |     
     |                    University of Bonn                     |     
      -----------------------------------------------------------      

   * xtb version 6.6.1 (unknown) compiled by 'builduser@buildhost' on 2023-08-07

   xtb is free software: you can redistribute it and/or modify it under
   the terms of the GNU Lesser General Public License as published by
   the Free Software Foundation, either version 3 of the License, or
   (at your option) any later version.
   
   xtb is distributed in the hope that it will be useful,
   but WITHOUT ANY WARRANTY; without even the implied warranty of
   MERCHANTABILITY or FITNESS FOR A PARTICULAR PURPOSE.  See the
   GNU Lesser General Public License for more details.
   
   Cite this work as:
   * C. Bannwarth, E. Caldeweyher, S. Ehlert, A. Hansen, P. Pracht,
     J. Seibert, S. Spicher, S. Grimme, WIREs Comput. Mol. Sci., 2020, 11,
     e01493. DOI: 10.1002/wcms.1493
   
   for GFN2-xTB:
   * C. Bannwarth, S. Ehlert and S. Grimme., J. Chem. Theory Comput., 2019,
     15, 1652-1671. DOI: 10.1021/acs.jctc.8b01176
   for GFN1-xTB:
   * S. Grimme, C. Bannwarth, P. Shushkov, J. Chem. Theory Comput., 2017,
     13, 1989-2009. DOI: 10.1021/acs.jctc.7b00118
   for GFN0-xTB:
   * P. Pracht, E. Caldeweyher, S. Ehlert, S. Grimme, ChemRxiv, 2019, preprint.
     DOI: 10.26434/chemrxiv.8326202.v1
   for GFN-FF:
   * S. Spicher and S. Grimme, Angew. Chem. Int. Ed., 2020, 59, 15665-15673.
     DOI: 10.1002/anie.202004239
   
   for ALPB and GBSA implicit solvation:
   * S. Ehlert, M. Stahn, S. Spicher, S. Grimme, J. Chem. Theory Comput.,
     2021, 17, 4250-4261. DOI: 10.1021/acs.jctc.1c00471
   
   for DFT-D4:
   * E. Caldeweyher, C. Bannwarth and S. Grimme, J. Chem. Phys., 2017,
     147, 034112. DOI: 10.1063/1.4993215
   * E. Caldeweyher, S. Ehlert, A. Hansen, H. Neugebauer, S. Spicher,
     C. Bannwarth and S. Grimme, J. Chem. Phys., 2019, 150, 154122.
     DOI: 10.1063/1.5090222
   * E. Caldeweyher, J.-M. Mewes, S. Ehlert and S. Grimme, Phys. Chem. Chem. Phys.
     2020, 22, 8499-8512. DOI: 10.1039/D0CP00502A
   
   for sTDA-xTB:
   * S. Grimme and C. Bannwarth, J. Chem. Phys., 2016, 145, 054103.
     DOI: 10.1063/1.4959605
   
   in the mass-spec context:
   * V. Asgeirsson, C. Bauer and S. Grimme, Chem. Sci., 2017, 8, 4879.
     DOI: 10.1039/c7sc00601b
   * J. Koopman and S. Grimme, ACS Omega 2019, 4, 12, 15120-15133.
     DOI: 10.1021/acsomega.9b02011
   
   for metadynamics refer to:
   * S. Grimme, J. Chem. Theory Comput., 2019, 155, 2847-2862
     DOI: 10.1021/acs.jctc.9b00143
   
   for SPH calculations refer to:
   * S. Spicher and S. Grimme, J. Chem. Theory Comput., 2021, 17, 1701-1714
     DOI: 10.1021/acs.jctc.0c01306
   
   with help from (in alphabetical order)
   P. Atkinson, C. Bannwarth, F. Bohle, G. Brandenburg, E. Caldeweyher
   M. Checinski, S. Dohm, S. Ehlert, S. Ehrlich, I. Gerasimov, C. Hölzer
   A. Katbashev, J. Koopman, C. Lavigne, S. Lehtola, F. März, M. Müller,
   F. Musil, H. Neugebauer, J. Pisarek, C. Plett, P. Pracht, F. Pultar,
   J. Seibert, P. Shushkov, S. Spicher, M. Stahn, M. Steiner, T. Strunk,
   J. Stückrath, T. Rose, and J. Unsleber
   
 * started run on 2026/09/12 at 19:53:29.814     

           -------------------------------------------------
          |                Calculation Setup                |
           -------------------------------------------------

          program call               : xtb start.xyz --gfn 1 --chrg -2 --uhf 0 --alpb water --opt loose --input constrain.inp
          coordinate file            : start.xyz
          omp threads                :                     8

   ID    Z sym.   atoms
    1   26 Fe     1-4
    2   16 S      5-9, 14, 19, 24
    3    6 C      10, 15, 20, 25, 29
    4    1 H      11-13, 16-18, 21-23, 26-28
    5    8 O      30, 31
constraining bond 4 29 to    2.2000000 Å, actual value:    2.2000002 Å

molecular fragmentation (1/2 indicates fragments):
1111111122222222222222211111111
# atoms in fragment 1/2:    16    15
 fragment masses (1/2) :      442.75      141.30
CMA distance (Bohr)    :   4.090
constraining FC (au)   :  0.1000

           -------------------------------------------------
          |                 G F N 1 - x T B                 |
           -------------------------------------------------

        Reference                      10.1021/acs.jctc.7b00118
      * Hamiltonian:
        H0-scaling (s, p, d)           1.850000    2.250000    2.000000
        zeta-weighting                 0.000000
      * Dispersion:
        s8                             2.400000
        a1                             0.630000
        a2                             5.000000
        s9                             0.000000
      * Repulsion:
        kExp                           1.500000
        rExp                           1.000000
      * Coulomb:
        alpha                          2.000000
        third order                    atomic
        anisotropic                    false
      * Halogen bond correction:
        rad-scale                      1.300000
        damping                        0.440000

      * Solvation model:               ALPB
        Solvent                        water
        Parameter file                 internal GFN1-xTB/ALPB
        Dielectric constant                8.0200E+01
        Reference state                gsolv [1 M gas/solution]
        Free energy shift                  4.2456E-03 Eh       2.6642E+00 kcal/mol
        Temperature                        2.9815E+02 K
        Density                            1.0000E+00 kg/L
        Solvent mass                       1.8000E+01 g/mol
        Interaction kernel             P16
        Born radius scaling (c1)           1.9452E+00
        Born radii integrator          GBOBC
        Born offset                        0.0000E+00 a0       0.0000E+00 AA
        H-bond correction              true
        Ion screening                  false
        Surface tension                    1.0000E-05 Eh       1.5569E+01 dyn/cm
        Grid points                               230 per atom

          ...................................................
          :                      SETUP                      :
          :.................................................:
          :  # basis functions                 172          :
          :  # atomic orbitals                 160          :
          :  # shells                           74          :
          :  # electrons                       126          :
          :  # halogen bonds                     0          :
          :  max. iterations                   250          :
          :  Hamiltonian                  GFN1-xTB          :
          :  restarted?                      false          :
          :  GBSA solvation                   true          :
          :  PC potential                    false          :
          :  electronic temp.          300.0000000     K    :
          :  accuracy                    1.0000000          :
          :  -> integral cutoff          0.2500000E+02      :
          :  -> integral neglect         0.1000000E-07      :
          :  -> SCF convergence          0.1000000E-05 Eh   :
          :  -> wf. convergence          0.2000000E-04 e    :
          :  Broyden damping             0.4000000          :
          ...................................................

 iter      E             dE          RMSdq      gap      omega  full diag
   1    -42.2415867 -0.422416E+02  0.189E+01    0.37       0.0  T
   2    119.8393378  0.162081E+03  0.339E+01    0.01       1.0  T
   3    -54.6695702 -0.174509E+03  0.122E+01    0.10       1.0  T
   4     16.7477797  0.714173E+02  0.221E+01    0.39       1.0  T
   5    -60.0196598 -0.767674E+02  0.103E+01    0.12       1.0  T
   6    -28.6040436  0.314156E+02  0.156E+01    0.24       1.0  T
   7    -30.3305061 -0.172646E+01  0.160E+01    0.25       1.0  T
   8    -54.7624099 -0.244319E+02  0.964E+00    0.41       1.0  T
   9    -60.6558663 -0.589346E+01  0.757E+00    0.19       1.0  T
  10    -67.0227775 -0.636691E+01  0.350E+00    0.13       1.0  T
  11    -63.7653751  0.325740E+01  0.611E+00    0.16       1.0  T
  12    -56.7035679  0.706181E+01  0.921E+00    0.22       1.0  T
  13    -62.9222571 -0.621869E+01  0.647E+00    0.03       1.0  T
  14    -65.6171006 -0.269484E+01  0.461E+00    0.06       1.0  T
  15    -65.3322721  0.284829E+00  0.490E+00    0.07       1.0  T
  16    -66.7941734 -0.146190E+01  0.357E+00    0.18       1.0  T
  17    -67.2351718 -0.440998E+00  0.304E+00    0.19       1.0  T
  18    -67.7047030 -0.469531E+00  0.243E+00    0.13       1.0  T
  19    -67.6578299  0.468731E-01  0.259E+00    0.06       1.0  T
  20    -68.1969538 -0.539124E+00  0.115E+00    0.16       1.0  T
  21    -68.2323607 -0.354069E-01  0.967E-01    0.17       1.0  T
  22    -68.3080426 -0.756819E-01  0.554E-01    0.18       1.0  T
  23    -68.2965506  0.114921E-01  0.631E-01    0.14       1.0  T
  24    -68.3343558 -0.378053E-01  0.291E-01    0.14       1.0  T
  25    -68.3389431 -0.458723E-02  0.197E-01    0.15       1.0  T
  26    -68.3368318  0.211129E-02  0.240E-01    0.15       1.0  T
  27    -68.3417543 -0.492254E-02  0.129E-01    0.16       1.0  T
  28    -68.3426334 -0.879111E-03  0.953E-02    0.16       1.0  T
  29    -68.3435500 -0.916544E-03  0.364E-02    0.16       1.0  T
  30    -68.3436969 -0.146925E-03  0.927E-03    0.16       1.9  T
  31    -68.3437065 -0.957501E-05  0.191E-03    0.16       9.4  T
  32    -68.3437063  0.200991E-06  0.234E-03    0.16       7.7  T
  33    -68.3437069 -0.625567E-06  0.407E-04    0.16      44.1  T
  34    -68.3437069 -0.152820E-07  0.167E-04    0.16     107.7  T
  35    -68.3437069 -0.313558E-08  0.447E-05    0.16     402.0  T

   *** convergence criteria satisfied after 35 iterations ***

         #    Occupation            Energy/Eh            Energy/eV
      -------------------------------------------------------------
         1        2.0000           -1.1211064             -30.5069
       ...           ...                  ...                  ...
        57        2.0000           -0.2441615              -6.6440
        58        2.0000           -0.2439963              -6.6395
        59        2.0000           -0.2381092              -6.4793
        60        2.0000           -0.2358309              -6.4173
        61        2.0000           -0.2337230              -6.3599
        62        2.0000           -0.2291834              -6.2364
        63        1.8748           -0.2159618              -5.8766 (HOMO)
        64        0.0690           -0.2102249              -5.7205 (LUMO)
        65        0.0363           -0.2095993              -5.7035
        66        0.0199           -0.2090214              -5.6878
        67        0.0000           -0.2002732              -5.4497
        68                         -0.1965496              -5.3484
       ...                                ...                  ...
       160                         71.7666681            1952.8704
      -------------------------------------------------------------
                  HL-Gap            0.0057369 Eh            0.1561 eV
             Fermi-level           -0.2133906 Eh           -5.8067 eV

 SCC (total)                   0 d,  0 h,  0 min,  1.011 sec
 SCC setup                      ...        0 min,  0.004 sec (  0.442%)
 Dispersion                     ...        0 min,  0.001 sec (  0.070%)
 classical contributions        ...        0 min,  0.000 sec (  0.032%)
 integral evaluation            ...        0 min,  0.029 sec (  2.871%)
 iterations                     ...        0 min,  0.935 sec ( 92.439%)
 molecular gradient             ...        0 min,  0.030 sec (  3.012%)
 printout                       ...        0 min,  0.011 sec (  1.128%)

         :::::::::::::::::::::::::::::::::::::::::::::::::::::
         ::                     SUMMARY                     ::
         :::::::::::::::::::::::::::::::::::::::::::::::::::::
         :: total energy              -3.604222080041 Eh    ::
         :: total w/o Gsasa/hb        -3.601384172011 Eh    ::
         :: gradient norm            282.172104048533 Eh/a0 ::
         :: HOMO-LUMO gap              0.156107813350 eV    ::
         ::.................................................::
         :: SCC energy               -68.343706934487 Eh    ::
         :: -> electrostatic           0.414850940645 Eh    ::
         :: -> Gsolv                  -0.166939096310 Eh    ::
         ::    -> Gelec               -0.164101188280 Eh    ::
         ::    -> Gsasa               -0.006196859510 Eh    ::
         ::    -> Ghb                 -0.000886655191 Eh    ::
         ::    -> Gshift               0.004245606671 Eh    ::
         :: repulsion energy          64.769871867405 Eh    ::
         :: dispersion energy         -0.030387012959 Eh    ::
         :: halogen bond corr.         0.000000000000 Eh    ::
         :: add. restraining           0.000000000000 Eh    ::
         :: total charge              -2.000000000000 e     ::
         :::::::::::::::::::::::::::::::::::::::::::::::::::::

      ----------------------------------------------------------- 
     |                   =====================                   |
     |                        A N C O P T                        |
     |                   =====================                   |
     |               Approximate Normal Coordinate               |
     |                Rational Function Optimizer                |
      ----------------------------------------------------------- 

          ...................................................
          :                      SETUP                      :
          :.................................................:
          :   optimization level             loose          :
          :   max. optcycles                   200          :
          :   ANC micro-cycles                  20          :
          :   degrees of freedom                87          :
          :.................................................:
          :   RF solver                   davidson          :
          :   write xtbopt.log                true          :
          :   linear?                        false          :
          :   energy convergence         0.5000000E-04 Eh   :
          :   grad. convergence          0.4000000E-02 Eh/α :
          :   maxmium RF displ.          1.0000000          :
          :   Hlow (freq-cutoff)         0.1000000E-01      :
          :   Hmax (freq-cutoff)         5.0000000          :
          :   S6 in model hess.         20.0000000          :
          ...................................................

generating ANC from model Hessian ...
Using Lindh-Hessian (1995)
 Shifting diagonal of input Hessian by    9.9737158693837119E-003
 Lowest  eigenvalues of input Hessian
    0.000000    0.000000    0.000000    0.000000    0.000000    0.000000
    0.010000    0.010017    0.010041    0.010143    0.010384    0.011014
    0.011160    0.011224    0.011293    0.011326    0.011845    0.012070
 Highest eigenvalues
    5.528441    7.183549   13.534383   29.211745   47.507235  319.530860


........................................................................
.............................. CYCLE    1 ..............................
........................................................................

 iter      E             dE          RMSdq      gap      omega  full diag
   1    -68.3437069 -0.683437E+02  0.132E-05    0.16       0.0  T
   2    -68.3437069  0.184508E-07  0.374E-04    0.16      48.1  T
   3    -68.3437069 -0.183843E-07  0.263E-05    0.16     682.1  T
   4    -68.3437069  0.191420E-10  0.285E-05    0.16     630.9  T
     SCC iter.                  ...        0 min,  0.107 sec
     gradient                   ...        0 min,  0.024 sec
 * total energy  :    -3.6042221 Eh     change       -0.1248708E-09 Eh
   gradient norm :   282.1721042 Eh/α   predicted     0.0000000E+00 (-100.00%)
   displ. norm   :     0.9911821 α      lambda       -0.2796839E+03
   maximum displ.:     0.9450718 α      in ANC's #86, #85, #81, ...

........................................................................
.............................. CYCLE    2 ..............................
........................................................................

 iter      E             dE          RMSdq      gap      omega  full diag
   1    -68.4164487 -0.684164E+02  0.338E+00    0.34       0.0  T
   2    -52.0490380  0.163674E+02  0.110E+01    0.42       1.0  T
   3    -60.5127054 -0.846367E+01  0.787E+00    0.16       1.0  T
   4    -34.1017750  0.264109E+02  0.147E+01    0.19       1.0  T
   5    -65.5637966 -0.314620E+02  0.459E+00    0.24       1.0  T
   6    -62.1198119  0.344398E+01  0.729E+00    0.18       1.0  T
   7    -56.6943822  0.542543E+01  0.931E+00    0.34       1.0  T
   8    -65.4577682 -0.876339E+01  0.498E+00    0.09       1.0  T
   9    -66.4733267 -0.101556E+01  0.432E+00    0.14       1.0  T
  10    -66.2699698  0.203357E+00  0.439E+00    0.10       1.0  T
  11    -67.3051335 -0.103516E+01  0.326E+00    0.13       1.0  T
  12    -68.2690970 -0.963963E+00  0.172E+00    0.20       1.0  T
  13    -68.2484700  0.206269E-01  0.173E+00    0.19       1.0  T
  14    -68.4878472 -0.239377E+00  0.109E+00    0.19       1.0  T
  15    -68.5769978 -0.891506E-01  0.696E-01    0.17       1.0  T
  16    -68.6138585 -0.368607E-01  0.427E-01    0.18       1.0  T
  17    -68.6290182 -0.151598E-01  0.234E-01    0.19       1.0  T
  18    -68.6285841  0.434170E-03  0.232E-01    0.19       1.0  T
  19    -68.6314872 -0.290313E-02  0.170E-01    0.19       1.0  T
  20    -68.6344233 -0.293611E-02  0.728E-02    0.19       1.0  T
  21    -68.6348997 -0.476452E-03  0.379E-02    0.19       1.0  T
  22    -68.6350699 -0.170153E-03  0.548E-03    0.19       3.3  T
  23    -68.6350721 -0.222396E-05  0.340E-03    0.19       5.3  T
  24    -68.6350733 -0.116668E-05  0.143E-03    0.19      12.6  T
  25    -68.6350735 -0.162790E-06  0.834E-04    0.19      21.5  T
  26    -68.6350735 -0.636584E-07  0.392E-04    0.19      45.8  T
  27    -68.6350735 -0.158575E-07  0.138E-04    0.19     129.9  T
  28    -68.6350735 -0.217605E-08  0.308E-05    0.19     582.5  T
     SCC iter.                  ...        0 min,  0.738 sec
     gradient                   ...        0 min,  0.028 sec
 * total energy  :   -67.0913415 Eh     change       -0.6348712E+02 Eh
   gradient norm :     5.2325029 Eh/α   predicted    -0.2772286E+03 ( 336.67%)
   displ. norm   :     0.3573062 α      lambda       -0.3729913E+00
   maximum displ.:     0.2166630 α      in ANC's #81, #79, #48, ...

........................................................................
.............................. CYCLE    3 ..............................
........................................................................

 iter      E             dE          RMSdq      gap      omega  full diag
   1    -68.5819809 -0.685820E+02  0.963E-01    0.19       0.0  T
   2    -36.6737461  0.319082E+02  0.141E+01    0.48       1.0  T
   3    -65.7787614 -0.291050E+02  0.490E+00    0.30       1.0  T
   4    -65.0034108  0.775351E+00  0.526E+00    0.15       1.0  T
   5    -68.6402356 -0.363682E+01  0.854E-01    0.11       1.0  T
   6    -68.7000537 -0.598180E-01  0.638E-01    0.14       1.0  T
   7    -68.5835123  0.116541E+00  0.111E+00    0.14       1.0  T
   8    -68.6128561 -0.293438E-01  0.101E+00    0.14       1.0  T
   9    -68.7434304 -0.130574E+00  0.157E-01    0.14       1.0  T
  10    -68.7440705 -0.640107E-03  0.111E-01    0.14       1.0  T
  11    -68.7397482  0.432233E-02  0.207E-01    0.14       1.0  T
  12    -68.7443238 -0.457567E-02  0.884E-02    0.14       1.0  T
  13    -68.7445318 -0.207949E-03  0.785E-02    0.14       1.0  T
  14    -68.7447076 -0.175786E-03  0.694E-02    0.14       1.0  T
  15    -68.7447565 -0.489067E-04  0.661E-02    0.14       1.0  T
  16    -68.7450923 -0.335883E-03  0.394E-02    0.14       1.0  T
  17    -68.7452656 -0.173216E-03  0.101E-02    0.14       1.8  T
  18    -68.7452740 -0.840344E-05  0.558E-03    0.14       3.2  T
  19    -68.7452768 -0.281754E-05  0.246E-03    0.14       7.3  T
  20    -68.7452770 -0.227663E-06  0.199E-03    0.14       9.0  T
  21    -68.7452774 -0.360602E-06  0.671E-04    0.14      26.8  T
  22    -68.7452774 -0.462362E-07  0.270E-04    0.14      66.4  T
  23    -68.7452774 -0.711614E-08  0.270E-05    0.14     665.0  T
  24    -68.7452774  0.420783E-10  0.311E-05    0.14     576.6  T
     SCC iter.                  ...        0 min,  0.598 sec
     gradient                   ...        0 min,  0.028 sec
 * total energy  :   -67.3947645 Eh     change       -0.3034230E+00 Eh
   gradient norm :     4.6972121 Eh/α   predicted    -0.2103116E+00 ( -30.69%)
   displ. norm   :     0.4393152 α      lambda       -0.4677317E+00
   maximum displ.:     0.3757781 α      in ANC's #81, #79, #48, ...

........................................................................
.............................. CYCLE    4 ..............................
........................................................................

 iter      E             dE          RMSdq      gap      omega  full diag
   1    -68.4004791 -0.684005E+02  0.181E+00    0.22       0.0  T
   2    -50.3789160  0.180216E+02  0.112E+01    0.14       1.0  T
   3    -65.0684292 -0.146895E+02  0.546E+00    0.22       1.0  T
   4    -58.2014316  0.686700E+01  0.882E+00    0.00       1.0  T
   5    -62.0630584 -0.386163E+01  0.701E+00    0.20       1.0  T
   6    -68.3268489 -0.626379E+01  0.209E+00    0.34       1.0  T
   7    -68.6059631 -0.279114E+00  0.141E+00    0.19       1.0  T
   8    -66.6671529  0.193881E+01  0.405E+00    0.10       1.0  T
   9    -68.5687002 -0.190155E+01  0.165E+00    0.09       1.0  T
  10    -68.6395761 -0.708759E-01  0.142E+00    0.14       1.0  T
  11    -68.6246166  0.149595E-01  0.140E+00    0.16       1.0  T
  12    -68.8606478 -0.236031E+00  0.420E-01    0.12       1.0  T
  13    -68.8736020 -0.129541E-01  0.309E-01    0.14       1.0  T
  14    -68.8657389  0.786301E-02  0.387E-01    0.14       1.0  T
  15    -68.8824701 -0.167312E-01  0.505E-02    0.14       1.0  T
  16    -68.8827984 -0.328290E-03  0.158E-02    0.14       1.1  T
  17    -68.8827063  0.921557E-04  0.302E-02    0.14       1.0  T
  18    -68.8827131 -0.685753E-05  0.298E-02    0.14       1.0  T
  19    -68.8828121 -0.989924E-04  0.105E-02    0.14       1.7  T
  20    -68.8828231 -0.109321E-04  0.318E-03    0.14       5.6  T
  21    -68.8828237 -0.601371E-06  0.232E-03    0.14       7.7  T
  22    -68.8828239 -0.228898E-06  0.197E-03    0.14       9.1  T
  23    -68.8828242 -0.305739E-06  0.117E-03    0.14      15.4  T
  24    -68.8828244 -0.157788E-06  0.212E-04    0.14      84.9  T
  25    -68.8828244 -0.464175E-08  0.560E-05    0.14     320.5  T
  26    -68.8828244 -0.304382E-09  0.256E-05    0.14     700.5  T
     SCC iter.                  ...        0 min,  0.715 sec
     gradient                   ...        0 min,  0.027 sec
 * total energy  :   -67.7807426 Eh     change       -0.3859781E+00 Eh
   gradient norm :     3.6231581 Eh/α   predicted    -0.2790017E+00 ( -27.72%)
   displ. norm   :     0.5521163 α      lambda       -0.4697002E+00
   maximum displ.:     0.5136256 α      in ANC's #81, #79, #86, ...

........................................................................
.............................. CYCLE    5 ..............................
........................................................................

 iter      E             dE          RMSdq      gap      omega  full diag
   1    -68.7253936 -0.687254E+02  0.140E+00    0.27       0.0  T
   2    -33.6636037  0.350618E+02  0.148E+01    0.17       1.0  T
   3    -64.9868755 -0.313233E+02  0.588E+00    0.09       1.0  T
   4    -68.6700557 -0.368318E+01  0.170E+00    0.45       1.0  T
   5    -67.9277518  0.742304E+00  0.288E+00    0.34       1.0  T
   6    -68.5133195 -0.585568E+00  0.192E+00    0.44       1.0  T
   7    -68.8094179 -0.296098E+00  0.115E+00    0.36       1.0  T
   8    -68.9099911 -0.100573E+00  0.782E-01    0.28       1.0  T
   9    -68.9348482 -0.248571E-01  0.648E-01    0.29       1.0  T
  10    -68.9853686 -0.505204E-01  0.162E-01    0.35       1.0  T
  11    -68.9369475  0.484211E-01  0.634E-01    0.36       1.0  T
  12    -68.9844538 -0.475062E-01  0.140E-01    0.38       1.0  T
  13    -68.9674507  0.170031E-01  0.423E-01    0.39       1.0  T
  14    -68.9846580 -0.172073E-01  0.155E-01    0.37       1.0  T
  15    -68.9863208 -0.166279E-02  0.865E-02    0.37       1.0  T
  16    -68.9865166 -0.195805E-03  0.714E-02    0.37       1.0  T
  17    -68.9870300 -0.513404E-03  0.167E-02    0.37       1.1  T
  18    -68.9870532 -0.231884E-04  0.627E-03    0.37       2.9  T
  19    -68.9870567 -0.356440E-05  0.289E-03    0.37       6.2  T
  20    -68.9870571 -0.420936E-06  0.220E-03    0.37       8.2  T
  21    -68.9870576 -0.421147E-06  0.119E-03    0.37      15.1  T
  22    -68.9870577 -0.167955E-06  0.255E-04    0.37      70.4  T
  23    -68.9870577 -0.614149E-08  0.124E-04    0.37     144.4  T
  24    -68.9870577 -0.187596E-08  0.185E-05    0.37     970.5  T
     SCC iter.                  ...        0 min,  0.629 sec
     gradient                   ...        0 min,  0.039 sec
 * total energy  :   -68.1305451 Eh     change       -0.3498025E+00 Eh
   gradient norm :     2.5058678 Eh/α   predicted    -0.3064404E+00 ( -12.40%)
   displ. norm   :     0.4419534 α      lambda       -0.2319920E+00
   maximum displ.:     0.4052014 α      in ANC's #81, #48, #63, ...

........................................................................
.............................. CYCLE    6 ..............................
........................................................................

 iter      E             dE          RMSdq      gap      omega  full diag
   1    -68.8768528 -0.688769E+02  0.958E-01    0.34       0.0  T
   2    -33.0273685  0.358495E+02  0.147E+01    0.16       1.0  T
   3    -68.8088427 -0.357815E+02  0.134E+00    0.48       1.0  T
   4    -68.2500169  0.558826E+00  0.241E+00    0.32       1.0  T
   5    -68.3014643 -0.514474E-01  0.232E+00    0.41       1.0  T
   6    -68.9733085 -0.671844E+00  0.533E-01    0.44       1.0  T
   7    -68.7623987  0.210910E+00  0.135E+00    0.44       1.0  T
   8    -68.8131774 -0.507787E-01  0.119E+00    0.44       1.0  T
   9    -68.9655220 -0.152345E+00  0.517E-01    0.40       1.0  T
  10    -68.9989528 -0.334308E-01  0.183E-01    0.43       1.0  T
  11    -68.9889820  0.997086E-02  0.341E-01    0.40       1.0  T
  12    -68.9900065 -0.102451E-02  0.315E-01    0.41       1.0  T
  13    -69.0012820 -0.112755E-01  0.928E-02    0.42       1.0  T
  14    -69.0022692 -0.987173E-03  0.441E-02    0.42       1.0  T
  15    -69.0023536 -0.844001E-04  0.336E-02    0.42       1.0  T
  16    -69.0024353 -0.817222E-04  0.214E-02    0.42       1.0  T
  17    -69.0024756 -0.402761E-04  0.116E-02    0.42       1.5  T
  18    -69.0024855 -0.994147E-05  0.772E-03    0.42       2.3  T
  19    -69.0024916 -0.610795E-05  0.205E-03    0.42       8.8  T
  20    -69.0024919 -0.244597E-06  0.941E-04    0.42      19.1  T
  21    -69.0024919 -0.504968E-07  0.690E-04    0.42      26.0  T
  22    -69.0024920 -0.460065E-07  0.286E-04    0.42      62.8  T
  23    -69.0024920 -0.976046E-08  0.699E-05    0.42     256.9  T
  24    -69.0024920 -0.422276E-09  0.408E-05    0.42     440.3  T
     SCC iter.                  ...        0 min,  0.739 sec
     gradient                   ...        0 min,  0.048 sec
 * total energy  :   -68.3060063 Eh     change       -0.1754612E+00 Eh
   gradient norm :     1.7731175 Eh/α   predicted    -0.1386527E+00 ( -20.98%)
   displ. norm   :     0.4069100 α      lambda       -0.1432765E+00
   maximum displ.:     0.3630381 α      in ANC's #81, #48, #86, ...

........................................................................
.............................. CYCLE    7 ..............................
........................................................................

 iter      E             dE          RMSdq      gap      omega  full diag
   1    -68.9021452 -0.689021E+02  0.809E-01    0.34       0.0  T
   2    -37.9411079  0.309610E+02  0.138E+01    0.12       1.0  T
   3    -68.7630308 -0.308219E+02  0.137E+00    0.48       1.0  T
   4    -68.5728258  0.190205E+00  0.183E+00    0.37       1.0  T
   5    -66.6945426  0.187828E+01  0.409E+00    0.32       1.0  T
   6    -68.9566249 -0.226208E+01  0.527E-01    0.43       1.0  T
   7    -68.6356099  0.321015E+00  0.164E+00    0.41       1.0  T
   8    -68.9635939 -0.327984E+00  0.437E-01    0.43       1.0  T
   9    -68.9868229 -0.232289E-01  0.110E-01    0.41       1.0  T
  10    -68.9852003  0.162263E-02  0.154E-01    0.41       1.0  T
  11    -68.9810501  0.415016E-02  0.231E-01    0.40       1.0  T
  12    -68.9869050 -0.585490E-02  0.903E-02    0.41       1.0  T
  13    -68.9878902 -0.985236E-03  0.244E-02    0.41       1.0  T
  14    -68.9879506 -0.603536E-04  0.149E-02    0.41       1.2  T
  15    -68.9879584 -0.782578E-05  0.116E-02    0.41       1.5  T
  16    -68.9879715 -0.131038E-04  0.446E-03    0.41       4.0  T
  17    -68.9879731 -0.158032E-05  0.196E-03    0.41       9.2  T
  18    -68.9879732 -0.116033E-06  0.158E-03    0.41      11.3  T
  19    -68.9879735 -0.290058E-06  0.457E-04    0.41      39.3  T
  20    -68.9879735 -0.107020E-07  0.242E-04    0.41      74.3  T
  21    -68.9879735 -0.279638E-08  0.167E-04    0.41     107.3  T
  22    -68.9879735 -0.120660E-08  0.131E-04    0.41     136.8  T
     SCC iter.                  ...        0 min,  0.644 sec
     gradient                   ...        0 min,  0.031 sec
 * total energy  :   -68.4146078 Eh     change       -0.1086015E+00 Eh
   gradient norm :     1.1988188 Eh/α   predicted    -0.8350025E-01 ( -23.11%)
   displ. norm   :     0.3885321 α      lambda       -0.9513609E-01
   maximum displ.:     0.3286829 α      in ANC's #81, #48, #82, ...

........................................................................
.............................. CYCLE    8 ..............................
........................................................................

 iter      E             dE          RMSdq      gap      omega  full diag
   1    -68.9017568 -0.689018E+02  0.716E-01    0.32       0.0  T
   2    -40.6119257  0.282898E+02  0.133E+01    0.13       1.0  T
   3    -68.7617026 -0.281498E+02  0.132E+00    0.45       1.0  T
   4    -68.5407454  0.220957E+00  0.186E+00    0.36       1.0  T
   5    -66.4134370  0.212731E+01  0.432E+00    0.33       1.0  T
   6    -68.8619099 -0.244847E+01  0.909E-01    0.40       1.0  T
   7    -68.8749301 -0.130202E-01  0.844E-01    0.42       1.0  T
   8    -68.9511995 -0.762694E-01  0.344E-01    0.41       1.0  T
   9    -68.9629618 -0.117623E-01  0.160E-01    0.40       1.0  T
  10    -68.9650893 -0.212756E-02  0.735E-02    0.40       1.0  T
  11    -68.9647681  0.321205E-03  0.806E-02    0.39       1.0  T
  12    -68.9639408  0.827302E-03  0.111E-01    0.39       1.0  T
  13    -68.9651890 -0.124821E-02  0.490E-02    0.40       1.0  T
  14    -68.9653741 -0.185040E-03  0.315E-02    0.40       1.0  T
  15    -68.9654975 -0.123367E-03  0.963E-03    0.40       1.9  T
  16    -68.9655054 -0.797396E-05  0.447E-03    0.40       4.0  T
  17    -68.9655068 -0.139425E-05  0.214E-03    0.40       8.4  T
  18    -68.9655072 -0.407093E-06  0.963E-04    0.40      18.7  T
  19    -68.9655073 -0.659791E-07  0.620E-04    0.40      29.0  T
  20    -68.9655073 -0.376583E-07  0.269E-04    0.40      66.8  T
  21    -68.9655073 -0.671450E-08  0.128E-04    0.40     139.9  T
  22    -68.9655073 -0.170584E-08  0.466E-05    0.40     385.1  T
     SCC iter.                  ...        0 min,  0.583 sec
     gradient                   ...        0 min,  0.029 sec
 * total energy  :   -68.4864019 Eh     change       -0.7179407E-01 Eh
   gradient norm :     0.7509670 Eh/α   predicted    -0.5474920E-01 ( -23.74%)
   displ. norm   :     0.3700526 α      lambda       -0.6458426E-01
   maximum displ.:     0.2777246 α      in ANC's #81, #82, #48, ...

........................................................................
.............................. CYCLE    9 ..............................
........................................................................

 iter      E             dE          RMSdq      gap      omega  full diag
   1    -68.9013724 -0.689014E+02  0.635E-01    0.31       0.0  T
   2    -44.5616077  0.243398E+02  0.124E+01    0.14       1.0  T
   3    -68.7438888 -0.241823E+02  0.135E+00    0.40       1.0  T
   4    -68.3492908  0.394598E+00  0.218E+00    0.36       1.0  T
   5    -67.2761967  0.107309E+01  0.359E+00    0.38       1.0  T
   6    -68.9272274 -0.165103E+01  0.435E-01    0.39       1.0  T
   7    -68.9360557 -0.882822E-02  0.320E-01    0.39       1.0  T
   8    -68.8717453  0.643104E-01  0.760E-01    0.36       1.0  T
   9    -68.9363614 -0.646161E-01  0.300E-01    0.39       1.0  T
  10    -68.9452485 -0.888708E-02  0.135E-01    0.39       1.0  T
  11    -68.9469397 -0.169125E-02  0.620E-02    0.38       1.0  T
  12    -68.9471325 -0.192783E-03  0.453E-02    0.38       1.0  T
  13    -68.9471611 -0.286033E-04  0.419E-02    0.38       1.0  T
  14    -68.9472600 -0.988601E-04  0.291E-02    0.38       1.0  T
  15    -68.9473602 -0.100285E-03  0.660E-03    0.38       2.7  T
  16    -68.9473629 -0.269322E-05  0.454E-03    0.38       4.0  T
  17    -68.9473649 -0.193848E-05  0.221E-03    0.38       8.1  T
  18    -68.9473653 -0.380176E-06  0.124E-03    0.38      14.5  T
  19    -68.9473654 -0.139614E-06  0.630E-04    0.38      28.5  T
  20    -68.9473654 -0.353374E-07  0.326E-04    0.38      55.1  T
  21    -68.9473654 -0.129352E-07  0.624E-05    0.38     287.9  T
  22    -68.9473654 -0.251418E-09  0.315E-05    0.38     570.9  T
     SCC iter.                  ...        0 min,  0.616 sec
     gradient                   ...        0 min,  0.029 sec
 * total energy  :   -68.5340285 Eh     change       -0.4762659E-01 Eh
   gradient norm :     0.4296480 Eh/α   predicted    -0.3671423E-01 ( -22.91%)
   displ. norm   :     0.3371899 α      lambda       -0.4113874E-01
   maximum displ.:     0.1788826 α      in ANC's #81, #82, #18, ...

........................................................................
.............................. CYCLE   10 ..............................
........................................................................

 iter      E             dE          RMSdq      gap      omega  full diag
   1    -68.9211585 -0.689212E+02  0.457E-01    0.31       0.0  T
   2    -57.8522009  0.110690E+02  0.867E+00    0.23       1.0  T
   3    -68.7808757 -0.109287E+02  0.120E+00    0.36       1.0  T
   4    -68.0410798  0.739796E+00  0.265E+00    0.38       1.0  T
   5    -67.9750920  0.659877E-01  0.272E+00    0.34       1.0  T
   6    -68.9240061 -0.948914E+00  0.391E-01    0.38       1.0  T
   7    -68.9100581  0.139479E-01  0.495E-01    0.35       1.0  T
   8    -68.9176135 -0.755538E-02  0.430E-01    0.38       1.0  T
   9    -68.9369818 -0.193683E-01  0.187E-01    0.37       1.0  T
  10    -68.9389407 -0.195893E-02  0.134E-01    0.37       1.0  T
  11    -68.9403904 -0.144971E-02  0.766E-02    0.36       1.0  T
  12    -68.9409800 -0.589601E-03  0.332E-02    0.36       1.0  T
  13    -68.9410216 -0.415153E-04  0.276E-02    0.36       1.0  T
  14    -68.9410700 -0.483997E-04  0.181E-02    0.36       1.0  T
  15    -68.9411001 -0.301280E-04  0.795E-03    0.36       2.3  T
  16    -68.9411060 -0.595720E-05  0.245E-03    0.36       7.3  T
  17    -68.9411060  0.412768E-09  0.230E-03    0.36       7.8  T
  18    -68.9411065 -0.426365E-06  0.139E-03    0.36      12.9  T
  19    -68.9411066 -0.162560E-06  0.784E-04    0.36      22.9  T
  20    -68.9411067 -0.571047E-07  0.402E-04    0.36      44.6  T
  21    -68.9411067 -0.123279E-07  0.252E-04    0.36      71.3  T
  22    -68.9411067 -0.790558E-08  0.326E-05    0.36     550.3  T
  23    -68.9411067 -0.107718E-09  0.141E-05    0.36    1275.1  T
     SCC iter.                  ...        0 min,  0.620 sec
     gradient                   ...        0 min,  0.036 sec
 * total energy  :   -68.5644006 Eh     change       -0.3037207E-01 Eh
   gradient norm :     0.2575107 Eh/α   predicted    -0.2290811E-01 ( -24.58%)
   displ. norm   :     0.3434270 α      lambda       -0.3554862E-01
   maximum displ.:     0.1663481 α      in ANC's #82, #18, #17, ...

........................................................................
.............................. CYCLE   11 ..............................
........................................................................

 iter      E             dE          RMSdq      gap      omega  full diag
   1    -68.9458445 -0.689458E+02  0.273E-01    0.34       0.0  T
   2    -68.6119292  0.333915E+00  0.162E+00    0.34       1.0  T
   3    -68.3721472  0.239782E+00  0.211E+00    0.38       1.0  T
   4    -68.8435488 -0.471402E+00  0.972E-01    0.38       1.0  T
   5    -68.8142673  0.292815E-01  0.101E+00    0.30       1.0  T
   6    -68.9417990 -0.127532E+00  0.266E-01    0.37       1.0  T
   7    -68.9467532 -0.495418E-02  0.177E-01    0.36       1.0  T
   8    -68.9378840  0.886919E-02  0.309E-01    0.36       1.0  T
   9    -68.9484861 -0.106021E-01  0.128E-01    0.36       1.0  T
  10    -68.9498071 -0.132105E-02  0.765E-02    0.36       1.0  T
  11    -68.9504755 -0.668375E-03  0.241E-02    0.35       1.0  T
  12    -68.9505408 -0.653144E-04  0.685E-03    0.35       2.6  T
  13    -68.9505456 -0.480339E-05  0.306E-03    0.35       5.9  T
  14    -68.9505459 -0.284219E-06  0.243E-03    0.35       7.4  T
  15    -68.9505464 -0.497156E-06  0.122E-03    0.35      14.7  T
  16    -68.9505465 -0.137529E-06  0.388E-04    0.35      46.3  T
  17    -68.9505465 -0.741269E-08  0.299E-04    0.35      60.0  T
  18    -68.9505465 -0.903970E-08  0.117E-04    0.35     153.7  T
  19    -68.9505465 -0.129518E-08  0.565E-05    0.35     318.1  T
     SCC iter.                  ...        0 min,  0.600 sec
     gradient                   ...        0 min,  0.032 sec
 * total energy  :   -68.5939707 Eh     change       -0.2957011E-01 Eh
   gradient norm :     0.2135932 Eh/α   predicted    -0.1987083E-01 ( -32.80%)
   displ. norm   :     0.4835972 α      lambda       -0.7289471E-01
   maximum displ.:     0.3335964 α      in ANC's #82, #18, #81, ...

........................................................................
.............................. CYCLE   12 ..............................
........................................................................

 iter      E             dE          RMSdq      gap      omega  full diag
   1    -68.9792335 -0.689792E+02  0.380E-01    0.39       0.0  T
   2    -62.4649265  0.651431E+01  0.690E+00    0.06       1.0  T
   3    -67.5657885 -0.510086E+01  0.327E+00    0.36       1.0  T
   4    -68.9650839 -0.139930E+01  0.538E-01    0.33       1.0  T
   5    -68.8569789  0.108105E+00  0.104E+00    0.38       1.0  T
   6    -68.9862640 -0.129285E+00  0.317E-01    0.35       1.0  T
   7    -68.9724284  0.138356E-01  0.466E-01    0.34       1.0  T
   8    -68.9899607 -0.175323E-01  0.251E-01    0.35       1.0  T
   9    -68.9967072 -0.674647E-02  0.105E-01    0.36       1.0  T
  10    -68.9976503 -0.943114E-03  0.623E-02    0.36       1.0  T
  11    -68.9968242  0.826175E-03  0.101E-01    0.36       1.0  T
  12    -68.9971466 -0.322469E-03  0.852E-02    0.36       1.0  T
  13    -68.9979243 -0.777687E-03  0.296E-02    0.36       1.0  T
  14    -68.9980191 -0.948136E-04  0.128E-02    0.36       1.4  T
  15    -68.9980354 -0.163071E-04  0.437E-03    0.36       4.1  T
  16    -68.9980372 -0.181621E-05  0.204E-03    0.36       8.8  T
  17    -68.9980376 -0.326378E-06  0.129E-03    0.36      14.0  T
  18    -68.9980376 -0.508328E-07  0.115E-03    0.36      15.6  T
  19    -68.9980377 -0.109924E-06  0.612E-04    0.36      29.3  T
  20    -68.9980378 -0.279538E-07  0.382E-04    0.36      47.0  T
  21    -68.9980378 -0.139834E-07  0.180E-04    0.36      99.6  T
  22    -68.9980378 -0.391958E-08  0.371E-05    0.36     484.1  T
     SCC iter.                  ...        0 min,  0.592 sec
     gradient                   ...        0 min,  0.024 sec
 * total energy  :   -68.6589846 Eh     change       -0.6501392E-01 Eh
   gradient norm :     0.2561667 Eh/α   predicted    -0.4497121E-01 ( -30.83%)
   displ. norm   :     0.7756222 α      lambda       -0.1389677E+00
   maximum displ.:     0.5541762 α      in ANC's #82, #81, #80, ...

........................................................................
.............................. CYCLE   13 ..............................
........................................................................

 iter      E             dE          RMSdq      gap      omega  full diag
   1    -68.7497153 -0.687497E+02  0.164E+00    0.24       0.0  T
   2    -22.4252461  0.463245E+02  0.169E+01    0.12       1.0  T
   3    -49.6517282 -0.272265E+02  0.111E+01    0.09       1.0  T
   4    -68.0175243 -0.183658E+02  0.306E+00    0.29       1.0  T
   5    -60.4232395  0.759428E+01  0.786E+00    0.17       1.0  T
   6    -67.1562811 -0.673304E+01  0.390E+00    0.32       1.0  T
   7    -68.8977756 -0.174149E+01  0.134E+00    0.43       1.0  T
   8    -68.7768413  0.120934E+00  0.167E+00    0.35       1.0  T
   9    -68.9476968 -0.170855E+00  0.118E+00    0.37       1.0  T
  10    -69.1027718 -0.155075E+00  0.383E-01    0.38       1.0  T
  11    -69.1120435 -0.927172E-02  0.286E-01    0.39       1.0  T
  12    -69.1106551  0.138837E-02  0.308E-01    0.39       1.0  T
  13    -69.1115893 -0.934235E-03  0.289E-01    0.40       1.0  T
  14    -69.1105664  0.102295E-02  0.295E-01    0.40       1.0  T
  15    -69.1136608 -0.309445E-02  0.244E-01    0.40       1.0  T
  16    -69.1208819 -0.722105E-02  0.340E-02    0.40       1.0  T
  17    -69.1208581  0.237586E-04  0.336E-02    0.40       1.0  T
  18    -69.1209712 -0.113068E-03  0.104E-02    0.40       1.7  T
  19    -69.1209740 -0.276791E-05  0.952E-03    0.40       1.9  T
  20    -69.1209816 -0.760725E-05  0.493E-03    0.40       3.6  T
  21    -69.1209840 -0.244697E-05  0.197E-03    0.40       9.1  T
  22    -69.1209844 -0.373099E-06  0.939E-04    0.40      19.1  T
  23    -69.1209845 -0.806854E-07  0.406E-04    0.40      44.2  T
  24    -69.1209845 -0.156848E-07  0.200E-04    0.40      89.6  T
  25    -69.1209845 -0.441629E-08  0.657E-05    0.40     273.3  T
  26    -69.1209845 -0.338815E-09  0.400E-05    0.40     449.1  T
     SCC iter.                  ...        0 min,  0.789 sec
     gradient                   ...        0 min,  0.038 sec
 * total energy  :   -68.7796558 Eh     change       -0.1206712E+00 Eh
   gradient norm :     0.2492919 Eh/α   predicted    -0.1112847E+00 (  -7.78%)
   displ. norm   :     0.6404948 α      lambda       -0.9253206E-01
   maximum displ.:     0.4230563 α      in ANC's #81, #82, #68, ...

........................................................................
.............................. CYCLE   14 ..............................
........................................................................

 iter      E             dE          RMSdq      gap      omega  full diag
   1    -68.2468612 -0.682469E+02  0.265E+00    0.11       0.0  T
   2     22.2541066  0.905010E+02  0.236E+01    0.09       1.0  T
   3    -53.9160935 -0.761702E+02  0.102E+01    0.02       1.0  T
   4    -58.5586794 -0.464259E+01  0.875E+00    0.05       1.0  T
   5    -42.0243125  0.165344E+02  0.130E+01    0.10       1.0  T
   6    -68.6614324 -0.266371E+02  0.221E+00    0.47       1.0  T
   7    -64.8732529  0.378818E+01  0.562E+00    0.12       1.0  T
   8    -68.6747329 -0.380148E+01  0.208E+00    0.42       1.0  T
   9    -68.7649262 -0.901932E-01  0.189E+00    0.42       1.0  T
  10    -68.9414765 -0.176550E+00  0.142E+00    0.42       1.0  T
  11    -69.1861281 -0.244652E+00  0.383E-01    0.39       1.0  T
  12    -69.1793198  0.680831E-02  0.446E-01    0.40       1.0  T
  13    -69.1908878 -0.115681E-01  0.319E-01    0.39       1.0  T
  14    -69.1979340 -0.704615E-02  0.199E-01    0.39       1.0  T
  15    -69.2025140 -0.458002E-02  0.601E-02    0.39       1.0  T
  16    -69.2011958  0.131823E-02  0.113E-01    0.39       1.0  T
  17    -69.2021779 -0.982093E-03  0.697E-02    0.39       1.0  T
  18    -69.2027407 -0.562893E-03  0.121E-02    0.39       1.5  T
  19    -69.2026905  0.502862E-04  0.232E-02    0.39       1.0  T
  20    -69.2027332 -0.427238E-04  0.132E-02    0.39       1.4  T
  21    -69.2027325  0.706663E-06  0.130E-02    0.39       1.4  T
  22    -69.2027513 -0.188569E-04  0.369E-03    0.39       4.9  T
  23    -69.2027506  0.774511E-06  0.433E-03    0.39       4.1  T
  24    -69.2027527 -0.214149E-05  0.107E-03    0.39      16.8  T
  25    -69.2027528 -0.116980E-06  0.377E-04    0.39      47.6  T
  26    -69.2027528 -0.148068E-07  0.158E-04    0.39     113.6  T
  27    -69.2027528 -0.246007E-08  0.599E-05    0.39     299.8  T
     SCC iter.                  ...        0 min,  0.895 sec
     gradient                   ...        0 min,  0.031 sec
 * total energy  :   -68.7354331 Eh     change        0.4422274E-01 Eh
   gradient norm :     0.6626682 Eh/α   predicted    -0.6524606E-01 (-247.54%)
   displ. norm   :     0.4024842 α      lambda       -0.2225851E+00
   maximum displ.:     0.2852818 α      in ANC's #82, #81, #68, ...

........................................................................
.............................. CYCLE   15 ..............................
........................................................................

 iter      E             dE          RMSdq      gap      omega  full diag
   1    -68.7327730 -0.687328E+02  0.222E+00    0.26       0.0  T
   2    -55.7642471  0.129685E+02  0.106E+01    0.14       1.0  T
   3    -68.0878215 -0.123236E+02  0.336E+00    0.41       1.0  T
   4    -40.5639727  0.275238E+02  0.133E+01    0.05       1.0  T
   5    -68.5443296 -0.279804E+02  0.231E+00    0.45       1.0  T
   6    -67.6362187  0.908111E+00  0.345E+00    0.42       1.0  T
   7    -68.9462564 -0.131004E+01  0.135E+00    0.46       1.0  T
   8    -68.2827386  0.663518E+00  0.263E+00    0.38       1.0  T
   9    -69.1203122 -0.837574E+00  0.624E-01    0.47       1.0  T
  10    -69.1477356 -0.274234E-01  0.412E-01    0.45       1.0  T
  11    -69.1591630 -0.114274E-01  0.287E-01    0.44       1.0  T
  12    -69.1640523 -0.488931E-02  0.204E-01    0.44       1.0  T
  13    -69.1669070 -0.285469E-02  0.140E-01    0.44       1.0  T
  14    -69.1679298 -0.102283E-02  0.108E-01    0.45       1.0  T
  15    -69.1691762 -0.124634E-02  0.427E-02    0.45       1.0  T
  16    -69.1693595 -0.183373E-03  0.217E-02    0.45       1.0  T
  17    -69.1693902 -0.307036E-04  0.149E-02    0.45       1.2  T
  18    -69.1694105 -0.202739E-04  0.712E-03    0.45       2.5  T
  19    -69.1694144 -0.388371E-05  0.417E-03    0.45       4.3  T
  20    -69.1694164 -0.197612E-05  0.102E-03    0.45      17.5  T
  21    -69.1694162  0.133251E-06  0.139E-03    0.45      12.9  T
  22    -69.1694164 -0.188809E-06  0.582E-04    0.45      30.8  T
  23    -69.1694164 -0.300364E-07  0.189E-04    0.45      94.8  T
  24    -69.1694165 -0.235693E-08  0.806E-05    0.45     222.8  T
     SCC iter.                  ...        0 min,  0.687 sec
     gradient                   ...        0 min,  0.028 sec
 * total energy  :   -68.8231603 Eh     change       -0.8772724E-01 Eh
   gradient norm :     0.1643321 Eh/α   predicted    -0.1293233E+00 (  47.42%)
   displ. norm   :     0.2578639 α      lambda       -0.1780863E-01
   maximum displ.:     0.0860352 α      in ANC's #45, #18, #81, ...

........................................................................
.............................. CYCLE   16 ..............................
........................................................................

 iter      E             dE          RMSdq      gap      omega  full diag
   1    -69.1800258 -0.691800E+02  0.154E-01    0.46       0.0  T
   2    -67.8213435  0.135868E+01  0.315E+00    0.31       1.0  T
   3    -69.1520156 -0.133067E+01  0.478E-01    0.46       1.0  T
   4    -69.0726029  0.794127E-01  0.916E-01    0.46       1.0  T
   5    -69.1619427 -0.893398E-01  0.434E-01    0.45       1.0  T
   6    -69.1814504 -0.195077E-01  0.842E-02    0.45       1.0  T
   7    -69.1769937  0.445666E-02  0.198E-01    0.47       1.0  T
   8    -69.1813964 -0.440271E-02  0.811E-02    0.45       1.0  T
   9    -69.1819948 -0.598317E-03  0.379E-02    0.46       1.0  T
  10    -69.1821488 -0.154069E-03  0.692E-03    0.46       2.6  T
  11    -69.1821514 -0.255608E-05  0.494E-03    0.46       3.6  T
  12    -69.1821533 -0.194125E-05  0.295E-03    0.46       6.1  T
  13    -69.1821538 -0.522325E-06  0.214E-03    0.46       8.4  T
  14    -69.1821543 -0.446566E-06  0.100E-03    0.46      17.9  T
  15    -69.1821544 -0.784711E-07  0.615E-04    0.46      29.2  T
  16    -69.1821544 -0.339676E-07  0.331E-04    0.46      54.3  T
  17    -69.1821544 -0.747693E-08  0.222E-04    0.46      81.0  T
  18    -69.1821544 -0.509587E-08  0.922E-05    0.46     194.9  T
  19    -69.1821544 -0.839350E-09  0.413E-05    0.46     435.4  T
     SCC iter.                  ...        0 min,  0.545 sec
     gradient                   ...        0 min,  0.031 sec
 * total energy  :   -68.8386197 Eh     change       -0.1545940E-01 Eh
   gradient norm :     0.1368165 Eh/α   predicted    -0.9496493E-02 ( -38.57%)
   displ. norm   :     0.5041103 α      lambda       -0.3014667E-01
   maximum displ.:     0.1828927 α      in ANC's #81, #18, #82, ...

........................................................................
.............................. CYCLE   17 ..............................
........................................................................

 iter      E             dE          RMSdq      gap      omega  full diag
   1    -69.1986383 -0.691986E+02  0.308E-01    0.48       0.0  T
   2    -66.4240065  0.277463E+01  0.454E+00    0.28       1.0  T
   3    -69.0634763 -0.263947E+01  0.104E+00    0.46       1.0  T
   4    -68.7564673  0.307009E+00  0.185E+00    0.44       1.0  T
   5    -69.1037798 -0.347312E+00  0.973E-01    0.46       1.0  T
   6    -69.1889219 -0.851422E-01  0.365E-01    0.45       1.0  T
   7    -69.1723740  0.165479E-01  0.512E-01    0.49       1.0  T
   8    -69.2033781 -0.310041E-01  0.150E-01    0.47       1.0  T
   9    -69.2049819 -0.160381E-02  0.858E-02    0.47       1.0  T
  10    -69.2058098 -0.827921E-03  0.171E-02    0.48       1.1  T
  11    -69.2057685  0.413281E-04  0.241E-02    0.48       1.0  T
  12    -69.2058081 -0.396254E-04  0.166E-02    0.48       1.1  T
  13    -69.2058267 -0.185731E-04  0.114E-02    0.48       1.6  T
  14    -69.2058426 -0.158806E-04  0.238E-03    0.48       7.5  T
  15    -69.2058432 -0.572090E-06  0.103E-03    0.48      17.5  T
  16    -69.2058432 -0.762527E-07  0.653E-04    0.48      27.5  T
  17    -69.2058433 -0.176199E-07  0.516E-04    0.48      34.8  T
  18    -69.2058433 -0.251890E-07  0.233E-04    0.48      77.1  T
  19    -69.2058433 -0.577211E-08  0.794E-05    0.48     226.2  T
  20    -69.2058433 -0.639048E-09  0.285E-05    0.48     630.8  T
     SCC iter.                  ...        0 min,  0.595 sec
     gradient                   ...        0 min,  0.029 sec
 * total energy  :   -68.8571368 Eh     change       -0.1851711E-01 Eh
   gradient norm :     0.0749136 Eh/α   predicted    -0.1890425E-01 (   2.09%)
   displ. norm   :     0.4848473 α      lambda       -0.6648998E-02
   maximum displ.:     0.2947084 α      in ANC's #18, #17, #16, ...

........................................................................
.............................. CYCLE   18 ..............................
........................................................................

 iter      E             dE          RMSdq      gap      omega  full diag
   1    -69.2002238 -0.692002E+02  0.199E-01    0.47       0.0  T
   2    -62.3677825  0.683244E+01  0.687E+00    0.19       1.0  T
   3    -69.1993803 -0.683160E+01  0.210E-01    0.48       1.0  T
   4    -68.9371009  0.262279E+00  0.142E+00    0.40       1.0  T
   5    -69.1941549 -0.257054E+00  0.318E-01    0.47       1.0  T
   6    -69.1830255  0.111294E-01  0.409E-01    0.47       1.0  T
   7    -69.1968855 -0.138600E-01  0.245E-01    0.47       1.0  T
   8    -69.2042898 -0.740431E-02  0.705E-02    0.47       1.0  T
   9    -69.2041896  0.100134E-03  0.724E-02    0.47       1.0  T
  10    -69.2046540 -0.464409E-03  0.399E-02    0.47       1.0  T
  11    -69.2047586 -0.104523E-03  0.265E-02    0.47       1.0  T
  12    -69.2047868 -0.282517E-04  0.218E-02    0.47       1.0  T
  13    -69.2048120 -0.252122E-04  0.165E-02    0.47       1.1  T
  14    -69.2048387 -0.266401E-04  0.709E-03    0.47       2.5  T
  15    -69.2048435 -0.485860E-05  0.312E-03    0.47       5.7  T
  16    -69.2048445 -0.996416E-06  0.123E-03    0.48      14.6  T
  17    -69.2048447 -0.143566E-06  0.525E-04    0.48      34.2  T
  18    -69.2048447 -0.330934E-07  0.463E-05    0.48     388.3  T
  19    -69.2048447 -0.217014E-09  0.175E-05    0.48    1026.7  T
     SCC iter.                  ...        0 min,  0.534 sec
     gradient                   ...        0 min,  0.030 sec
 * total energy  :   -68.8615691 Eh     change       -0.4432308E-02 Eh
   gradient norm :     0.0551717 Eh/α   predicted    -0.4105989E-02 (  -7.36%)
   displ. norm   :     0.3822256 α      lambda       -0.5441385E-02
   maximum displ.:     0.1589732 α      in ANC's #6, #5, #17, ...

........................................................................
.............................. CYCLE   19 ..............................
........................................................................

 iter      E             dE          RMSdq      gap      omega  full diag
   1    -69.2140176 -0.692140E+02  0.133E-01    0.47       0.0  T
   2    -67.4558562  0.175816E+01  0.356E+00    0.30       1.0  T
   3    -69.2011096 -0.174525E+01  0.347E-01    0.48       1.0  T
   4    -69.1924332  0.867637E-02  0.422E-01    0.47       1.0  T
   5    -69.1845883  0.784495E-02  0.497E-01    0.47       1.0  T
   6    -69.2130319 -0.284436E-01  0.148E-01    0.47       1.0  T
   7    -69.1987155  0.143164E-01  0.360E-01    0.48       1.0  T
   8    -69.2153889 -0.166734E-01  0.615E-02    0.47       1.0  T
   9    -69.2152335  0.155415E-03  0.673E-02    0.48       1.0  T
  10    -69.2156981 -0.464580E-03  0.313E-02    0.48       1.0  T
  11    -69.2157897 -0.916413E-04  0.158E-02    0.48       1.1  T
  12    -69.2157977 -0.793727E-05  0.134E-02    0.48       1.3  T
  13    -69.2158056 -0.793798E-05  0.107E-02    0.48       1.7  T
  14    -69.2158182 -0.126483E-04  0.341E-03    0.48       5.3  T
  15    -69.2158192 -0.992069E-06  0.188E-03    0.48       9.5  T
  16    -69.2158196 -0.373211E-06  0.692E-04    0.48      25.9  T
  17    -69.2158197 -0.515019E-07  0.249E-04    0.48      72.2  T
  18    -69.2158197 -0.732256E-08  0.634E-05    0.48     283.4  T
  19    -69.2158197 -0.400064E-09  0.285E-05    0.48     631.1  T
     SCC iter.                  ...        0 min,  0.509 sec
     gradient                   ...        0 min,  0.031 sec
 * total energy  :   -68.8655089 Eh     change       -0.3939760E-02 Eh
   gradient norm :     0.0423335 Eh/α   predicted    -0.3118168E-02 ( -20.85%)
   displ. norm   :     0.4639667 α      lambda       -0.4754961E-02
   maximum displ.:     0.2054631 α      in ANC's #6, #18, #5, ...

........................................................................
.............................. CYCLE   20 ..............................
........................................................................

 iter      E             dE          RMSdq      gap      omega  full diag
   1    -69.2158703 -0.692159E+02  0.171E-01    0.48       0.0  T
   2    -64.5260692  0.468980E+01  0.574E+00    0.21       1.0  T
   3    -69.1995528 -0.467348E+01  0.399E-01    0.48       1.0  T
   4    -69.1337453  0.658076E-01  0.802E-01    0.48       1.0  T
   5    -69.2025518 -0.688066E-01  0.387E-01    0.48       1.0  T
   6    -69.2145312 -0.119793E-01  0.192E-01    0.47       1.0  T
   7    -69.2051422  0.938899E-02  0.326E-01    0.48       1.0  T
   8    -69.2185547 -0.134125E-01  0.776E-02    0.48       1.0  T
   9    -69.2187515 -0.196786E-03  0.659E-02    0.48       1.0  T
  10    -69.2190275 -0.276021E-03  0.459E-02    0.48       1.0  T
  11    -69.2192116 -0.184120E-03  0.249E-02    0.48       1.0  T
  12    -69.2192505 -0.388418E-04  0.171E-02    0.48       1.1  T
  13    -69.2192646 -0.141013E-04  0.133E-02    0.48       1.3  T
  14    -69.2192827 -0.180875E-04  0.536E-03    0.48       3.3  T
  15    -69.2192856 -0.291164E-05  0.227E-03    0.48       7.9  T
  16    -69.2192861 -0.554870E-06  0.691E-04    0.48      26.0  T
  17    -69.2192862 -0.431742E-07  0.353E-04    0.48      50.9  T
  18    -69.2192862 -0.142350E-07  0.989E-05    0.48     181.6  T
  19    -69.2192862 -0.110974E-08  0.263E-05    0.48     681.6  T
     SCC iter.                  ...        0 min,  0.605 sec
     gradient                   ...        0 min,  0.028 sec
 * total energy  :   -68.8690349 Eh     change       -0.3525985E-02 Eh
   gradient norm :     0.0355934 Eh/α   predicted    -0.2889271E-02 ( -18.06%)
   displ. norm   :     0.4148017 α      lambda       -0.3314190E-02
   maximum displ.:     0.1735647 α      in ANC's #6, #5, #32, ...
 * RMSD in coord.:     0.7189656 α      energy gain  -0.6526481E+02 Eh

generating ANC from model Hessian ...
Using Lindh-Hessian (1995)
 Shifting diagonal of input Hessian by    9.9847366095681782E-003
 Lowest  eigenvalues of input Hessian
    0.000000    0.000000    0.000000    0.000000    0.000000    0.000000
    0.010000    0.010009    0.010030    0.010043    0.010236    0.010397
    0.010769    0.011056    0.011113    0.011345    0.011368    0.011475
 Highest eigenvalues
    1.086960    1.095039    1.169439    1.436186    1.904303    2.120972


........................................................................
.............................. CYCLE   21 ..............................
........................................................................

 iter      E             dE          RMSdq      gap      omega  full diag
   1    -69.2247219 -0.692247E+02  0.882E-02    0.47       0.0  T
   2    -69.1849982  0.397237E-01  0.573E-01    0.47       1.0  T
   3    -69.1502434  0.347548E-01  0.753E-01    0.47       1.0  T
   4    -69.2235541 -0.733107E-01  0.146E-01    0.48       1.0  T
   5    -69.2034313  0.201229E-01  0.408E-01    0.47       1.0  T
   6    -69.2240249 -0.205936E-01  0.104E-01    0.48       1.0  T
   7    -69.2246754 -0.650545E-03  0.753E-02    0.48       1.0  T
   8    -69.2222087  0.246674E-02  0.154E-01    0.48       1.0  T
   9    -69.2250286 -0.281995E-02  0.539E-02    0.48       1.0  T
  10    -69.2253558 -0.327172E-03  0.181E-02    0.48       1.0  T
  11    -69.2253965 -0.406493E-04  0.378E-03    0.48       4.7  T
  12    -69.2253979 -0.144290E-05  0.170E-03    0.48      10.6  T
  13    -69.2253982 -0.271678E-06  0.796E-04    0.48      22.6  T
  14    -69.2253982 -0.390802E-07  0.519E-04    0.48      34.6  T
  15    -69.2253982 -0.302511E-07  0.144E-04    0.48     124.8  T
  16    -69.2253982 -0.134516E-08  0.817E-05    0.48     219.7  T
     SCC iter.                  ...        0 min,  0.514 sec
     gradient                   ...        0 min,  0.035 sec
 * total energy  :   -68.8713520 Eh     change       -0.2317063E-02 Eh
   gradient norm :     0.0323796 Eh/α   predicted     0.0000000E+00 (-100.00%)
   displ. norm   :     0.3528375 α      lambda       -0.6275163E-02
   maximum displ.:     0.1446273 α      in ANC's #28, #24, #25, ...

........................................................................
.............................. CYCLE   22 ..............................
........................................................................

 iter      E             dE          RMSdq      gap      omega  full diag
   1    -69.2096893 -0.692097E+02  0.390E-01    0.46       0.0  T
   2    -48.1505515  0.210591E+02  0.117E+01    0.04       1.0  T
   3    -69.0838421 -0.209333E+02  0.105E+00    0.46       1.0  T
   4    -69.0649524  0.188897E-01  0.111E+00    0.46       1.0  T
   5    -69.2185240 -0.153572E+00  0.289E-01    0.46       1.0  T
   6    -69.1799076  0.386164E-01  0.619E-01    0.45       1.0  T
   7    -69.2135836 -0.336760E-01  0.359E-01    0.46       1.0  T
   8    -69.2291819 -0.155983E-01  0.388E-02    0.47       1.0  T
   9    -69.2293527 -0.170801E-03  0.126E-02    0.47       1.4  T
  10    -69.2293184  0.342492E-04  0.186E-02    0.47       1.0  T
  11    -69.2293539 -0.354364E-04  0.733E-03    0.47       2.5  T
  12    -69.2293593 -0.537131E-05  0.222E-03    0.47       8.1  T
  13    -69.2293596 -0.311617E-06  0.149E-03    0.47      12.0  T
  14    -69.2293598 -0.238154E-06  0.633E-04    0.47      28.4  T
  15    -69.2293598 -0.403805E-07  0.269E-04    0.47      66.8  T
  16    -69.2293598 -0.391006E-08  0.204E-04    0.47      88.1  T
  17    -69.2293598  0.672912E-09  0.211E-04    0.47      85.1  T
  18    -69.2293599 -0.350364E-08  0.131E-04    0.47     137.3  T
  19    -69.2293599 -0.194491E-08  0.412E-05    0.47     436.2  T
     SCC iter.                  ...        0 min,  0.560 sec
     gradient                   ...        0 min,  0.030 sec
 * total energy  :   -68.8759856 Eh     change       -0.4633630E-02 Eh
   gradient norm :     0.0108633 Eh/α   predicted    -0.3528316E-02 ( -23.85%)
   displ. norm   :     0.4115193 α      lambda       -0.3036943E-02
   maximum displ.:     0.1661078 α      in ANC's #21, #25, #7, ...

........................................................................
.............................. CYCLE   23 ..............................
........................................................................

 iter      E             dE          RMSdq      gap      omega  full diag
   1    -69.2082367 -0.692082E+02  0.408E-01    0.47       0.0  T
   2    -47.7228264  0.214854E+02  0.118E+01    0.08       1.0  T
   3    -69.0365800 -0.213138E+02  0.122E+00    0.46       1.0  T
   4    -69.0437129 -0.713299E-02  0.119E+00    0.47       1.0  T
   5    -69.1926578 -0.148945E+00  0.576E-01    0.48       1.0  T
   6    -69.2141381 -0.214803E-01  0.345E-01    0.46       1.0  T
   7    -69.1849884  0.291497E-01  0.580E-01    0.46       1.0  T
   8    -69.2288188 -0.438304E-01  0.673E-02    0.47       1.0  T
   9    -69.2293044 -0.485593E-03  0.272E-02    0.47       1.0  T
  10    -69.2292013  0.103062E-03  0.369E-02    0.47       1.0  T
  11    -69.2293625 -0.161201E-03  0.113E-02    0.47       1.6  T
  12    -69.2293717 -0.921833E-05  0.729E-03    0.47       2.5  T
  13    -69.2293757 -0.395154E-05  0.465E-03    0.47       3.9  T
  14    -69.2293769 -0.120512E-05  0.315E-03    0.47       5.7  T
  15    -69.2293778 -0.914715E-06  0.150E-03    0.47      12.0  T
  16    -69.2293780 -0.201286E-06  0.744E-04    0.47      24.1  T
  17    -69.2293781 -0.499335E-07  0.362E-04    0.47      49.6  T
  18    -69.2293781 -0.119451E-07  0.965E-05    0.47     186.0  T
  19    -69.2293781 -0.830227E-09  0.512E-05    0.47     350.6  T
     SCC iter.                  ...        0 min,  0.545 sec
     gradient                   ...        0 min,  0.024 sec
 * total energy  :   -68.8772534 Eh     change       -0.1267768E-02 Eh
   gradient norm :     0.0310637 Eh/α   predicted    -0.1775622E-02 (  40.06%)
   displ. norm   :     0.1968537 α      lambda       -0.1187001E-02
   maximum displ.:     0.0875151 α      in ANC's #1, #7, #5, ...

........................................................................
.............................. CYCLE   24 ..............................
........................................................................

 iter      E             dE          RMSdq      gap      omega  full diag
   1    -69.2296204 -0.692296E+02  0.111E-01    0.48       0.0  T
   2    -67.8679164  0.136170E+01  0.315E+00    0.35       1.0  T
   3    -69.2163634 -0.134845E+01  0.331E-01    0.48       1.0  T
   4    -69.1880258  0.283376E-01  0.575E-01    0.47       1.0  T
   5    -69.2304848 -0.424590E-01  0.767E-02    0.47       1.0  T
   6    -69.2286843  0.180059E-02  0.139E-01    0.47       1.0  T
   7    -69.2301318 -0.144751E-02  0.904E-02    0.48       1.0  T
   8    -69.2308331 -0.701381E-03  0.500E-02    0.48       1.0  T
   9    -69.2309970 -0.163851E-03  0.345E-02    0.48       1.0  T
  10    -69.2311049 -0.107937E-03  0.178E-02    0.48       1.0  T
  11    -69.2311264 -0.214223E-04  0.118E-02    0.48       1.5  T
  12    -69.2311373 -0.109117E-04  0.735E-03    0.48       2.4  T
  13    -69.2311389 -0.160595E-05  0.630E-03    0.48       2.8  T
  14    -69.2311435 -0.466167E-05  0.135E-03    0.48      13.3  T
  15    -69.2311438 -0.220204E-06  0.212E-04    0.48      84.7  T
  16    -69.2311438 -0.470591E-08  0.916E-05    0.48     196.2  T
  17    -69.2311438 -0.649138E-09  0.509E-05    0.48     352.6  T
     SCC iter.                  ...        0 min,  0.490 sec
     gradient                   ...        0 min,  0.030 sec
 * total energy  :   -68.8781160 Eh     change       -0.8626483E-03 Eh
   gradient norm :     0.0167162 Eh/α   predicted    -0.6165008E-03 ( -28.53%)
   displ. norm   :     0.3922173 α      lambda       -0.1205413E-02
   maximum displ.:     0.1838153 α      in ANC's #1, #7, #19, ...

........................................................................
.............................. CYCLE   25 ..............................
........................................................................

 iter      E             dE          RMSdq      gap      omega  full diag
   1    -69.2303244 -0.692303E+02  0.118E-01    0.48       0.0  T
   2    -67.9068671  0.132346E+01  0.312E+00    0.38       1.0  T
   3    -69.2007333 -0.129387E+01  0.488E-01    0.48       1.0  T
   4    -69.1841973  0.165359E-01  0.605E-01    0.48       1.0  T
   5    -69.2269961 -0.427988E-01  0.220E-01    0.48       1.0  T
   6    -69.2143837  0.126124E-01  0.367E-01    0.47       1.0  T
   7    -69.2298421 -0.154584E-01  0.140E-01    0.48       1.0  T
   8    -69.2309889 -0.114682E-02  0.979E-02    0.48       1.0  T
   9    -69.2316293 -0.640387E-03  0.676E-02    0.48       1.0  T
  10    -69.2320793 -0.450050E-03  0.322E-02    0.48       1.0  T
  11    -69.2321476 -0.683057E-04  0.218E-02    0.48       1.0  T
  12    -69.2321858 -0.382214E-04  0.131E-02    0.48       1.4  T
  13    -69.2321995 -0.136906E-04  0.767E-03    0.48       2.3  T
  14    -69.2322068 -0.729556E-05  0.665E-04    0.48      27.0  T
  15    -69.2322069 -0.290586E-07  0.458E-04    0.48      39.2  T
  16    -69.2322069 -0.134965E-07  0.323E-04    0.48      55.7  T
  17    -69.2322069 -0.749446E-08  0.211E-04    0.48      85.2  T
  18    -69.2322069 -0.529519E-08  0.495E-05    0.48     363.1  T
  19    -69.2322069 -0.284444E-09  0.122E-05    0.48    1470.0  T
     SCC iter.                  ...        0 min,  0.581 sec
     gradient                   ...        0 min,  0.028 sec
 * total energy  :   -68.8790181 Eh     change       -0.9021380E-03 Eh
   gradient norm :     0.0092557 Eh/α   predicted    -0.6954253E-03 ( -22.91%)
   displ. norm   :     0.4744889 α      lambda       -0.1014065E-02
   maximum displ.:     0.2552505 α      in ANC's #1, #7, #19, ...

........................................................................
.............................. CYCLE   26 ..............................
........................................................................

 iter      E             dE          RMSdq      gap      omega  full diag
   1    -69.2297870 -0.692298E+02  0.146E-01    0.48       0.0  T
   2    -65.5484502  0.368134E+01  0.511E+00    0.27       1.0  T
   3    -69.1812815 -0.363283E+01  0.622E-01    0.49       1.0  T
   4    -69.1801257  0.115586E-02  0.636E-01    0.49       1.0  T
   5    -69.2267388 -0.466131E-01  0.244E-01    0.49       1.0  T
   6    -69.2090138  0.177250E-01  0.427E-01    0.49       1.0  T
   7    -69.2287722 -0.197584E-01  0.186E-01    0.49       1.0  T
   8    -69.2309344 -0.216227E-02  0.128E-01    0.49       1.0  T
   9    -69.2315893 -0.654888E-03  0.105E-01    0.49       1.0  T
  10    -69.2323205 -0.731128E-03  0.727E-02    0.49       1.0  T
  11    -69.2327536 -0.433142E-03  0.427E-02    0.49       1.0  T
  12    -69.2329040 -0.150403E-03  0.249E-02    0.49       1.0  T
  13    -69.2329445 -0.404828E-04  0.168E-02    0.49       1.1  T
  14    -69.2329775 -0.330350E-04  0.316E-03    0.49       5.7  T
  15    -69.2329786 -0.104498E-05  0.122E-03    0.49      14.7  T
  16    -69.2329787 -0.146819E-06  0.582E-04    0.49      30.9  T
  17    -69.2329787 -0.248200E-07  0.366E-04    0.49      49.1  T
  18    -69.2329788 -0.163483E-07  0.349E-05    0.49     513.9  T
  19    -69.2329788 -0.148447E-09  0.691E-06    0.49    2600.7  T
     SCC iter.                  ...        0 min,  0.552 sec
     gradient                   ...        0 min,  0.041 sec
 * total energy  :   -68.8798002 Eh     change       -0.7820151E-03 Eh
   gradient norm :     0.0128922 Eh/α   predicted    -0.6211882E-03 ( -20.57%)
   displ. norm   :     0.5113092 α      lambda       -0.1050118E-02
   maximum displ.:     0.2844684 α      in ANC's #1, #2, #7, ...

........................................................................
.............................. CYCLE   27 ..............................
........................................................................

 iter      E             dE          RMSdq      gap      omega  full diag
   1    -69.2322226 -0.692322E+02  0.127E-01    0.49       0.0  T
   2    -66.4457627  0.278646E+01  0.447E+00    0.31       1.0  T
   3    -69.2087680 -0.276301E+01  0.446E-01    0.50       1.0  T
   4    -69.1853433  0.234246E-01  0.614E-01    0.50       1.0  T
   5    -69.2262822 -0.409388E-01  0.273E-01    0.49       1.0  T
   6    -69.2276606 -0.137842E-02  0.236E-01    0.50       1.0  T
   7    -69.2298027 -0.214215E-02  0.197E-01    0.49       1.0  T
   8    -69.2327839 -0.298120E-02  0.124E-01    0.49       1.0  T
   9    -69.2335001 -0.716168E-03  0.980E-02    0.49       1.0  T
  10    -69.2342711 -0.771022E-03  0.592E-02    0.49       1.0  T
  11    -69.2346121 -0.341010E-03  0.277E-02    0.49       1.0  T
  12    -69.2346825 -0.703894E-04  0.141E-02    0.49       1.3  T
  13    -69.2346963 -0.137372E-04  0.900E-03    0.49       2.0  T
  14    -69.2347055 -0.925362E-05  0.194E-03    0.49       9.2  T
  15    -69.2347060 -0.441081E-06  0.395E-04    0.49      45.4  T
  16    -69.2347060 -0.124905E-07  0.230E-04    0.49      78.1  T
  17    -69.2347060 -0.446477E-08  0.120E-04    0.49     149.8  T
  18    -69.2347060 -0.156550E-08  0.251E-05    0.49     715.6  T
     SCC iter.                  ...        0 min,  0.568 sec
     gradient                   ...        0 min,  0.034 sec
 * total energy  :   -68.8806516 Eh     change       -0.8514685E-03 Eh
   gradient norm :     0.0121229 Eh/α   predicted    -0.6623322E-03 ( -22.21%)
   displ. norm   :     0.5714597 α      lambda       -0.1204000E-02
   maximum displ.:     0.3221856 α      in ANC's #1, #2, #12, ...

........................................................................
.............................. CYCLE   28 ..............................
........................................................................

 iter      E             dE          RMSdq      gap      omega  full diag
   1    -69.2316698 -0.692317E+02  0.188E-01    0.49       0.0  T
   2    -62.4012095  0.683046E+01  0.688E+00    0.20       1.0  T
   3    -69.2042476 -0.680304E+01  0.505E-01    0.50       1.0  T
   4    -69.1430065  0.612411E-01  0.842E-01    0.52       1.0  T
   5    -69.2186702 -0.756637E-01  0.403E-01    0.49       1.0  T
   6    -69.2307716 -0.121015E-01  0.222E-01    0.50       1.0  T
   7    -69.2291782  0.159346E-02  0.247E-01    0.50       1.0  T
   8    -69.2343327 -0.515448E-02  0.145E-01    0.50       1.0  T
   9    -69.2352372 -0.904573E-03  0.118E-01    0.50       1.0  T
  10    -69.2361926 -0.955336E-03  0.785E-02    0.50       1.0  T
  11    -69.2367915 -0.598932E-03  0.368E-02    0.50       1.0  T
  12    -69.2368931 -0.101578E-03  0.230E-02    0.50       1.0  T
  13    -69.2369304 -0.373281E-04  0.143E-02    0.50       1.3  T
  14    -69.2369543 -0.238850E-04  0.197E-03    0.50       9.1  T
  15    -69.2369546 -0.343002E-06  0.922E-04    0.50      19.5  T
  16    -69.2369547 -0.738933E-07  0.500E-04    0.50      35.9  T
  17    -69.2369547 -0.259113E-07  0.154E-04    0.50     116.8  T
  18    -69.2369547 -0.252857E-08  0.455E-05    0.50     394.5  T
     SCC iter.                  ...        0 min,  0.647 sec
     gradient                   ...        0 min,  0.077 sec
 * total energy  :   -68.8815954 Eh     change       -0.9438174E-03 Eh
   gradient norm :     0.0093808 Eh/α   predicted    -0.7985936E-03 ( -15.39%)
   displ. norm   :     0.5412716 α      lambda       -0.9936356E-03
   maximum displ.:     0.2829816 α      in ANC's #1, #2, #12, ...

........................................................................
.............................. CYCLE   29 ..............................
........................................................................

 iter      E             dE          RMSdq      gap      omega  full diag
   1    -69.2358394 -0.692358E+02  0.144E-01    0.49       0.0  T
   2    -66.0753215  0.316052E+01  0.476E+00    0.31       1.0  T
   3    -69.2184326 -0.314311E+01  0.397E-01    0.50       1.0  T
   4    -69.2014656  0.169670E-01  0.532E-01    0.51       1.0  T
   5    -69.2310544 -0.295888E-01  0.271E-01    0.50       1.0  T
   6    -69.2325889 -0.153452E-02  0.220E-01    0.49       1.0  T
   7    -69.2374863 -0.489740E-02  0.106E-01    0.50       1.0  T
   8    -69.2375210 -0.346544E-04  0.103E-01    0.50       1.0  T
   9    -69.2381215 -0.600597E-03  0.775E-02    0.50       1.0  T
  10    -69.2385588 -0.437274E-03  0.496E-02    0.50       1.0  T
  11    -69.2388338 -0.275002E-03  0.161E-02    0.50       1.1  T
  12    -69.2388519 -0.180869E-04  0.105E-02    0.50       1.7  T
  13    -69.2388606 -0.867267E-05  0.600E-03    0.50       3.0  T
  14    -69.2388648 -0.419239E-05  0.874E-04    0.50      20.6  T
  15    -69.2388649 -0.882364E-07  0.162E-04    0.50     110.9  T
  16    -69.2388649 -0.212162E-08  0.706E-05    0.50     254.5  T
     SCC iter.                  ...        0 min,  0.489 sec
     gradient                   ...        0 min,  0.045 sec
 * total energy  :   -68.8823655 Eh     change       -0.7700961E-03 Eh
   gradient norm :     0.0081163 Eh/α   predicted    -0.6423735E-03 ( -16.59%)
   displ. norm   :     0.5327547 α      lambda       -0.8011794E-03
   maximum displ.:     0.2886055 α      in ANC's #1, #2, #5, ...

........................................................................
.............................. CYCLE   30 ..............................
........................................................................

 iter      E             dE          RMSdq      gap      omega  full diag
   1    -69.2340168 -0.692340E+02  0.137E-01    0.50       0.0  T
   2    -66.5034651  0.273055E+01  0.443E+00    0.34       1.0  T
   3    -69.2228974 -0.271943E+01  0.331E-01    0.51       1.0  T
   4    -69.1876419  0.352555E-01  0.611E-01    0.50       1.0  T
   5    -69.2182706 -0.306287E-01  0.392E-01    0.50       1.0  T
   6    -69.2337018 -0.154313E-01  0.155E-01    0.50       1.0  T
   7    -69.2325559  0.114592E-02  0.181E-01    0.51       1.0  T
   8    -69.2355210 -0.296510E-02  0.100E-01    0.51       1.0  T
   9    -69.2359673 -0.446324E-03  0.802E-02    0.50       1.0  T
  10    -69.2364790 -0.511692E-03  0.481E-02    0.50       1.0  T
  11    -69.2367110 -0.231971E-03  0.213E-02    0.50       1.0  T
  12    -69.2367551 -0.440763E-04  0.993E-03    0.50       1.8  T
  13    -69.2367604 -0.527607E-05  0.721E-03    0.50       2.5  T
  14    -69.2367660 -0.560292E-05  0.228E-03    0.50       7.9  T
  15    -69.2367666 -0.605346E-06  0.381E-04    0.50      47.2  T
  16    -69.2367666 -0.133476E-07  0.149E-04    0.50     120.4  T
  17    -69.2367666 -0.211665E-08  0.652E-05    0.50     275.6  T
     SCC iter.                  ...        0 min,  0.459 sec
     gradient                   ...        0 min,  0.027 sec
 * total energy  :   -68.8829430 Eh     change       -0.5775036E-03 Eh
   gradient norm :     0.0092396 Eh/α   predicted    -0.5142906E-03 ( -10.95%)
   displ. norm   :     0.4838477 α      lambda       -0.8614391E-03
   maximum displ.:     0.2504424 α      in ANC's #2, #5, #1, ...

........................................................................
.............................. CYCLE   31 ..............................
........................................................................

 iter      E             dE          RMSdq      gap      omega  full diag
   1    -69.2411693 -0.692412E+02  0.767E-02    0.51       0.0  T
   2    -68.9952274  0.245942E+00  0.135E+00    0.43       1.0  T
   3    -69.2398290 -0.244602E+00  0.140E-01    0.51       1.0  T
   4    -69.2080521  0.317769E-01  0.508E-01    0.49       1.0  T
   5    -69.2316277 -0.235756E-01  0.285E-01    0.50       1.0  T
   6    -69.2412051 -0.957744E-02  0.705E-02    0.50       1.0  T
   7    -69.2386493  0.255579E-02  0.154E-01    0.50       1.0  T
   8    -69.2411859 -0.253656E-02  0.682E-02    0.50       1.0  T
   9    -69.2416625 -0.476589E-03  0.315E-02    0.50       1.0  T
  10    -69.2417562 -0.937662E-04  0.155E-02    0.51       1.2  T
  11    -69.2417827 -0.264448E-04  0.568E-03    0.51       3.2  T
  12    -69.2417837 -0.103868E-05  0.476E-03    0.51       3.8  T
  13    -69.2417855 -0.182166E-05  0.286E-03    0.51       6.3  T
  14    -69.2417864 -0.844194E-06  0.117E-03    0.51      15.4  T
  15    -69.2417865 -0.157195E-06  0.304E-04    0.51      59.1  T
  16    -69.2417866 -0.732653E-08  0.182E-04    0.51      98.5  T
  17    -69.2417866 -0.366981E-08  0.619E-05    0.51     290.0  T
     SCC iter.                  ...        0 min,  0.458 sec
     gradient                   ...        0 min,  0.029 sec
 * total energy  :   -68.8831735 Eh     change       -0.2304963E-03 Eh
   gradient norm :     0.0207640 Eh/α   predicted    -0.5315568E-03 ( 130.61%)
   displ. norm   :     0.3271237 α      lambda       -0.6673774E-03
   maximum displ.:     0.2034549 α      in ANC's #1, #2, #6, ...

........................................................................
.............................. CYCLE   32 ..............................
........................................................................

 iter      E             dE          RMSdq      gap      omega  full diag
   1    -69.2368074 -0.692368E+02  0.610E-02    0.50       0.0  T
   2    -69.0842522  0.152555E+00  0.108E+00    0.50       1.0  T
   3    -69.2346063 -0.150354E+00  0.162E-01    0.50       1.0  T
   4    -69.2333571  0.124921E-02  0.178E-01    0.50       1.0  T
   5    -69.2203928  0.129643E-01  0.356E-01    0.50       1.0  T
   6    -69.2358269 -0.154341E-01  0.106E-01    0.50       1.0  T
   7    -69.2366987 -0.871797E-03  0.663E-02    0.50       1.0  T
   8    -69.2346990  0.199970E-02  0.139E-01    0.51       1.0  T
   9    -69.2369935 -0.229445E-02  0.451E-02    0.50       1.0  T
  10    -69.2372363 -0.242825E-03  0.114E-02    0.50       1.6  T
  11    -69.2372506 -0.143397E-04  0.373E-03    0.50       4.8  T
  12    -69.2372522 -0.159713E-05  0.130E-03    0.50      13.8  T
  13    -69.2372523 -0.967807E-07  0.928E-04    0.50      19.3  T
  14    -69.2372524 -0.960661E-07  0.334E-04    0.50      53.7  T
  15    -69.2372524 -0.110748E-07  0.157E-04    0.50     114.3  T
  16    -69.2372524 -0.213571E-08  0.904E-05    0.50     198.6  T
     SCC iter.                  ...        0 min,  0.422 sec
     gradient                   ...        0 min,  0.028 sec
 * total energy  :   -68.8835882 Eh     change       -0.4146642E-03 Eh
   gradient norm :     0.0073088 Eh/α   predicted    -0.3693983E-03 ( -10.92%)
   displ. norm   :     0.2201965 α      lambda       -0.2860132E-03
   maximum displ.:     0.1305079 α      in ANC's #1, #2, #6, ...

........................................................................
.............................. CYCLE   33 ..............................
........................................................................

 iter      E             dE          RMSdq      gap      omega  full diag
   1    -69.2371263 -0.692371E+02  0.349E-02    0.50       0.0  T
   2    -69.1738654  0.632608E-01  0.690E-01    0.46       1.0  T
   3    -69.2366007 -0.627353E-01  0.734E-02    0.50       1.0  T
   4    -69.2314056  0.519519E-02  0.211E-01    0.50       1.0  T
   5    -69.2369431 -0.553758E-02  0.507E-02    0.50       1.0  T
   6    -69.2371963 -0.253165E-03  0.236E-02    0.50       1.0  T
   7    -69.2371204  0.758910E-04  0.317E-02    0.50       1.0  T
   8    -69.2372253 -0.104890E-03  0.143E-02    0.50       1.3  T
   9    -69.2372493 -0.240028E-04  0.501E-03    0.50       3.6  T
  10    -69.2372517 -0.238319E-05  0.200E-03    0.50       9.0  T
  11    -69.2372520 -0.299778E-06  0.102E-03    0.50      17.6  T
  12    -69.2372521 -0.112055E-06  0.350E-04    0.50      51.3  T
  13    -69.2372521 -0.840058E-08  0.161E-04    0.50     111.2  T
  14    -69.2372521 -0.291634E-08  0.509E-05    0.50     352.7  T
     SCC iter.                  ...        0 min,  0.375 sec
     gradient                   ...        0 min,  0.029 sec
 * total energy  :   -68.8838059 Eh     change       -0.2177441E-03 Eh
   gradient norm :     0.0069393 Eh/α   predicted    -0.1499408E-03 ( -31.14%)
   displ. norm   :     0.3713831 α      lambda       -0.4284573E-03
   maximum displ.:     0.2225696 α      in ANC's #1, #2, #6, ...

........................................................................
.............................. CYCLE   34 ..............................
........................................................................

 iter      E             dE          RMSdq      gap      omega  full diag
   1    -69.2363917 -0.692364E+02  0.699E-02    0.51       0.0  T
   2    -68.8229168  0.413475E+00  0.177E+00    0.41       1.0  T
   3    -69.2351486 -0.412232E+00  0.126E-01    0.50       1.0  T
   4    -69.2294732  0.567535E-02  0.239E-01    0.49       1.0  T
   5    -69.2352358 -0.576260E-02  0.124E-01    0.50       1.0  T
   6    -69.2366376 -0.140173E-02  0.618E-02    0.50       1.0  T
   7    -69.2351683  0.146932E-02  0.120E-01    0.50       1.0  T
   8    -69.2368267 -0.165844E-02  0.461E-02    0.50       1.0  T
   9    -69.2370243 -0.197632E-03  0.242E-02    0.50       1.0  T
  10    -69.2370960 -0.716431E-04  0.579E-03    0.50       3.1  T
  11    -69.2371003 -0.430164E-05  0.686E-04    0.50      26.2  T
  12    -69.2370998  0.450467E-06  0.194E-03    0.50       9.3  T
  13    -69.2371002 -0.405273E-06  0.779E-04    0.50      23.1  T
  14    -69.2371003 -0.740964E-07  0.108E-04    0.50     166.0  T
  15    -69.2371003 -0.807447E-09  0.716E-05    0.50     250.7  T
     SCC iter.                  ...        0 min,  0.379 sec
     gradient                   ...        0 min,  0.032 sec
 * total energy  :   -68.8841238 Eh     change       -0.3178964E-03 Eh
   gradient norm :     0.0093584 Eh/α   predicted    -0.2437787E-03 ( -23.32%)
   displ. norm   :     0.4015353 α      lambda       -0.3739215E-03
   maximum displ.:     0.2294023 α      in ANC's #1, #2, #3, ...

........................................................................
.............................. CYCLE   35 ..............................
........................................................................

 iter      E             dE          RMSdq      gap      omega  full diag
   1    -69.2370370 -0.692370E+02  0.794E-02    0.51       0.0  T
   2    -68.7158184  0.521219E+00  0.199E+00    0.42       1.0  T
   3    -69.2354343 -0.519616E+00  0.142E-01    0.50       1.0  T
   4    -69.2280998  0.733447E-02  0.273E-01    0.50       1.0  T
   5    -69.2353139 -0.721412E-02  0.147E-01    0.50       1.0  T
   6    -69.2373337 -0.201977E-02  0.717E-02    0.50       1.0  T
   7    -69.2348098  0.252393E-02  0.155E-01    0.50       1.0  T
   8    -69.2375720 -0.276225E-02  0.545E-02    0.50       1.0  T
   9    -69.2378585 -0.286447E-03  0.275E-02    0.50       1.0  T
  10    -69.2379531 -0.946212E-04  0.526E-03    0.50       3.4  T
  11    -69.2379562 -0.311513E-05  0.212E-03    0.50       8.5  T
  12    -69.2379557  0.478882E-06  0.282E-03    0.50       6.4  T
  13    -69.2379566 -0.834167E-06  0.118E-03    0.50      15.2  T
  14    -69.2379567 -0.172596E-06  0.141E-04    0.50     127.6  T
  15    -69.2379567 -0.624198E-09  0.119E-04    0.50     151.5  T
     SCC iter.                  ...        0 min,  0.414 sec
     gradient                   ...        0 min,  0.026 sec
 * total energy  :   -68.8844059 Eh     change       -0.2820671E-03 Eh
   gradient norm :     0.0099965 Eh/α   predicted    -0.2171082E-03 ( -23.03%)
   displ. norm   :     0.4836108 α      lambda       -0.3627651E-03
   maximum displ.:     0.2959169 α      in ANC's #1, #2, #3, ...

........................................................................
.............................. CYCLE   36 ..............................
........................................................................

 iter      E             dE          RMSdq      gap      omega  full diag
   1    -69.2372107 -0.692372E+02  0.602E-02    0.51       0.0  T
   2    -68.9419597  0.295251E+00  0.150E+00    0.46       1.0  T
   3    -69.2367097 -0.294750E+00  0.889E-02    0.50       1.0  T
   4    -69.2240897  0.126200E-01  0.321E-01    0.51       1.0  T
   5    -69.2370234 -0.129337E-01  0.757E-02    0.51       1.0  T
   6    -69.2372002 -0.176843E-03  0.652E-02    0.51       1.0  T
   7    -69.2361843  0.101597E-02  0.108E-01    0.50       1.0  T
   8    -69.2375658 -0.138157E-02  0.339E-02    0.51       1.0  T
   9    -69.2376646 -0.987517E-04  0.196E-02    0.51       1.0  T
  10    -69.2377095 -0.449287E-04  0.563E-03    0.51       3.2  T
  11    -69.2377136 -0.405497E-05  0.834E-04    0.51      21.5  T
  12    -69.2377132  0.332678E-06  0.179E-03    0.51      10.1  T
  13    -69.2377134 -0.205276E-06  0.127E-03    0.51      14.2  T
  14    -69.2377136 -0.198354E-06  0.226E-04    0.51      79.3  T
  15    -69.2377136 -0.634071E-08  0.339E-05    0.51     530.5  T
  16    -69.2377136 -0.133468E-09  0.111E-05    0.51    1614.6  T
     SCC iter.                  ...        0 min,  0.491 sec
     gradient                   ...        0 min,  0.028 sec
 * total energy  :   -68.8846817 Eh     change       -0.2757746E-03 Eh
   gradient norm :     0.0090731 Eh/α   predicted    -0.2238061E-03 ( -18.84%)
   displ. norm   :     0.4424035 α      lambda       -0.3818871E-03
   maximum displ.:     0.2460874 α      in ANC's #1, #2, #3, ...

........................................................................
.............................. CYCLE   37 ..............................
........................................................................

 iter      E             dE          RMSdq      gap      omega  full diag
   1    -69.2398934 -0.692399E+02  0.355E-02    0.51       0.0  T
   2    -69.1441905  0.957029E-01  0.850E-01    0.49       1.0  T
   3    -69.2398251 -0.956346E-01  0.435E-02    0.51       1.0  T
   4    -69.2338063  0.601882E-02  0.216E-01    0.52       1.0  T
   5    -69.2397447 -0.593844E-02  0.498E-02    0.51       1.0  T
   6    -69.2398464 -0.101619E-03  0.412E-02    0.51       1.0  T
   7    -69.2389786  0.867756E-03  0.906E-02    0.51       1.0  T
   8    -69.2399868 -0.100816E-02  0.214E-02    0.51       1.0  T
   9    -69.2400323 -0.455399E-04  0.100E-02    0.51       1.8  T
  10    -69.2400444 -0.121017E-04  0.228E-03    0.51       7.9  T
  11    -69.2400450 -0.620807E-06  0.518E-04    0.51      34.7  T
  12    -69.2400450 -0.728292E-08  0.430E-04    0.51      41.7  T
  13    -69.2400451 -0.149245E-07  0.260E-04    0.51      69.1  T
  14    -69.2400451 -0.622090E-08  0.137E-04    0.51     131.0  T
  15    -69.2400451 -0.171899E-08  0.721E-05    0.51     249.1  T
     SCC iter.                  ...        0 min,  0.442 sec
     gradient                   ...        0 min,  0.027 sec
 * total energy  :   -68.8849544 Eh     change       -0.2727615E-03 Eh
   gradient norm :     0.0082263 Eh/α   predicted    -0.2283171E-03 ( -16.29%)
   displ. norm   :     0.5459769 α      lambda       -0.3578898E-03
   maximum displ.:     0.3250576 α      in ANC's #1, #2, #3, ...

........................................................................
.............................. CYCLE   38 ..............................
........................................................................

 iter      E             dE          RMSdq      gap      omega  full diag
   1    -69.2383019 -0.692383E+02  0.316E-02    0.51       0.0  T
   2    -69.1790830  0.592188E-01  0.666E-01    0.48       1.0  T
   3    -69.2380134 -0.589303E-01  0.575E-02    0.51       1.0  T
   4    -69.2374884  0.524952E-03  0.845E-02    0.51       1.0  T
   5    -69.2382996 -0.811150E-03  0.290E-02    0.51       1.0  T
   6    -69.2382477  0.518848E-04  0.346E-02    0.51       1.0  T
   7    -69.2373687  0.878928E-03  0.881E-02    0.51       1.0  T
   8    -69.2383626 -0.993848E-03  0.164E-02    0.51       1.1  T
   9    -69.2383878 -0.251929E-04  0.825E-03    0.51       2.2  T
  10    -69.2383954 -0.757134E-05  0.249E-03    0.51       7.2  T
  11    -69.2383961 -0.771304E-06  0.434E-04    0.51      41.4  T
  12    -69.2383961 -0.649169E-08  0.306E-04    0.51      58.7  T
  13    -69.2383961 -0.485326E-08  0.226E-04    0.51      79.6  T
  14    -69.2383961 -0.428982E-08  0.126E-04    0.51     142.2  T
  15    -69.2383961 -0.177468E-08  0.489E-05    0.51     367.3  T
     SCC iter.                  ...        0 min,  0.488 sec
     gradient                   ...        0 min,  0.035 sec
 * total energy  :   -68.8852146 Eh     change       -0.2601865E-03 Eh
   gradient norm :     0.0101247 Eh/α   predicted    -0.2322905E-03 ( -10.72%)
   displ. norm   :     0.3834123 α      lambda       -0.3936160E-03
   maximum displ.:     0.1792222 α      in ANC's #1, #3, #2, ...

........................................................................
.............................. CYCLE   39 ..............................
........................................................................

 iter      E             dE          RMSdq      gap      omega  full diag
   1    -69.2409296 -0.692409E+02  0.321E-02    0.51       0.0  T
   2    -69.2002134  0.407162E-01  0.559E-01    0.49       1.0  T
   3    -69.2394638 -0.392504E-01  0.111E-01    0.51       1.0  T
   4    -69.2407076 -0.124377E-02  0.538E-02    0.51       1.0  T
   5    -69.2369608  0.374676E-02  0.175E-01    0.51       1.0  T
   6    -69.2409388 -0.397798E-02  0.267E-02    0.51       1.0  T
   7    -69.2407734  0.165403E-03  0.436E-02    0.51       1.0  T
   8    -69.2409701 -0.196695E-03  0.207E-02    0.51       1.0  T
   9    -69.2410166 -0.465122E-04  0.807E-03    0.51       2.2  T
  10    -69.2410238 -0.719435E-05  0.241E-03    0.51       7.4  T
  11    -69.2410244 -0.656808E-06  0.732E-04    0.51      24.5  T
  12    -69.2410245 -0.520865E-07  0.341E-04    0.51      52.6  T
  13    -69.2410245 -0.445262E-08  0.263E-04    0.51      68.2  T
  14    -69.2410245 -0.675827E-08  0.125E-04    0.51     144.2  T
  15    -69.2410245 -0.145542E-08  0.631E-05    0.51     284.7  T
     SCC iter.                  ...        0 min,  0.457 sec
     gradient                   ...        0 min,  0.032 sec
 * total energy  :   -68.8854729 Eh     change       -0.2582394E-03 Eh
   gradient norm :     0.0056582 Eh/α   predicted    -0.2257457E-03 ( -12.58%)
   displ. norm   :     0.5151312 α      lambda       -0.2912334E-03
   maximum displ.:     0.2561595 α      in ANC's #1, #2, #3, ...

........................................................................
.............................. CYCLE   40 ..............................
........................................................................

 iter      E             dE          RMSdq      gap      omega  full diag
   1    -69.2376598 -0.692377E+02  0.301E-02    0.51       0.0  T
   2    -69.2001315  0.375283E-01  0.535E-01    0.52       1.0  T
   3    -69.2368933 -0.367619E-01  0.928E-02    0.51       1.0  T
   4    -69.2364413  0.451996E-03  0.102E-01    0.51       1.0  T
   5    -69.2328750  0.356630E-02  0.193E-01    0.51       1.0  T
   6    -69.2373711 -0.449604E-02  0.555E-02    0.51       1.0  T
   7    -69.2375308 -0.159710E-03  0.428E-02    0.51       1.0  T
   8    -69.2375170  0.138052E-04  0.432E-02    0.51       1.0  T
   9    -69.2377284 -0.211467E-03  0.161E-02    0.51       1.1  T
  10    -69.2377608 -0.323130E-04  0.211E-03    0.51       8.5  T
  11    -69.2377612 -0.406623E-06  0.856E-04    0.51      21.0  T
  12    -69.2377612 -0.396278E-07  0.634E-04    0.51      28.3  T
  13    -69.2377612 -0.307995E-07  0.404E-04    0.51      44.4  T
  14    -69.2377612 -0.162438E-07  0.183E-04    0.51      98.3  T
  15    -69.2377612 -0.356725E-08  0.722E-05    0.51     248.8  T
     SCC iter.                  ...        0 min,  0.428 sec
     gradient                   ...        0 min,  0.033 sec
 * total energy  :   -68.8856361 Eh     change       -0.1632701E-03 Eh
   gradient norm :     0.0100204 Eh/α   predicted    -0.1842626E-03 (  12.86%)
   displ. norm   :     0.2180725 α      lambda       -0.2308057E-03
   maximum displ.:     0.0884316 α      in ANC's #2, #3, #5, ...

........................................................................
.............................. CYCLE   41 ..............................
........................................................................

 iter      E             dE          RMSdq      gap      omega  full diag
   1    -69.2395416 -0.692395E+02  0.366E-02    0.51       0.0  T
   2    -69.1166717  0.122870E+00  0.955E-01    0.45       1.0  T
   3    -69.2395329 -0.122861E+00  0.395E-02    0.51       1.0  T
   4    -69.2376763  0.185664E-02  0.125E-01    0.51       1.0  T
   5    -69.2381396 -0.463334E-03  0.112E-01    0.50       1.0  T
   6    -69.2396930 -0.155340E-02  0.124E-02    0.51       1.4  T
   7    -69.2390163  0.676732E-03  0.724E-02    0.51       1.0  T
   8    -69.2396865 -0.670214E-03  0.134E-02    0.51       1.3  T
   9    -69.2397031 -0.165831E-04  0.708E-03    0.51       2.5  T
  10    -69.2397082 -0.509101E-05  0.289E-03    0.51       6.2  T
  11    -69.2397091 -0.911006E-06  0.103E-03    0.51      17.4  T
  12    -69.2397092 -0.125762E-06  0.333E-04    0.51      54.0  T
  13    -69.2397092 -0.152622E-08  0.297E-04    0.51      60.5  T
  14    -69.2397092 -0.748493E-08  0.171E-04    0.51     104.9  T
  15    -69.2397092 -0.290625E-08  0.773E-05    0.51     232.4  T
     SCC iter.                  ...        0 min,  0.470 sec
     gradient                   ...        0 min,  0.026 sec
 * total energy  :   -68.8857996 Eh     change       -0.1634560E-03 Eh
   gradient norm :     0.0066944 Eh/α   predicted    -0.1208942E-03 ( -26.04%)
   displ. norm   :     0.3766563 α      lambda       -0.2261286E-03
   maximum displ.:     0.1812700 α      in ANC's #2, #6, #1, ...

........................................................................
.............................. CYCLE   42 ..............................
........................................................................

 iter      E             dE          RMSdq      gap      omega  full diag
   1    -69.2392798 -0.692393E+02  0.502E-02    0.51       0.0  T
   2    -69.0415962  0.197684E+00  0.122E+00    0.46       1.0  T
   3    -69.2393761 -0.197780E+00  0.454E-02    0.51       1.0  T
   4    -69.2330450  0.633104E-02  0.222E-01    0.50       1.0  T
   5    -69.2392563 -0.621122E-02  0.562E-02    0.51       1.0  T
   6    -69.2395729 -0.316633E-03  0.203E-02    0.51       1.0  T
   7    -69.2395847 -0.117761E-04  0.155E-02    0.51       1.2  T
   8    -69.2395134  0.712466E-04  0.277E-02    0.51       1.0  T
   9    -69.2396024 -0.889895E-04  0.974E-03    0.51       1.8  T
  10    -69.2396138 -0.114280E-04  0.208E-03    0.51       8.6  T
  11    -69.2396142 -0.402498E-06  0.951E-04    0.51      18.9  T
  12    -69.2396142  0.106993E-07  0.954E-04    0.51      18.8  T
  13    -69.2396143 -0.657090E-07  0.614E-04    0.51      29.2  T
  14    -69.2396143 -0.441065E-07  0.180E-04    0.51      99.7  T
  15    -69.2396143 -0.312910E-08  0.788E-05    0.51     228.1  T
     SCC iter.                  ...        0 min,  0.452 sec
     gradient                   ...        0 min,  0.037 sec
 * total energy  :   -68.8859622 Eh     change       -0.1625955E-03 Eh
   gradient norm :     0.0046623 Eh/α   predicted    -0.1291109E-03 ( -20.59%)
   displ. norm   :     0.4084310 α      lambda       -0.2250074E-03
   maximum displ.:     0.1889883 α      in ANC's #2, #6, #5, ...
 * RMSD in coord.:     1.3274590 α      energy gain  -0.1692730E-01 Eh

generating ANC from model Hessian ...
Using Lindh-Hessian (1995)
 Shifting diagonal of input Hessian by    9.9896386241804924E-003
 Lowest  eigenvalues of input Hessian
    0.000000    0.000000    0.000000    0.000000    0.000000    0.000000
    0.010000    0.010024    0.010090    0.010113    0.010192    0.010263
    0.011020    0.011074    0.011226    0.011411    0.011454    0.011745
 Highest eigenvalues
    1.090324    1.104412    1.150185    1.362865    1.844826    2.019927


........................................................................
.............................. CYCLE   43 ..............................
........................................................................

 iter      E             dE          RMSdq      gap      omega  full diag
   1    -69.2400712 -0.692401E+02  0.339E-02    0.51       0.0  T
   2    -69.1667276  0.733436E-01  0.743E-01    0.48       1.0  T
   3    -69.2400753 -0.733477E-01  0.345E-02    0.51       1.0  T
   4    -69.2381197  0.195563E-02  0.128E-01    0.51       1.0  T
   5    -69.2391181 -0.998368E-03  0.926E-02    0.51       1.0  T
   6    -69.2401310 -0.101292E-02  0.226E-02    0.51       1.0  T
   7    -69.2393467  0.784260E-03  0.802E-02    0.51       1.0  T
   8    -69.2401920 -0.845312E-03  0.652E-03    0.51       2.8  T
   9    -69.2401917  0.281964E-06  0.603E-03    0.51       3.0  T
  10    -69.2401963 -0.458442E-05  0.533E-04    0.51      33.7  T
  11    -69.2401963  0.318195E-07  0.627E-04    0.51      28.7  T
  12    -69.2401963 -0.361085E-07  0.311E-04    0.51      57.8  T
  13    -69.2401963 -0.493738E-08  0.229E-04    0.51      78.6  T
  14    -69.2401963 -0.521352E-08  0.993E-05    0.51     180.9  T
  15    -69.2401963 -0.114913E-08  0.323E-05    0.51     555.9  T
     SCC iter.                  ...        0 min,  0.466 sec
     gradient                   ...        0 min,  0.033 sec
 * total energy  :   -68.8861135 Eh     change       -0.1512608E-03 Eh
   gradient norm :     0.0064542 Eh/α   predicted     0.0000000E+00 (-100.00%)
   displ. norm   :     0.0746207 α      lambda       -0.1383154E-03
   maximum displ.:     0.0308977 α      in ANC's #2, #6, #5, ...

........................................................................
.............................. CYCLE   44 ..............................
........................................................................

 iter      E             dE          RMSdq      gap      omega  full diag
   1    -69.2407250 -0.692407E+02  0.162E-02    0.51       0.0  T
   2    -69.2244709  0.162540E-01  0.348E-01    0.50       1.0  T
   3    -69.2407387 -0.162678E-01  0.136E-02    0.51       1.3  T
   4    -69.2404110  0.327751E-03  0.510E-02    0.51       1.0  T
   5    -69.2407477 -0.336695E-03  0.599E-03    0.51       3.0  T
   6    -69.2406359  0.111808E-03  0.296E-02    0.51       1.0  T
   7    -69.2407125 -0.766648E-04  0.175E-02    0.51       1.0  T
   8    -69.2407397 -0.272077E-04  0.970E-03    0.51       1.9  T
   9    -69.2407479 -0.812425E-05  0.510E-03    0.51       3.5  T
  10    -69.2407511 -0.323300E-05  0.587E-04    0.51      30.6  T
  11    -69.2407511 -0.325613E-07  0.167E-04    0.51     107.6  T
  12    -69.2407511 -0.595577E-10  0.152E-04    0.51     118.4  T
     SCC iter.                  ...        0 min,  0.372 sec
     gradient                   ...        0 min,  0.029 sec
 * total energy  :   -68.8862162 Eh     change       -0.1027153E-03 Eh
   gradient norm :     0.0028619 Eh/α   predicted    -0.6954419E-04 ( -32.29%)
   displ. norm   :     0.1457807 α      lambda       -0.1255207E-03
   maximum displ.:     0.0695443 α      in ANC's #6, #2, #5, ...

........................................................................
.............................. CYCLE   45 ..............................
........................................................................

 iter      E             dE          RMSdq      gap      omega  full diag
   1    -69.2411677 -0.692412E+02  0.227E-02    0.51       0.0  T
   2    -69.2017860  0.393817E-01  0.544E-01    0.51       1.0  T
   3    -69.2411814 -0.393954E-01  0.214E-02    0.51       1.0  T
   4    -69.2389845  0.219689E-02  0.130E-01    0.52       1.0  T
   5    -69.2411956 -0.221105E-02  0.164E-02    0.51       1.1  T
   6    -69.2411819  0.136561E-04  0.205E-02    0.51       1.0  T
   7    -69.2409226  0.259357E-03  0.481E-02    0.51       1.0  T
   8    -69.2412250 -0.302441E-03  0.414E-03    0.51       4.3  T
   9    -69.2412259 -0.862034E-06  0.295E-03    0.51       6.1  T
  10    -69.2412268 -0.910555E-06  0.825E-04    0.51      21.8  T
  11    -69.2412268 -0.660350E-07  0.347E-04    0.51      51.8  T
  12    -69.2412269 -0.132779E-07  0.704E-05    0.51     255.3  T
  13    -69.2412269  0.292772E-09  0.765E-05    0.51     234.6  T
     SCC iter.                  ...        0 min,  0.371 sec
     gradient                   ...        0 min,  0.028 sec
 * total energy  :   -68.8863071 Eh     change       -0.9091080E-04 Eh
   gradient norm :     0.0021978 Eh/α   predicted    -0.6409638E-04 ( -29.50%)
   displ. norm   :     0.1926987 α      lambda       -0.1071819E-03
   maximum displ.:     0.0986857 α      in ANC's #6, #2, #5, ...

........................................................................
.............................. CYCLE   46 ..............................
........................................................................

 iter      E             dE          RMSdq      gap      omega  full diag
   1    -69.2413718 -0.692414E+02  0.208E-02    0.51       0.0  T
   2    -69.2038520  0.375198E-01  0.531E-01    0.51       1.0  T
   3    -69.2413442 -0.374923E-01  0.264E-02    0.51       1.0  T
   4    -69.2401921  0.115215E-02  0.962E-02    0.52       1.0  T
   5    -69.2414082 -0.121613E-02  0.125E-02    0.51       1.4  T
   6    -69.2413053  0.102912E-03  0.313E-02    0.51       1.0  T
   7    -69.2413860 -0.806944E-04  0.183E-02    0.51       1.0  T
   8    -69.2414224 -0.363842E-04  0.639E-03    0.51       2.8  T
   9    -69.2414256 -0.320651E-05  0.388E-03    0.51       4.6  T
  10    -69.2414274 -0.180783E-05  0.812E-04    0.51      22.1  T
  11    -69.2414274 -0.504048E-07  0.447E-04    0.51      40.2  T
  12    -69.2414275 -0.222216E-07  0.147E-04    0.51     122.2  T
  13    -69.2414275 -0.198479E-08  0.692E-05    0.51     259.6  T
     SCC iter.                  ...        0 min,  0.380 sec
     gradient                   ...        0 min,  0.032 sec
 * total energy  :   -68.8864002 Eh     change       -0.9315395E-04 Eh
   gradient norm :     0.0040415 Eh/α   predicted    -0.5562410E-04 ( -40.29%)
   displ. norm   :     0.3337130 α      lambda       -0.1845973E-03
   maximum displ.:     0.1738168 α      in ANC's #6, #2, #5, ...

........................................................................
.............................. CYCLE   47 ..............................
........................................................................

 iter      E             dE          RMSdq      gap      omega  full diag
   1    -69.2411666 -0.692412E+02  0.289E-02    0.51       0.0  T
   2    -69.1694816  0.716850E-01  0.733E-01    0.50       1.0  T
   3    -69.2410982 -0.716167E-01  0.388E-02    0.51       1.0  T
   4    -69.2401682  0.930024E-03  0.917E-02    0.52       1.0  T
   5    -69.2411640 -0.995819E-03  0.295E-02    0.51       1.0  T
   6    -69.2411980 -0.339437E-04  0.264E-02    0.51       1.0  T
   7    -69.2409351  0.262836E-03  0.505E-02    0.51       1.0  T
   8    -69.2412482 -0.313073E-03  0.143E-02    0.51       1.3  T
   9    -69.2412647 -0.164943E-04  0.869E-03    0.51       2.1  T
  10    -69.2412733 -0.855519E-05  0.286E-03    0.51       6.3  T
  11    -69.2412742 -0.912389E-06  0.946E-04    0.51      19.0  T
  12    -69.2412743 -0.979127E-07  0.354E-04    0.51      50.8  T
  13    -69.2412743 -0.928414E-08  0.218E-04    0.51      82.5  T
  14    -69.2412743 -0.422310E-08  0.110E-04    0.51     163.8  T
  15    -69.2412743 -0.119461E-08  0.516E-05    0.51     347.9  T
     SCC iter.                  ...        0 min,  0.429 sec
     gradient                   ...        0 min,  0.054 sec
 * total energy  :   -68.8865697 Eh     change       -0.1695083E-03 Eh
   gradient norm :     0.0053970 Eh/α   predicted    -0.1025779E-03 ( -39.49%)
   displ. norm   :     0.5426375 α      lambda       -0.3090355E-03
   maximum displ.:     0.2878760 α      in ANC's #6, #2, #5, ...

........................................................................
.............................. CYCLE   48 ..............................
........................................................................

 iter      E             dE          RMSdq      gap      omega  full diag
   1    -69.2401639 -0.692402E+02  0.396E-02    0.51       0.0  T
   2    -69.1183448  0.121819E+00  0.954E-01    0.48       1.0  T
   3    -69.2402107 -0.121866E+00  0.391E-02    0.51       1.0  T
   4    -69.2366441  0.356659E-02  0.167E-01    0.51       1.0  T
   5    -69.2401076 -0.346351E-02  0.442E-02    0.51       1.0  T
   6    -69.2400726  0.349506E-04  0.475E-02    0.51       1.0  T
   7    -69.2397256  0.347040E-03  0.693E-02    0.51       1.0  T
   8    -69.2402780 -0.552403E-03  0.236E-02    0.51       1.0  T
   9    -69.2403202 -0.421900E-04  0.151E-02    0.51       1.2  T
  10    -69.2403463 -0.260683E-04  0.458E-03    0.51       3.9  T
  11    -69.2403488 -0.253465E-05  0.103E-03    0.51      17.5  T
  12    -69.2403489 -0.948658E-07  0.539E-04    0.51      33.3  T
  13    -69.2403489 -0.172213E-07  0.390E-04    0.51      46.1  T
  14    -69.2403489 -0.153643E-07  0.167E-04    0.51     107.4  T
  15    -69.2403489 -0.261643E-08  0.877E-05    0.51     204.7  T
     SCC iter.                  ...        0 min,  0.481 sec
     gradient                   ...        0 min,  0.080 sec
 * total energy  :   -68.8868404 Eh     change       -0.2706661E-03 Eh
   gradient norm :     0.0065298 Eh/α   predicted    -0.2000207E-03 ( -26.10%)
   displ. norm   :     0.5997295 α      lambda       -0.3300631E-03
   maximum displ.:     0.3251735 α      in ANC's #6, #2, #5, ...

........................................................................
.............................. CYCLE   49 ..............................
........................................................................

 iter      E             dE          RMSdq      gap      omega  full diag
   1    -69.2392934 -0.692393E+02  0.359E-02    0.51       0.0  T
   2    -69.1740908  0.652027E-01  0.698E-01    0.49       1.0  T
   3    -69.2391518 -0.650611E-01  0.516E-02    0.51       1.0  T
   4    -69.2351888  0.396299E-02  0.179E-01    0.51       1.0  T
   5    -69.2393487 -0.415982E-02  0.241E-02    0.51       1.0  T
   6    -69.2393177  0.309469E-04  0.298E-02    0.51       1.0  T
   7    -69.2388930  0.424661E-03  0.622E-02    0.51       1.0  T
   8    -69.2392916 -0.398526E-03  0.309E-02    0.51       1.0  T
   9    -69.2393772 -0.856085E-04  0.169E-02    0.51       1.1  T
  10    -69.2394102 -0.330432E-04  0.495E-03    0.51       3.6  T
  11    -69.2394133 -0.304909E-05  0.771E-04    0.51      23.3  T
  12    -69.2394133 -0.557300E-07  0.358E-04    0.51      50.1  T
  13    -69.2394133 -0.721315E-08  0.269E-04    0.51      66.6  T
  14    -69.2394133 -0.767666E-08  0.107E-04    0.51     167.3  T
  15    -69.2394133 -0.939522E-09  0.646E-05    0.51     278.1  T
     SCC iter.                  ...        0 min,  0.397 sec
     gradient                   ...        0 min,  0.033 sec
 * total energy  :   -68.8871107 Eh     change       -0.2702508E-03 Eh
   gradient norm :     0.0077453 Eh/α   predicted    -0.2243926E-03 ( -16.97%)
   displ. norm   :     0.5070671 α      lambda       -0.3102972E-03
   maximum displ.:     0.2877000 α      in ANC's #6, #2, #5, ...

........................................................................
.............................. CYCLE   50 ..............................
........................................................................

 iter      E             dE          RMSdq      gap      omega  full diag
   1    -69.2401827 -0.692402E+02  0.315E-02    0.51       0.0  T
   2    -69.2099795  0.302032E-01  0.477E-01    0.49       1.0  T
   3    -69.2395457 -0.295663E-01  0.800E-02    0.51       1.0  T
   4    -69.2397870 -0.241290E-03  0.676E-02    0.51       1.0  T
   5    -69.2389443  0.842744E-03  0.100E-01    0.51       1.0  T
   6    -69.2402478 -0.130356E-02  0.127E-02    0.51       1.4  T
   7    -69.2400472  0.200635E-03  0.412E-02    0.51       1.0  T
   8    -69.2401748 -0.127637E-03  0.268E-02    0.51       1.0  T
   9    -69.2402267 -0.518878E-04  0.176E-02    0.51       1.0  T
  10    -69.2402647 -0.379544E-04  0.312E-03    0.51       5.7  T
  11    -69.2402659 -0.122646E-05  0.244E-04    0.51      73.8  T
  12    -69.2402659 -0.154394E-08  0.206E-04    0.51      87.2  T
  13    -69.2402659 -0.289256E-08  0.141E-04    0.51     127.0  T
  14    -69.2402659 -0.125490E-08  0.994E-05    0.51     180.6  T
     SCC iter.                  ...        0 min,  0.452 sec
     gradient                   ...        0 min,  0.039 sec
 * total energy  :   -68.8873583 Eh     change       -0.2476607E-03 Eh
   gradient norm :     0.0064659 Eh/α   predicted    -0.1950421E-03 ( -21.25%)
   displ. norm   :     0.4724430 α      lambda       -0.2855644E-03
   maximum displ.:     0.2824760 α      in ANC's #6, #2, #1, ...

........................................................................
.............................. CYCLE   51 ..............................
........................................................................

 iter      E             dE          RMSdq      gap      omega  full diag
   1    -69.2412735 -0.692413E+02  0.384E-02    0.51       0.0  T
   2    -69.1513134  0.899601E-01  0.823E-01    0.49       1.0  T
   3    -69.2411886 -0.898752E-01  0.520E-02    0.51       1.0  T
   4    -69.2337656  0.742306E-02  0.241E-01    0.52       1.0  T
   5    -69.2413061 -0.754052E-02  0.362E-02    0.51       1.0  T
   6    -69.2411160  0.190054E-03  0.502E-02    0.51       1.0  T
   7    -69.2410241  0.919700E-04  0.563E-02    0.51       1.0  T
   8    -69.2413598 -0.335744E-03  0.244E-02    0.51       1.0  T
   9    -69.2414070 -0.471925E-04  0.150E-02    0.51       1.2  T
  10    -69.2414344 -0.274401E-04  0.306E-03    0.51       5.9  T
  11    -69.2414356 -0.111282E-05  0.722E-04    0.51      24.9  T
  12    -69.2414356 -0.567009E-07  0.262E-04    0.51      68.6  T
  13    -69.2414356 -0.550118E-08  0.160E-04    0.51     112.4  T
  14    -69.2414356 -0.240632E-08  0.782E-05    0.51     229.8  T
     SCC iter.                  ...        0 min,  0.433 sec
     gradient                   ...        0 min,  0.038 sec
 * total energy  :   -68.8875823 Eh     change       -0.2239451E-03 Eh
   gradient norm :     0.0049539 Eh/α   predicted    -0.1746517E-03 ( -22.01%)
   displ. norm   :     0.5129290 α      lambda       -0.2347458E-03
   maximum displ.:     0.3129112 α      in ANC's #6, #2, #1, ...

........................................................................
.............................. CYCLE   52 ..............................
........................................................................

 iter      E             dE          RMSdq      gap      omega  full diag
   1    -69.2406592 -0.692407E+02  0.393E-02    0.50       0.0  T
   2    -69.1259256  0.114734E+00  0.928E-01    0.49       1.0  T
   3    -69.2403490 -0.114423E+00  0.657E-02    0.50       1.0  T
   4    -69.2315690  0.877998E-02  0.264E-01    0.52       1.0  T
   5    -69.2406639 -0.909488E-02  0.392E-02    0.51       1.0  T
   6    -69.2402954  0.368485E-03  0.648E-02    0.51       1.0  T
   7    -69.2402967 -0.130673E-05  0.654E-02    0.51       1.0  T
   8    -69.2407716 -0.474965E-03  0.224E-02    0.51       1.0  T
   9    -69.2408111 -0.394250E-04  0.138E-02    0.51       1.3  T
  10    -69.2408337 -0.226748E-04  0.369E-03    0.50       4.9  T
  11    -69.2408354 -0.165204E-05  0.582E-04    0.50      30.9  T
  12    -69.2408354 -0.176399E-07  0.431E-04    0.50      41.7  T
  13    -69.2408354 -0.160462E-07  0.256E-04    0.50      70.2  T
  14    -69.2408354 -0.626302E-08  0.127E-04    0.50     141.1  T
  15    -69.2408354 -0.148570E-08  0.653E-05    0.50     275.1  T
     SCC iter.                  ...        0 min,  0.446 sec
     gradient                   ...        0 min,  0.029 sec
 * total energy  :   -68.8877673 Eh     change       -0.1850472E-03 Eh
   gradient norm :     0.0059687 Eh/α   predicted    -0.1482540E-03 ( -19.88%)
   displ. norm   :     0.4529112 α      lambda       -0.2348284E-03
   maximum displ.:     0.2984441 α      in ANC's #6, #2, #1, ...

........................................................................
.............................. CYCLE   53 ..............................
........................................................................

 iter      E             dE          RMSdq      gap      omega  full diag
   1    -69.2433006 -0.692433E+02  0.409E-02    0.50       0.0  T
   2    -69.1077727  0.135528E+00  0.101E+00    0.49       1.0  T
   3    -69.2429894 -0.135217E+00  0.670E-02    0.50       1.0  T
   4    -69.2341676  0.882183E-02  0.265E-01    0.52       1.0  T
   5    -69.2433220 -0.915440E-02  0.423E-02    0.50       1.0  T
   6    -69.2431577  0.164285E-03  0.508E-02    0.50       1.0  T
   7    -69.2429976  0.160110E-03  0.621E-02    0.51       1.0  T
   8    -69.2434653 -0.467726E-03  0.164E-02    0.50       1.1  T
   9    -69.2434884 -0.230240E-04  0.916E-03    0.50       2.0  T
  10    -69.2434985 -0.101940E-04  0.123E-03    0.50      14.6  T
  11    -69.2434987 -0.147832E-06  0.505E-04    0.50      35.6  T
  12    -69.2434987 -0.217493E-07  0.255E-04    0.50      70.4  T
  13    -69.2434987 -0.417457E-08  0.176E-04    0.50     102.2  T
  14    -69.2434987 -0.342509E-08  0.603E-05    0.50     298.0  T
     SCC iter.                  ...        0 min,  0.399 sec
     gradient                   ...        0 min,  0.029 sec
 * total energy  :   -68.8879042 Eh     change       -0.1368495E-03 Eh
   gradient norm :     0.0056484 Eh/α   predicted    -0.1415112E-03 (   3.41%)
   displ. norm   :     0.6063344 α      lambda       -0.2073817E-03
   maximum displ.:     0.3721831 α      in ANC's #6, #2, #1, ...

........................................................................
.............................. CYCLE   54 ..............................
........................................................................

 iter      E             dE          RMSdq      gap      omega  full diag
   1    -69.2389219 -0.692389E+02  0.316E-02    0.50       0.0  T
   2    -69.2052118  0.337100E-01  0.504E-01    0.51       1.0  T
   3    -69.2384941 -0.332823E-01  0.709E-02    0.50       1.0  T
   4    -69.2374368  0.105736E-02  0.112E-01    0.51       1.0  T
   5    -69.2380341 -0.597363E-03  0.859E-02    0.50       1.0  T
   6    -69.2386591 -0.624929E-03  0.532E-02    0.51       1.0  T
   7    -69.2380609  0.598199E-03  0.840E-02    0.50       1.0  T
   8    -69.2389271 -0.866263E-03  0.241E-02    0.50       1.0  T
   9    -69.2389903 -0.631742E-04  0.850E-03    0.50       2.1  T
  10    -69.2389994 -0.905714E-05  0.125E-03    0.50      14.4  T
  11    -69.2389995 -0.113378E-06  0.542E-04    0.50      33.2  T
  12    -69.2389995 -0.234594E-07  0.315E-04    0.50      57.0  T
  13    -69.2389995 -0.828871E-08  0.184E-04    0.50      97.4  T
  14    -69.2389995 -0.365981E-08  0.740E-05    0.50     242.8  T
     SCC iter.                  ...        0 min,  0.413 sec
     gradient                   ...        0 min,  0.047 sec
 * total energy  :   -68.8879701 Eh     change       -0.6593159E-04 Eh
   gradient norm :     0.0091396 Eh/α   predicted    -0.1418133E-03 ( 115.09%)
   displ. norm   :     0.0571214 α      lambda       -0.1365642E-03
   maximum displ.:     0.0277100 α      in ANC's #2, #1, #3, ...

........................................................................
.............................. CYCLE   55 ..............................
........................................................................

 iter      E             dE          RMSdq      gap      omega  full diag
   1    -69.2416174 -0.692416E+02  0.102E-02    0.50       0.0  T
   2    -69.2396279  0.198944E-02  0.124E-01    0.50       1.0  T
   3    -69.2415150 -0.188707E-02  0.328E-02    0.50       1.0  T
   4    -69.2414762  0.388048E-04  0.341E-02    0.50       1.0  T
   5    -69.2411959  0.280279E-03  0.576E-02    0.50       1.0  T
   6    -69.2416011 -0.405186E-03  0.150E-02    0.50       1.2  T
   7    -69.2414651  0.135985E-03  0.349E-02    0.50       1.0  T
   8    -69.2416076 -0.142470E-03  0.126E-02    0.50       1.4  T
   9    -69.2416255 -0.179379E-04  0.391E-03    0.50       4.6  T
  10    -69.2416274 -0.182896E-05  0.699E-04    0.50      25.7  T
  11    -69.2416274 -0.476914E-07  0.276E-04    0.50      65.1  T
  12    -69.2416274  0.129592E-08  0.276E-04    0.50      65.0  T
  13    -69.2416274 -0.742727E-08  0.136E-04    0.50     132.3  T
  14    -69.2416274 -0.203910E-08  0.479E-05    0.50     374.9  T
     SCC iter.                  ...        0 min,  0.460 sec
     gradient                   ...        0 min,  0.028 sec
 * total energy  :   -68.8880641 Eh     change       -0.9397505E-04 Eh
   gradient norm :     0.0047143 Eh/α   predicted    -0.6850432E-04 ( -27.10%)
   displ. norm   :     0.2325203 α      lambda       -0.1283846E-03
   maximum displ.:     0.1533239 α      in ANC's #6, #2, #5, ...

........................................................................
.............................. CYCLE   56 ..............................
........................................................................

 iter      E             dE          RMSdq      gap      omega  full diag
   1    -69.2437504 -0.692438E+02  0.167E-02    0.50       0.0  T
   2    -69.2402612  0.348925E-02  0.167E-01    0.49       1.0  T
   3    -69.2423400 -0.207889E-02  0.104E-01    0.51       1.0  T
   4    -69.2436788 -0.133872E-02  0.302E-02    0.50       1.0  T
   5    -69.2424902  0.118854E-02  0.986E-02    0.50       1.0  T
   6    -69.2437188 -0.122856E-02  0.208E-02    0.50       1.0  T
   7    -69.2437489 -0.300973E-04  0.142E-02    0.50       1.3  T
   8    -69.2436081  0.140782E-03  0.352E-02    0.50       1.0  T
   9    -69.2437673 -0.159216E-03  0.690E-03    0.50       2.6  T
  10    -69.2437726 -0.527306E-05  0.204E-03    0.50       8.8  T
  11    -69.2437731 -0.510735E-06  0.518E-04    0.50      34.7  T
  12    -69.2437731 -0.212182E-07  0.309E-04    0.50      58.2  T
  13    -69.2437731 -0.543096E-08  0.203E-04    0.50      88.6  T
  14    -69.2437731 -0.398074E-08  0.947E-05    0.50     189.7  T
  15    -69.2437731 -0.893507E-09  0.445E-05    0.50     403.7  T
     SCC iter.                  ...        0 min,  0.444 sec
     gradient                   ...        0 min,  0.030 sec
 * total energy  :   -68.8881533 Eh     change       -0.8927997E-04 Eh
   gradient norm :     0.0024726 Eh/α   predicted    -0.6766356E-04 ( -24.21%)
   displ. norm   :     0.4474972 α      lambda       -0.1241776E-03
   maximum displ.:     0.3025549 α      in ANC's #6, #2, #1, ...

........................................................................
.............................. CYCLE   57 ..............................
........................................................................

 iter      E             dE          RMSdq      gap      omega  full diag
   1    -69.2427827 -0.692428E+02  0.226E-02    0.50       0.0  T
   2    -69.2359970  0.678570E-02  0.230E-01    0.49       1.0  T
   3    -69.2401919 -0.419491E-02  0.139E-01    0.51       1.0  T
   4    -69.2423375 -0.214553E-02  0.633E-02    0.50       1.0  T
   5    -69.2421779  0.159527E-03  0.706E-02    0.50       1.0  T
   6    -69.2427881 -0.610140E-03  0.150E-02    0.50       1.2  T
   7    -69.2425448  0.243320E-03  0.452E-02    0.50       1.0  T
   8    -69.2427846 -0.239828E-03  0.155E-02    0.50       1.2  T
   9    -69.2428099 -0.253114E-04  0.588E-03    0.50       3.1  T
  10    -69.2428134 -0.354394E-05  0.213E-03    0.50       8.4  T
  11    -69.2428140 -0.574746E-06  0.252E-04    0.50      71.4  T
  12    -69.2428140 -0.397642E-08  0.133E-04    0.50     135.2  T
  13    -69.2428140 -0.121619E-08  0.722E-05    0.50     248.9  T
     SCC iter.                  ...        0 min,  0.352 sec
     gradient                   ...        0 min,  0.027 sec
 * total energy  :   -68.8882254 Eh     change       -0.7208485E-04 Eh
   gradient norm :     0.0041510 Eh/α   predicted    -0.7452331E-04 (   3.38%)
   displ. norm   :     0.2860899 α      lambda       -0.8069905E-04
   maximum displ.:     0.1862354 α      in ANC's #6, #1, #2, ...

........................................................................
.............................. CYCLE   58 ..............................
........................................................................

 iter      E             dE          RMSdq      gap      omega  full diag
   1    -69.2424465 -0.692424E+02  0.141E-02    0.50       0.0  T
   2    -69.2382515  0.419503E-02  0.179E-01    0.49       1.0  T
   3    -69.2419592 -0.370772E-02  0.625E-02    0.50       1.0  T
   4    -69.2422354 -0.276176E-03  0.442E-02    0.50       1.0  T
   5    -69.2420134  0.221935E-03  0.587E-02    0.50       1.0  T
   6    -69.2424591 -0.445653E-03  0.409E-03    0.50       4.4  T
   7    -69.2422219  0.237204E-03  0.425E-02    0.50       1.0  T
   8    -69.2424561 -0.234239E-03  0.625E-03    0.50       2.9  T
   9    -69.2424597 -0.354749E-05  0.242E-03    0.50       7.4  T
  10    -69.2424602 -0.498668E-06  0.102E-03    0.50      17.6  T
  11    -69.2424603 -0.112851E-06  0.360E-04    0.50      49.9  T
  12    -69.2424603 -0.143192E-07  0.114E-04    0.50     156.9  T
  13    -69.2424603 -0.666788E-09  0.649E-05    0.50     276.7  T
     SCC iter.                  ...        0 min,  0.340 sec
     gradient                   ...        0 min,  0.030 sec
 * total energy  :   -68.8882692 Eh     change       -0.4374815E-04 Eh
   gradient norm :     0.0044764 Eh/α   predicted    -0.4365314E-04 (  -0.22%)
   displ. norm   :     0.0884374 α      lambda       -0.5654749E-04
   maximum displ.:     0.0419552 α      in ANC's #6, #8, #11, ...

........................................................................
.............................. CYCLE   59 ..............................
........................................................................

 iter      E             dE          RMSdq      gap      omega  full diag
   1    -69.2436711 -0.692437E+02  0.857E-03    0.50       0.0  T
   2    -69.2412404  0.243067E-02  0.136E-01    0.50       1.0  T
   3    -69.2435503 -0.230985E-02  0.327E-02    0.50       1.0  T
   4    -69.2436605 -0.110196E-03  0.128E-02    0.50       1.4  T
   5    -69.2433183  0.342198E-03  0.522E-02    0.50       1.0  T
   6    -69.2436771 -0.358810E-03  0.391E-03    0.50       4.6  T
   7    -69.2435597  0.117393E-03  0.299E-02    0.50       1.0  T
   8    -69.2436780 -0.118257E-03  0.249E-03    0.50       7.2  T
   9    -69.2436786 -0.596899E-06  0.106E-03    0.50      16.9  T
  10    -69.2436786 -0.680466E-07  0.452E-04    0.50      39.7  T
  11    -69.2436787 -0.184742E-07  0.238E-04    0.50      75.4  T
  12    -69.2436787 -0.534392E-08  0.113E-04    0.50     159.0  T
  13    -69.2436787 -0.104703E-08  0.585E-05    0.50     307.0  T
     SCC iter.                  ...        0 min,  0.345 sec
     gradient                   ...        0 min,  0.028 sec
 * total energy  :   -68.8883081 Eh     change       -0.3887775E-04 Eh
   gradient norm :     0.0030012 Eh/α   predicted    -0.2849982E-04 ( -26.69%)
   displ. norm   :     0.2719862 α      lambda       -0.6109641E-04
   maximum displ.:     0.1810869 α      in ANC's #6, #1, #8, ...

   *** GEOMETRY OPTIMIZATION CONVERGED AFTER 59 ITERATIONS ***

------------------------------------------------------------------------
 total energy gain   :       -65.2840860 Eh   -40966.3825 kcal/mol
 total RMSD          :         1.6643877 a0        0.8808 Å
 total power (kW/mol):     -2905.1414281 (step)-5046.8758 (real)
------------------------------------------------------------------------

 ANCopt (total)                0 d,  0 h,  0 min, 33.962 sec
 optimizer setup                ...        0 min,  0.000 sec (  0.000%)
 model hessian                  ...        0 min,  0.017 sec (  0.049%)
 ANC generation                 ...        0 min,  0.015 sec (  0.044%)
 coordinate transformation      ...        0 min,  0.003 sec (  0.008%)
 single point calculation       ...        0 min, 33.866 sec ( 99.716%)
 optimization log               ...        0 min,  0.015 sec (  0.044%)
 hessian update                 ...        0 min,  0.023 sec (  0.067%)
 rational function              ...        0 min,  0.019 sec (  0.055%)

================
 final structure:
================
31
 xtb: 6.6.1 (unknown)
Fe           0.87872854976568        1.38276289418132        0.39053923421717
Fe           0.76880131668635       -0.56916814888986       -1.29158691353745
Fe          -1.15556580669256        1.01798034799272       -1.07504734730980
Fe          -0.72519333891264       -0.67140117763043        0.78140205094001
S           -1.18875113293819        1.43884930835706        1.00580783736203
S            1.42050229837973       -0.68728649198573        0.76628291237434
S            0.85642691976794        1.53754491968646       -1.72674374540608
S           -1.29035247389967       -1.07946250979864       -1.30611810097872
S            2.12520398508324        2.64428252622383        1.65809415160394
C            3.71612217869757        1.80537732999337        1.91851661893826
H            4.20205255472410        2.27655786163040        2.77491344833170
H            4.36800027000900        1.91808242835440        1.04974068994186
H            3.59362482745303        0.74038326611286        2.12959370192997
S            2.20938454799133       -1.75128045295661       -2.45708636335099
C            3.44655380029708       -2.47540206262092       -1.33771349431109
H            4.27303544789288       -1.77632994476246       -1.18249691874348
H            3.84028993405839       -3.37615763780010       -1.81214010605467
H            3.03071575111523       -2.74523047652164       -0.36411463767982
S           -2.55230136642401        2.33529592665794       -2.16718832357798
C           -4.19205549649839        2.29939790646151       -1.38197971858954
H           -4.63807103664091        1.30263305142696       -1.41226232346436
H           -4.83491310959296        2.98018829698693       -1.94315720296610
H           -4.15452563315350        2.63886084930896       -0.34484550440616
S           -1.17424753319681       -1.46001516592540        2.85444669948241
C           -3.25852684514477       -2.37372779248846        1.24764547252487
H           -3.78259582757106       -3.08839350137743        1.88615049116652
H           -3.44078938667814       -2.63854403179022        0.20620237576240
H           -3.64631177922475       -1.37473054300164        1.45050551137211
C           -1.76448165733131       -2.46574978603696        1.54263249079182
O           -2.42465839991081       -0.78348714942057        3.47497901401835
O           -1.10425402783592       -3.43915161020817        1.13382689955384

 Bond Distances (Angstroems)
 ---------------------------
Fe1-Fe2=2.5791       Fe1-Fe3=2.5336       Fe1-Fe4=2.6353       Fe1-S5=2.1578        Fe1-S6=2.1725        Fe1-S7=2.1231        
Fe1-S9=2.1799        Fe2-Fe1=2.5791       Fe2-Fe3=2.5038       Fe2-Fe4=2.5573       Fe2-S6=2.1618        Fe2-S7=2.1530        
Fe2-S8=2.1215        Fe2-S14=2.1980       Fe3-Fe1=2.5336       Fe3-Fe2=2.5038       Fe3-Fe4=2.5467       Fe3-S5=2.1233        
Fe3-S7=2.1778        Fe3-S8=2.1144        Fe3-S19=2.2088       Fe4-Fe1=2.6353       Fe4-Fe2=2.5573       Fe4-Fe3=2.5467       
Fe4-S5=2.1722        Fe4-S6=2.1458        Fe4-S8=2.2008        Fe4-S24=2.2630       Fe4-C29=2.2089       S5-Fe1=2.1578        
S5-Fe3=2.1233        S5-Fe4=2.1722        S6-Fe1=2.1725        S6-Fe2=2.1618        S6-Fe4=2.1458        S7-Fe1=2.1231        
S7-Fe2=2.1530        S7-Fe3=2.1778        S8-Fe2=2.1215        S8-Fe3=2.1144        S8-Fe4=2.2008        S9-Fe1=2.1799        
S9-C10=1.8173        C10-S9=1.8173        C10-H11=1.0916       C10-H12=1.0920       C10-H13=1.0926       H11-C10=1.0916       
H12-C10=1.0920       H13-C10=1.0926       S14-Fe2=2.1980       S14-C15=1.8188       C15-S14=1.8188       C15-H16=1.0936       
C15-H17=1.0915       C15-H18=1.0925       H16-C15=1.0936       H17-C15=1.0915       H18-C15=1.0925       S19-Fe3=2.2088       
S19-C20=1.8184       C20-S19=1.8184       C20-H21=1.0924       C20-H22=1.0916       C20-H23=1.0919       H21-C20=1.0924       
H22-C20=1.0916       H23-C20=1.0919       S24-Fe4=2.2630       S24-C29=1.7552       S24-O30=1.5512       C25-H26=1.0923       
C25-H27=1.0899       C25-H28=1.0907       C25-C29=1.5257       H26-C25=1.0923       H27-C25=1.0899       H28-C25=1.0907       
C29-Fe4=2.2089       C29-S24=1.7552       C29-C25=1.5257       C29-O31=1.2452       O30-S24=1.5512       O31-C29=1.2452       
 C  H  Rav=1.0919 sigma=0.0009  Rmin=1.0899  Rmax=1.0936    12
 C  C  Rav=1.5257 sigma=0.0000  Rmin=1.5257  Rmax=1.5257     1
 O  C  Rav=1.2452 sigma=0.0000  Rmin=1.2452  Rmax=1.2452     1
 S  C  Rav=1.8024 sigma=0.0273  Rmin=1.7552  Rmax=1.8188     4
 S  O  Rav=1.5512 sigma=0.0000  Rmin=1.5512  Rmax=1.5512     1
 Fe C  Rav=2.2089 sigma=0.0000  Rmin=2.2089  Rmax=2.2089     1
 Fe S  Rav=2.1671 sigma=0.0378  Rmin=2.1144  Rmax=2.2630    16
 Fe Fe Rav=2.5593 sigma=0.0410  Rmin=2.5038  Rmax=2.6353     6

 selected bond angles (degree)
 --------------------
Fe3-Fe1-Fe2= 58.64             Fe4-Fe1-Fe2= 58.73             Fe4-Fe1-Fe3= 59.00             S5-Fe1-Fe2= 99.49              
S5-Fe1-Fe3= 53.09              S5-Fe1-Fe4= 52.76              S6-Fe1-Fe2= 53.29              S6-Fe1-Fe3= 99.39              
S6-Fe1-Fe4= 51.93              S6-Fe1-S5=102.38               S7-Fe1-Fe2= 53.44              S7-Fe1-Fe3= 54.91              
S7-Fe1-Fe4=101.44              S7-Fe1-S5=105.81               S7-Fe1-S6=104.16               S9-Fe1-Fe2=147.31              
S9-Fe1-Fe3=151.50              S9-Fe1-Fe4=135.47              S9-Fe1-S5=111.53               S9-Fe1-S6=107.95               
S9-Fe1-S7=122.94               Fe3-Fe2-Fe1= 59.78             Fe4-Fe2-Fe1= 61.74             Fe4-Fe2-Fe3= 60.41             
S6-Fe2-Fe1= 53.68              S6-Fe2-Fe3=100.60              S6-Fe2-Fe4= 53.29              S7-Fe2-Fe1= 52.38              
S7-Fe2-Fe3= 55.14              S7-Fe2-Fe4=103.11              S7-Fe2-S6=103.51               S8-Fe2-Fe1=103.17              
S8-Fe2-Fe3= 53.64              S8-Fe2-Fe4= 55.17              S8-Fe2-S6=106.62               S8-Fe2-S7=105.87               
S14-Fe2-Fe1=136.46             S14-Fe2-Fe3=152.94             S14-Fe2-Fe4=142.30             S14-Fe2-S6=106.13              
S14-Fe2-S7=113.10              S14-Fe2-S8=120.21              Fe2-Fe3-Fe1= 61.59             Fe4-Fe3-Fe1= 62.49             
Fe4-Fe3-Fe2= 60.83             S5-Fe3-Fe1= 54.35              S5-Fe3-Fe2=102.85              S5-Fe3-Fe4= 54.53              
S7-Fe3-Fe1= 52.91              S7-Fe3-Fe2= 54.22              S7-Fe3-Fe4=102.73              S7-Fe3-S5=105.10               
S8-Fe3-Fe1=104.90              S8-Fe3-Fe2= 53.90              S8-Fe3-Fe4= 55.42              S8-Fe3-S5=107.62               
S8-Fe3-S7=105.24               S19-Fe3-Fe1=135.06             S19-Fe3-Fe2=145.21             S19-Fe3-Fe4=149.65             
S19-Fe3-S5=110.88              S19-Fe3-S7=107.10              S19-Fe3-S8=119.82              Fe2-Fe4-Fe1= 59.54             
Fe3-Fe4-Fe1= 58.51             Fe3-Fe4-Fe2= 58.75             S5-Fe4-Fe1= 52.26              S5-Fe4-Fe2= 99.76              
S5-Fe4-Fe3= 52.76              S6-Fe4-Fe1= 52.85              S6-Fe4-Fe2= 53.87              S6-Fe4-Fe3= 99.72              
S6-Fe4-S5=102.79               S8-Fe4-Fe1= 99.21              S8-Fe4-Fe2= 52.31              S8-Fe4-Fe3= 52.28              
S8-Fe4-S5=102.90               S8-Fe4-S6=104.40               S24-Fe4-Fe1=121.89             S24-Fe4-Fe2=150.74             
S24-Fe4-Fe3=149.93             S24-Fe4-S5=101.63              S24-Fe4-S6=101.67              S24-Fe4-S8=138.88              
C29-Fe4-Fe1=166.09             C29-Fe4-Fe2=125.92             C29-Fe4-Fe3=135.28             C29-Fe4-S5=130.78              
C29-Fe4-S6=117.83              C29-Fe4-S8= 93.18              C29-Fe4-S24= 46.20             Fe3-S5-Fe1= 72.57              
Fe4-S5-Fe1= 74.98              Fe4-S5-Fe3= 72.71              Fe2-S6-Fe1= 73.03              Fe4-S6-Fe1= 75.21              
Fe4-S6-Fe2= 72.83              Fe2-S7-Fe1= 74.19              Fe3-S7-Fe1= 72.17              Fe3-S7-Fe2= 70.64              
Fe3-S8-Fe2= 72.47              Fe4-S8-Fe2= 72.52              Fe4-S8-Fe3= 72.31              C10-S9-Fe1=108.47              
H11-C10-S9=107.63              H12-C10-S9=111.16              H12-C10-H11=108.29             H13-C10-S9=112.30              
H13-C10-H11=108.61             H13-C10-H12=108.74             

 selected dihedral angles (degree)
 ---------------------------------
Fe3-Fe2-Fe1-Fe4= 70.39        Fe3-Fe2-Fe1-S5= 35.41         Fe3-Fe2-Fe1-S6=133.84         Fe3-Fe2-Fe1-S7=292.71         
Fe3-Fe2-Fe1-S9=197.11         Fe4-Fe2-Fe1-Fe3=289.61        Fe4-Fe2-Fe1-S5=325.02         Fe4-Fe2-Fe1-S6= 63.45         
Fe4-Fe2-Fe1-S7=222.32         Fe4-Fe2-Fe1-S9=126.71         S6-Fe2-Fe1-Fe3=226.16         S6-Fe2-Fe1-Fe4=296.55         
S6-Fe2-Fe1-S5=261.57          S6-Fe2-Fe1-S7=158.87          S6-Fe2-Fe1-S9= 63.27          S7-Fe2-Fe1-Fe3= 67.29         
S7-Fe2-Fe1-Fe4=137.68         S7-Fe2-Fe1-S5=102.70          S7-Fe2-Fe1-S6=201.13          S7-Fe2-Fe1-S9=264.40          
S8-Fe2-Fe1-Fe3=327.26         S8-Fe2-Fe1-Fe4= 37.65         S8-Fe2-Fe1-S5=  2.67          S8-Fe2-Fe1-S6=101.10          
S8-Fe2-Fe1-S7=259.97          S8-Fe2-Fe1-S9=164.36          S14-Fe2-Fe1-Fe3=152.02        S14-Fe2-Fe1-Fe4=222.41        
S14-Fe2-Fe1-S5=187.43         S14-Fe2-Fe1-S6=285.86         S14-Fe2-Fe1-S7= 84.73         S14-Fe2-Fe1-S9=349.12         
Fe2-Fe3-Fe1-Fe4=290.06        Fe2-Fe3-Fe1-S5=225.63         Fe2-Fe3-Fe1-S6=324.12         Fe2-Fe3-Fe1-S7= 64.89         
Fe2-Fe3-Fe1-S9=160.56         Fe4-Fe3-Fe1-Fe2= 69.94        Fe4-Fe3-Fe1-S5=295.57         Fe4-Fe3-Fe1-S6= 34.06         
Fe4-Fe3-Fe1-S7=134.83         Fe4-Fe3-Fe1-S9=230.50         S5-Fe3-Fe1-Fe2=134.37         S5-Fe3-Fe1-Fe4= 64.43         
S5-Fe3-Fe1-S6= 98.49          S5-Fe3-Fe1-S7=199.26          S5-Fe3-Fe1-S9=294.92          S7-Fe3-Fe1-Fe2=295.11         
S7-Fe3-Fe1-Fe4=225.17         S7-Fe3-Fe1-S5=160.74          S7-Fe3-Fe1-S6=259.23          S7-Fe3-Fe1-S9= 95.67          
S8-Fe3-Fe1-Fe2= 33.15         S8-Fe3-Fe1-Fe4=323.21         S8-Fe3-Fe1-S5=258.78          S8-Fe3-Fe1-S6=357.27          
S8-Fe3-Fe1-S7= 98.03          S8-Fe3-Fe1-S9=193.70          S19-Fe3-Fe1-Fe2=218.76        S19-Fe3-Fe1-Fe4=148.82        
S19-Fe3-Fe1-S5= 84.39         S19-Fe3-Fe1-S6=182.88         S19-Fe3-Fe1-S7=283.64         S19-Fe3-Fe1-S9= 19.31         
Fe1-Fe3-Fe2-Fe4= 72.58        Fe1-Fe3-Fe2-S6= 36.24         Fe1-Fe3-Fe2-S7=297.08         Fe1-Fe3-Fe2-S8=139.16         
Fe1-Fe3-Fe2-S14=225.27        Fe4-Fe3-Fe2-Fe1=287.42        Fe4-Fe3-Fe2-S6=323.67         Fe4-Fe3-Fe2-S7=224.50         
Fe4-Fe3-Fe2-S8= 66.58         Fe4-Fe3-Fe2-S14=152.69        S5-Fe3-Fe2-Fe1=323.43         S5-Fe3-Fe2-Fe4= 36.01         
S5-Fe3-Fe2-S6=359.67          S5-Fe3-Fe2-S7=260.51          S5-Fe3-Fe2-S8=102.59          S5-Fe3-Fe2-S14=188.70         
S7-Fe3-Fe2-Fe1= 62.92         S7-Fe3-Fe2-Fe4=135.50         S7-Fe3-Fe2-S6= 99.16          S7-Fe3-Fe2-S8=202.08          
S7-Fe3-Fe2-S14=288.19         S8-Fe3-Fe2-Fe1=220.84         S8-Fe3-Fe2-Fe4=293.42         S8-Fe3-Fe2-S6=257.09          
S8-Fe3-Fe2-S7=157.92          S8-Fe3-Fe2-S14= 86.11         S19-Fe3-Fe2-Fe1=129.19        S19-Fe3-Fe2-Fe4=201.77        
S19-Fe3-Fe2-S6=165.43         S19-Fe3-Fe2-S7= 66.27         S19-Fe3-Fe2-S8=268.35         S19-Fe3-Fe2-S14=354.46        
Fe2-Fe4-Fe1-Fe3= 69.79        Fe2-Fe4-Fe1-S5=134.74         Fe2-Fe4-Fe1-S6=294.37         Fe2-Fe4-Fe1-S7= 33.48         
Fe2-Fe4-Fe1-S9=218.12         Fe3-Fe4-Fe1-Fe2=290.21        Fe3-Fe4-Fe1-S5= 64.95         Fe3-Fe4-Fe1-S6=224.57         
Fe3-Fe4-Fe1-S7=323.69         Fe3-Fe4-Fe1-S9=148.33         S5-Fe4-Fe1-Fe2=225.26         S5-Fe4-Fe1-Fe3=295.05         
S5-Fe4-Fe1-S6=159.62          S5-Fe4-Fe1-S7=258.74          S5-Fe4-Fe1-S9= 83.38          S6-Fe4-Fe1-Fe2= 65.63         
S6-Fe4-Fe1-Fe3=135.43         S6-Fe4-Fe1-S5=200.38          S6-Fe4-Fe1-S7= 99.12          S6-Fe4-Fe1-S9=283.76          
S8-Fe4-Fe1-Fe2=324.49         S8-Fe4-Fe1-Fe3= 34.29         S8-Fe4-Fe1-S5= 99.24          S8-Fe4-Fe1-S6=258.86          
S8-Fe4-Fe1-S7=357.98          S8-Fe4-Fe1-S9=182.62          S24-Fe4-Fe1-Fe2=145.70        S24-Fe4-Fe1-Fe3=215.50        
S24-Fe4-Fe1-S5=280.45         S24-Fe4-Fe1-S6= 80.07         S24-Fe4-Fe1-S7=179.19         S24-Fe4-Fe1-S9=  3.83         
C29-Fe4-Fe1-Fe2=117.16        C29-Fe4-Fe1-Fe3=186.95        C29-Fe4-Fe1-S5=251.90         C29-Fe4-Fe1-S6= 51.53         
C29-Fe4-Fe1-S7=150.64         C29-Fe4-Fe1-S9=335.28         Fe1-Fe4-Fe2-Fe3=290.61        Fe1-Fe4-Fe2-S6= 64.02         
Fe1-Fe4-Fe2-S7=326.81         Fe1-Fe4-Fe2-S8=226.43         Fe1-Fe4-Fe2-S14=130.57        Fe3-Fe4-Fe2-Fe1= 69.39        
Fe3-Fe4-Fe2-S6=133.41         Fe3-Fe4-Fe2-S7= 36.20         Fe3-Fe4-Fe2-S8=295.82         Fe3-Fe4-Fe2-S14=199.96        
S5-Fe4-Fe2-Fe1= 34.75         S5-Fe4-Fe2-Fe3=325.35         S5-Fe4-Fe2-S6= 98.77          S5-Fe4-Fe2-S7=  1.55          
S5-Fe4-Fe2-S8=261.18          S5-Fe4-Fe2-S14=165.31         S6-Fe4-Fe2-Fe1=295.98         S6-Fe4-Fe2-Fe3=226.59         
S6-Fe4-Fe2-S7=262.78          S6-Fe4-Fe2-S8=162.41          S6-Fe4-Fe2-S14= 66.55         S8-Fe4-Fe2-Fe1=133.57         
S8-Fe4-Fe2-Fe3= 64.18         S8-Fe4-Fe2-S6=197.59          S8-Fe4-Fe2-S7=100.38          S8-Fe4-Fe2-S14=264.14         
S24-Fe4-Fe2-Fe1=258.22        S24-Fe4-Fe2-Fe3=188.83        S24-Fe4-Fe2-S6=322.24         S24-Fe4-Fe2-S7=225.03         
S24-Fe4-Fe2-S8=124.65         S24-Fe4-Fe2-S14= 28.79        C29-Fe4-Fe2-Fe1=195.32        C29-Fe4-Fe2-Fe3=125.93        
C29-Fe4-Fe2-S6=259.34         C29-Fe4-Fe2-S7=162.13         C29-Fe4-Fe2-S8= 61.75         C29-Fe4-Fe2-S14=325.89        
Fe1-Fe4-Fe3-Fe2= 71.11        Fe1-Fe4-Fe3-S5=295.84         Fe1-Fe4-Fe3-S7= 35.45         Fe1-Fe4-Fe3-S8=135.33         
Fe1-Fe4-Fe3-S19=226.36        Fe2-Fe4-Fe3-Fe1=288.89        Fe2-Fe4-Fe3-S5=224.73         Fe2-Fe4-Fe3-S7=324.34         
Fe2-Fe4-Fe3-S8= 64.22         Fe2-Fe4-Fe3-S19=155.25        S5-Fe4-Fe3-Fe1= 64.16         S5-Fe4-Fe3-Fe2=135.27         
S5-Fe4-Fe3-S7= 99.61          S5-Fe4-Fe3-S8=199.49          S5-Fe4-Fe3-S19=290.52         S6-Fe4-Fe3-Fe1=325.42         
S6-Fe4-Fe3-Fe2= 36.53         S6-Fe4-Fe3-S5=261.26          S6-Fe4-Fe3-S7=  0.87          S6-Fe4-Fe3-S8=100.75          
S6-Fe4-Fe3-S19=191.78         S8-Fe4-Fe3-Fe1=224.67         S8-Fe4-Fe3-Fe2=295.78         S8-Fe4-Fe3-S5=160.51          
S8-Fe4-Fe3-S7=260.12          S8-Fe4-Fe3-S19= 91.03         S24-Fe4-Fe3-Fe1=100.28        S24-Fe4-Fe3-Fe2=171.39        
S24-Fe4-Fe3-S5= 36.12         S24-Fe4-Fe3-S7=135.73         S24-Fe4-Fe3-S8=235.61         S24-Fe4-Fe3-S19=326.64        
C29-Fe4-Fe3-Fe1=177.63        C29-Fe4-Fe3-Fe2=248.74        C29-Fe4-Fe3-S5=113.47         C29-Fe4-Fe3-S7=213.08         
C29-Fe4-Fe3-S8=312.96         C29-Fe4-Fe3-S19= 43.99        Fe3-S5-Fe1-Fe2=321.77         Fe3-S5-Fe1-Fe4=283.78         
Fe3-S5-Fe1-S6=267.48          Fe3-S5-Fe1-S7= 16.29          Fe3-S5-Fe1-S9=152.28          Fe4-S5-Fe1-Fe2= 37.99         
Fe4-S5-Fe1-Fe3= 76.22         Fe4-S5-Fe1-S6=343.70          Fe4-S5-Fe1-S7= 92.51          Fe4-S5-Fe1-S9=228.49          
Fe1-S5-Fe3-Fe2= 40.16         Fe1-S5-Fe3-Fe4= 79.23         Fe1-S5-Fe3-S7=344.19          Fe1-S5-Fe3-S8= 95.99          
Fe1-S5-Fe3-S19=228.80         Fe4-S5-Fe3-Fe1=280.77         Fe4-S5-Fe3-Fe2=320.92         Fe4-S5-Fe3-S7=264.95          
Fe4-S5-Fe3-S8= 16.75          Fe4-S5-Fe3-S19=149.56         Fe1-S5-Fe4-Fe2=321.59         Fe1-S5-Fe4-Fe3=283.96         
Fe1-S5-Fe4-S6= 16.54          Fe1-S5-Fe4-S8=268.26          Fe1-S5-Fe4-S24=121.52         Fe1-S5-Fe4-C29=162.43         
Fe3-S5-Fe4-Fe1= 76.04         Fe3-S5-Fe4-Fe2= 37.63         Fe3-S5-Fe4-S6= 92.57          Fe3-S5-Fe4-S8=344.29          
Fe3-S5-Fe4-S24=197.55         Fe3-S5-Fe4-C29=238.46         Fe2-S6-Fe1-Fe3= 38.63         Fe2-S6-Fe1-Fe4= 76.20         
Fe2-S6-Fe1-S5= 92.68          Fe2-S6-Fe1-S7=342.62          Fe2-S6-Fe1-S9=210.47          Fe4-S6-Fe1-Fe2=283.80         
Fe4-S6-Fe1-Fe3=322.43         Fe4-S6-Fe1-S5= 16.49          Fe4-S6-Fe1-S7=266.43          Fe4-S6-Fe1-S9=134.27          
Fe1-S6-Fe2-Fe3=320.65         Fe1-S6-Fe2-Fe4=280.66         Fe1-S6-Fe2-S7= 17.08          Fe1-S6-Fe2-S8=265.66          
Fe1-S6-Fe2-S14=136.39         Fe4-S6-Fe2-Fe1= 79.34         Fe4-S6-Fe2-Fe3= 39.99         Fe4-S6-Fe2-S7= 96.42          
Fe4-S6-Fe2-S8=344.99          Fe4-S6-Fe2-S14=215.73         Fe1-S6-Fe4-Fe2= 76.44         Fe1-S6-Fe4-Fe3= 37.39         
Fe1-S6-Fe4-S5=343.60          Fe1-S6-Fe4-S8= 90.74          Fe1-S6-Fe4-S24=238.65         Fe1-S6-Fe4-C29=192.29         
Fe2-S6-Fe4-Fe1=283.56         Fe2-S6-Fe4-Fe3=320.94         Fe2-S6-Fe4-S5=267.16          Fe2-S6-Fe4-S8= 14.29          
Fe2-S6-Fe4-S24=162.21         Fe2-S6-Fe4-C29=115.85         Fe2-S7-Fe1-Fe3=285.72         Fe2-S7-Fe1-Fe4=324.05         
Fe2-S7-Fe1-S5=269.81          Fe2-S7-Fe1-S6= 17.34          Fe2-S7-Fe1-S9=140.18          Fe3-S7-Fe1-Fe2= 74.28         
Fe3-S7-Fe1-Fe4= 38.33         Fe3-S7-Fe1-S5=344.10          Fe3-S7-Fe1-S6= 91.63          Fe3-S7-Fe1-S9=214.46          
Fe1-S7-Fe2-Fe3= 76.25         Fe1-S7-Fe2-Fe4= 37.50         Fe1-S7-Fe2-S6=342.62          Fe1-S7-Fe2-S8= 94.59          
Fe1-S7-Fe2-S14=228.22         Fe3-S7-Fe2-Fe1=283.75         Fe3-S7-Fe2-Fe4=321.26         Fe3-S7-Fe2-S6=266.37          
Fe3-S7-Fe2-S8= 18.34          Fe3-S7-Fe2-S14=151.97         Fe1-S7-Fe3-Fe2=280.98         Fe1-S7-Fe3-Fe4=319.84         
Fe1-S7-Fe3-S5= 16.11          Fe1-S7-Fe3-S8=262.63          Fe1-S7-Fe3-S19=134.10         Fe2-S7-Fe3-Fe1= 79.02         
Fe2-S7-Fe3-Fe4= 38.87         Fe2-S7-Fe3-S5= 95.14          Fe2-S7-Fe3-S8=341.66          Fe2-S7-Fe3-S19=213.12         
Fe3-S8-Fe2-Fe1= 35.48         Fe3-S8-Fe2-Fe4= 76.43         Fe3-S8-Fe2-S6= 91.07          Fe3-S8-Fe2-S7=341.30          
Fe3-S8-Fe2-S14=211.68         Fe4-S8-Fe2-Fe1=319.05         Fe4-S8-Fe2-Fe3=283.57         Fe4-S8-Fe2-S6= 14.65          
Fe4-S8-Fe2-S7=264.87          Fe4-S8-Fe2-S14=135.26         Fe2-S8-Fe3-Fe1=323.47         Fe2-S8-Fe3-Fe4=283.29         
Fe2-S8-Fe3-S5=266.72          Fe2-S8-Fe3-S7= 18.42          Fe2-S8-Fe3-S19=138.90         Fe4-S8-Fe3-Fe1= 40.18         
Fe4-S8-Fe3-Fe2= 76.71         Fe4-S8-Fe3-S5=343.43          Fe4-S8-Fe3-S7= 95.13          Fe4-S8-Fe3-S19=215.62         
Fe2-S8-Fe4-Fe1= 39.25         Fe2-S8-Fe4-Fe3= 76.64         Fe2-S8-Fe4-S5= 92.45          Fe2-S8-Fe4-S6=345.40          
Fe2-S8-Fe4-S24=217.69         Fe2-S8-Fe4-C29=225.60         Fe3-S8-Fe4-Fe1=322.61         Fe3-S8-Fe4-Fe2=283.36         
Fe3-S8-Fe4-S5= 15.81          Fe3-S8-Fe4-S6=268.76          Fe3-S8-Fe4-S24=141.04         Fe3-S8-Fe4-C29=148.96         
C10-S9-Fe1-Fe2=341.29         C10-S9-Fe1-Fe3=193.04         C10-S9-Fe1-Fe4= 83.61         C10-S9-Fe1-S5=141.83          
C10-S9-Fe1-S6= 30.11          C10-S9-Fe1-S7=269.03          H11-C10-S9-Fe1=196.97         H12-C10-S9-Fe1= 78.53         
H13-C10-S9-Fe1=316.45         

 CMA Distance (Angstroems)
 ---------------------------
R(CMA):  1.8398
           -------------------------------------------------
          |                Final Singlepoint                |
           -------------------------------------------------

          ...................................................
          :                      SETUP                      :
          :.................................................:
          :  # basis functions                 172          :
          :  # atomic orbitals                 160          :
          :  # shells                           74          :
          :  # electrons                       126          :
          :  # halogen bonds                     0          :
          :  max. iterations                   250          :
          :  Hamiltonian                  GFN1-xTB          :
          :  restarted?                      false          :
          :  GBSA solvation                   true          :
          :  PC potential                    false          :
          :  electronic temp.          300.0000000     K    :
          :  accuracy                    1.0000000          :
          :  -> integral cutoff          0.2500000E+02      :
          :  -> integral neglect         0.1000000E-07      :
          :  -> SCF convergence          0.1000000E-05 Eh   :
          :  -> wf. convergence          0.2000000E-04 e    :
          :  Broyden damping             0.4000000          :
          ...................................................

 iter      E             dE          RMSdq      gap      omega  full diag
   1    -69.2436787 -0.692437E+02  0.247E-05    0.50       0.0  T
   2    -69.2436786  0.413625E-07  0.559E-04    0.50      32.1  T
   3    -69.2436787 -0.406514E-07  0.819E-05    0.50     219.2  T
   4    -69.2436787 -0.616765E-09  0.356E-05    0.50     505.1  T

   *** convergence criteria satisfied after 4 iterations ***

         #    Occupation            Energy/Eh            Energy/eV
      -------------------------------------------------------------
         1        2.0000           -0.8504823             -23.1428
       ...           ...                  ...                  ...
        57        2.0000           -0.2988918              -8.1333
        58        2.0000           -0.2969755              -8.0811
        59        2.0000           -0.2956934              -8.0462
        60        2.0000           -0.2934632              -7.9855
        61        2.0000           -0.2897022              -7.8832
        62        2.0000           -0.2874121              -7.8209
        63        1.9999           -0.2828522              -7.6968 (HOMO)
        64        0.0001           -0.2644147              -7.1951 (LUMO)
        65        0.0000           -0.2629418              -7.1550
        66        0.0000           -0.2618796              -7.1261
        67                         -0.2551555              -6.9431
        68                         -0.2510313              -6.8309
       ...                                ...                  ...
       160                         13.7064175             372.9706
      -------------------------------------------------------------
                  HL-Gap            0.0184374 Eh            0.5017 eV
             Fermi-level           -0.2737471 Eh           -7.4490 eV

 SCC (total)                   0 d,  0 h,  0 min,  0.175 sec
 SCC setup                      ...        0 min,  0.001 sec (  0.421%)
 Dispersion                     ...        0 min,  0.000 sec (  0.090%)
 classical contributions        ...        0 min,  0.000 sec (  0.033%)
 integral evaluation            ...        0 min,  0.014 sec (  8.282%)
 iterations                     ...        0 min,  0.118 sec ( 67.547%)
 molecular gradient             ...        0 min,  0.031 sec ( 17.837%)
 printout                       ...        0 min,  0.010 sec (  5.753%)

         :::::::::::::::::::::::::::::::::::::::::::::::::::::
         ::                     SUMMARY                     ::
         :::::::::::::::::::::::::::::::::::::::::::::::::::::
         :: total energy             -68.888308058361 Eh    ::
         :: total w/o Gsasa/hb       -68.885149699949 Eh    ::
         :: gradient norm              0.003004960973 Eh/a0 ::
         :: HOMO-LUMO gap              0.501708382548 eV    ::
         ::.................................................::
         :: SCC energy               -69.243678661348 Eh    ::
         :: -> electrostatic           0.411608018738 Eh    ::
         :: -> Gsolv                  -0.185978559347 Eh    ::
         ::    -> Gelec               -0.182820200935 Eh    ::
         ::    -> Gsasa               -0.005737002552 Eh    ::
         ::    -> Ghb                 -0.001666962531 Eh    ::
         ::    -> Gshift               0.004245606671 Eh    ::
         :: repulsion energy           0.387077859233 Eh    ::
         :: dispersion energy         -0.031735601114 Eh    ::
         :: halogen bond corr.         0.000000000000 Eh    ::
         :: add. restraining           0.000028344868 Eh    ::
         :: total charge              -2.000000000000 e     ::
         :::::::::::::::::::::::::::::::::::::::::::::::::::::

           -------------------------------------------------
          |                Property Printout                |
           -------------------------------------------------

    * Orbital Energies and Occupations

         #    Occupation            Energy/Eh            Energy/eV
      -------------------------------------------------------------
         1        2.0000           -0.8504823             -23.1428
       ...           ...                  ...                  ...
        51        2.0000           -0.3274597              -8.9106
        52        2.0000           -0.3254362              -8.8556
        53        2.0000           -0.3079563              -8.3799
        54        2.0000           -0.3076290              -8.3710
        55        2.0000           -0.3015812              -8.2064
        56        2.0000           -0.2993931              -8.1469
        57        2.0000           -0.2988918              -8.1333
        58        2.0000           -0.2969755              -8.0811
        59        2.0000           -0.2956934              -8.0462
        60        2.0000           -0.2934632              -7.9855
        61        2.0000           -0.2897022              -7.8832
        62        2.0000           -0.2874121              -7.8209
        63        1.9999           -0.2828522              -7.6968 (HOMO)
        64        0.0001           -0.2644147              -7.1951 (LUMO)
        65        0.0000           -0.2629418              -7.1550
        66        0.0000           -0.2618796              -7.1261
        67                         -0.2551555              -6.9431
        68                         -0.2510313              -6.8309
        69                         -0.2482765              -6.7559
        70                         -0.2306914              -6.2774
        71                         -0.2298847              -6.2555
        72                         -0.2256770              -6.1410
        73                         -0.1860913              -5.0638
        74                         -0.1319681              -3.5910
       ...                                ...                  ...
       160                         13.7064175             372.9706
      -------------------------------------------------------------
                  HL-Gap            0.0184374 Eh            0.5017 eV
             Fermi-level           -0.2737471 Eh           -7.4490 eV

  Mulliken/CM5 charges         n(s)   n(p)   n(d)
     1Fe   -0.01540  0.29512   0.149  0.964  6.902
     2Fe   -0.01218  0.29849   0.148  0.976  6.888
     3Fe   -0.01701  0.29607   0.149  0.989  6.879
     4Fe   -0.01075  0.31162   0.085  0.894  7.031
     5S    -0.06158 -0.29757   1.866  4.215 -0.019
     6S    -0.06834 -0.30218   1.865  4.222 -0.019
     7S    -0.08623 -0.32144   1.866  4.239 -0.019
     8S    -0.07408 -0.31475   1.869  4.225 -0.020
     9S    -0.25340 -0.35099   1.891  4.371 -0.009
    10C    -0.01372 -0.14707   1.002  3.012  0.000
    11H    -0.00975  0.04278   1.010  0.000  0.000
    12H    -0.00170  0.05037   1.002  0.000  0.000
    13H     0.00377  0.05681   0.996  0.000  0.000
    14S    -0.25687 -0.35126   1.891  4.376 -0.009
    15C    -0.01160 -0.14459   1.002  3.009  0.000
    16H    -0.00562  0.04646   1.006  0.000  0.000
    17H    -0.01169  0.04079   1.012  0.000  0.000
    18H     0.00440  0.05770   0.996  0.000  0.000
    19S    -0.26311 -0.35571   1.891  4.381 -0.009
    20C    -0.01611 -0.14931   1.001  3.015  0.000
    21H    -0.00000  0.05189   1.000  0.000  0.000
    22H    -0.01011  0.04244   1.010  0.000  0.000
    23H     0.00137  0.05356   0.999  0.000  0.000
    24S     0.14821  0.10707   1.878  3.693  0.281
    25C    -0.09161 -0.23392   1.010  3.081  0.000
    26H     0.02043  0.07471   0.980  0.000  0.000
    27H     0.01974  0.07496   0.980  0.000  0.000
    28H     0.03328  0.09119   0.967  0.000  0.000
    29C     0.36612  0.37759   1.051  2.583  0.000
    30O    -0.66471 -0.70772   1.779  4.886  0.000
    31O    -0.64177 -0.69309   1.743  4.899  0.000

Wiberg/Mayer (AO) data.
largest (>0.10) Wiberg bond orders for each atom

 ---------------------------------------------------------------------------
     #   Z sym  total        # sym  WBO       # sym  WBO       # sym  WBO
 ---------------------------------------------------------------------------
     1  26 Fe   5.635 --     7 S    0.917     9 S    0.879     5 S    0.828
                             6 S    0.811     3 Fe   0.691     2 Fe   0.639
                             4 Fe   0.574
     2  26 Fe   5.747 --     8 S    0.894    14 S    0.848     7 S    0.832
                             6 S    0.830     3 Fe   0.742     4 Fe   0.669
                             1 Fe   0.639
     3  26 Fe   5.791 --     8 S    0.909     5 S    0.904    19 S    0.832
                             7 S    0.753     2 Fe   0.742     1 Fe   0.691
                             4 Fe   0.659
     4  26 Fe   5.435 --     6 S    0.862     5 S    0.795     8 S    0.697
                             2 Fe   0.669     3 Fe   0.659     1 Fe   0.574
                            24 S    0.451    29 C    0.283    31 O    0.111
     5  16 S    2.724 --     3 Fe   0.904     1 Fe   0.828     4 Fe   0.795
     6  16 S    2.720 --     4 Fe   0.862     2 Fe   0.830     1 Fe   0.811
     7  16 S    2.703 --     1 Fe   0.917     2 Fe   0.832     3 Fe   0.753
     8  16 S    2.706 --     3 Fe   0.909     2 Fe   0.894     4 Fe   0.697
     9  16 S    2.168 --    10 C    0.976     1 Fe   0.879
    10   6 C    3.993 --    12 H    0.993    11 H    0.992    13 H    0.988
                             9 S    0.976
    11   1 H    1.023 --    10 C    0.992
    12   1 H    1.017 --    10 C    0.993
    13   1 H    1.022 --    10 C    0.988
    14  16 S    2.151 --    15 C    0.977     2 Fe   0.848
    15   6 C    3.993 --    16 H    0.993    17 H    0.993    18 H    0.987
                            14 S    0.977
    16   1 H    1.019 --    15 C    0.993
    17   1 H    1.023 --    15 C    0.993
    18   1 H    1.023 --    15 C    0.987
    19  16 S    2.126 --    20 C    0.978     3 Fe   0.832
    20   6 C    3.990 --    22 H    0.992    21 H    0.992    23 H    0.992
                            19 S    0.978
    21   1 H    1.015 --    20 C    0.992
    22   1 H    1.023 --    20 C    0.992
    23   1 H    1.016 --    20 C    0.992
    24  16 S    3.224 --    30 O    1.490    29 C    1.035     4 Fe   0.451
                            31 O    0.106
    25   6 C    3.994 --    28 H    0.979    27 H    0.979    29 C    0.972
                            26 H    0.969
    26   1 H    1.009 --    25 C    0.969
    27   1 H    1.019 --    25 C    0.979
    28   1 H    1.017 --    25 C    0.979
    29   6 C    3.912 --    31 O    1.485    24 S    1.035    25 C    0.972
                             4 Fe   0.283
    30   8 O    1.716 --    24 S    1.490
    31   8 O    1.858 --    29 C    1.485     4 Fe   0.111    24 S    0.106
 ---------------------------------------------------------------------------

Topologies differ in total number of bonds
Writing topology from bond orders to xtbtopo.mol

 dipole moment from electron density (au)
     X       Y       Z   
   1.7651   0.7918  -1.7601  total (Debye):    6.648

           -------------------------------------------------
          |                Geometry Summary                 |
           -------------------------------------------------

      molecular mass/u    :      584.0466553
   center of mass at/Å    :       -0.1409491       0.0873109      -0.0182189
  moments of inertia/u·Å² :        0.2985171E+04   0.3251349E+04   0.3614973E+04
rotational constants/cm⁻¹ :        0.5647125E-02   0.5184812E-02   0.4663280E-02

 * 34 selected distances

     #   Z          #   Z                                           value/Å
     1  26 Fe       3  26 Fe                                      2.5336466
     2  26 Fe       3  26 Fe                                      2.5038210
     3  26 Fe       4  26 Fe                                      2.5466912 (max)
     1  26 Fe       5  16 S                                       2.1578170
     3  26 Fe       5  16 S                                       2.1232501
     4  26 Fe       5  16 S                                       2.1721882
     1  26 Fe       6  16 S                                       2.1725118
     2  26 Fe       6  16 S                                       2.1618268
     4  26 Fe       6  16 S                                       2.1458079
     1  26 Fe       7  16 S                                       2.1230504
     2  26 Fe       7  16 S                                       2.1529702
     3  26 Fe       7  16 S                                       2.1777904
     2  26 Fe       8  16 S                                       2.1214916
     3  26 Fe       8  16 S                                       2.1144334
     4  26 Fe       8  16 S                                       2.2008317
     1  26 Fe       9  16 S                                       2.1798691
    10   6 C       11   1 H                                       1.0915838
    10   6 C       12   1 H                                       1.0919795
    10   6 C       13   1 H                                       1.0925986
     2  26 Fe      14  16 S                                       2.1979671
    15   6 C       16   1 H                                       1.0935567
    15   6 C       17   1 H                                       1.0915446
    15   6 C       18   1 H                                       1.0925308
     3  26 Fe      19  16 S                                       2.2088376
    20   6 C       21   1 H                                       1.0924227
    20   6 C       22   1 H                                       1.0916327
    20   6 C       23   1 H                                       1.0919209
     4  26 Fe      24  16 S                                       2.2629796
    25   6 C       26   1 H                                       1.0922840
    25   6 C       27   1 H                                       1.0899317 (min)
    25   6 C       28   1 H                                       1.0906535
    24  16 S       29   6 C                                       1.7552024
    25   6 C       29   6 C                                       1.5256660
    29   6 C       31   8 O                                       1.2452044

 * 6 distinct bonds (by element types)

   Z      Z             #   av. dist./Å        max./Å        min./Å
   1 H    6 C          12     1.0918866     1.0935567     1.0899317
   6 C    6 C           1     1.5256660     1.5256660     1.5256660
   6 C    8 O           1     1.2452044     1.2452044     1.2452044
   6 C   16 S           1     1.7552024     1.7552024     1.7552024
  16 S   26 Fe         16     2.1671014     2.2629796     2.1144334
  26 Fe  26 Fe          3     2.5280529     2.5466912     2.5038210


optimized geometry written to: xtbopt.xyz


           -------------------------------------------------
          | TOTAL ENERGY              -68.888308058361 Eh   |
          | GRADIENT NORM               0.003004960973 Eh/α |
          | HOMO-LUMO GAP               0.501708382548 eV   |
           -------------------------------------------------

------------------------------------------------------------------------
Note: The following floating-point exceptions are signalling: IEEE_UNDERFLOW_FLAG IEEE_DENORMAL
normal termination of xtb
 * finished run on 2026/09/12 at 19:54:05.542     
------------------------------------------------------------------------
 total:
 * wall-time:     0 d,  0 h,  0 min, 35.198 sec
 *  cpu-time:     0 d,  0 h,  1 min,  9.709 sec
 * ratio c/w:     1.980 speedup
 SCF:
 * wall-time:     0 d,  0 h,  0 min,  1.012 sec
 *  cpu-time:     0 d,  0 h,  0 min,  1.606 sec
 * ratio c/w:     1.587 speedup
 ANC optimizer:
 * wall-time:     0 d,  0 h,  0 min, 34.144 sec
 *  cpu-time:     0 d,  0 h,  1 min,  7.799 sec
 * ratio c/w:     1.986 speedup

