      -----------------------------------------------------------      
     |                   =====================                   |     
     |                           x T B                           |     
     |                   =====================                   |     
     |                         S. Grimme                         |     
     |          Mulliken Center for Theoretical Chemistry        |     
     |                    University of Bonn                     |     
      -----------------------------------------------------------      

   * xtb version 6.6.1 (unknown) compiled by 'builduser@buildhost' on 2023-08-07

   xtb is free software: you can redistribute it and/or modify it under
   the terms of the GNU Lesser General Public License as published by
   the Free Software Foundation, either version 3 of the License, or
   (at your option) any later version.
   
   xtb is distributed in the hope that it will be useful,
   but WITHOUT ANY WARRANTY; without even the implied warranty of
   MERCHANTABILITY or FITNESS FOR A PARTICULAR PURPOSE.  See the
   GNU Lesser General Public License for more details.
   
   Cite this work as:
   * C. Bannwarth, E. Caldeweyher, S. Ehlert, A. Hansen, P. Pracht,
     J. Seibert, S. Spicher, S. Grimme, WIREs Comput. Mol. Sci., 2020, 11,
     e01493. DOI: 10.1002/wcms.1493
   
   for GFN2-xTB:
   * C. Bannwarth, S. Ehlert and S. Grimme., J. Chem. Theory Comput., 2019,
     15, 1652-1671. DOI: 10.1021/acs.jctc.8b01176
   for GFN1-xTB:
   * S. Grimme, C. Bannwarth, P. Shushkov, J. Chem. Theory Comput., 2017,
     13, 1989-2009. DOI: 10.1021/acs.jctc.7b00118
   for GFN0-xTB:
   * P. Pracht, E. Caldeweyher, S. Ehlert, S. Grimme, ChemRxiv, 2019, preprint.
     DOI: 10.26434/chemrxiv.8326202.v1
   for GFN-FF:
   * S. Spicher and S. Grimme, Angew. Chem. Int. Ed., 2020, 59, 15665-15673.
     DOI: 10.1002/anie.202004239
   
   for ALPB and GBSA implicit solvation:
   * S. Ehlert, M. Stahn, S. Spicher, S. Grimme, J. Chem. Theory Comput.,
     2021, 17, 4250-4261. DOI: 10.1021/acs.jctc.1c00471
   
   for DFT-D4:
   * E. Caldeweyher, C. Bannwarth and S. Grimme, J. Chem. Phys., 2017,
     147, 034112. DOI: 10.1063/1.4993215
   * E. Caldeweyher, S. Ehlert, A. Hansen, H. Neugebauer, S. Spicher,
     C. Bannwarth and S. Grimme, J. Chem. Phys., 2019, 150, 154122.
     DOI: 10.1063/1.5090222
   * E. Caldeweyher, J.-M. Mewes, S. Ehlert and S. Grimme, Phys. Chem. Chem. Phys.
     2020, 22, 8499-8512. DOI: 10.1039/D0CP00502A
   
   for sTDA-xTB:
   * S. Grimme and C. Bannwarth, J. Chem. Phys., 2016, 145, 054103.
     DOI: 10.1063/1.4959605
   
   in the mass-spec context:
   * V. Asgeirsson, C. Bauer and S. Grimme, Chem. Sci., 2017, 8, 4879.
     DOI: 10.1039/c7sc00601b
   * J. Koopman and S. Grimme, ACS Omega 2019, 4, 12, 15120-15133.
     DOI: 10.1021/acsomega.9b02011
   
   for metadynamics refer to:
   * S. Grimme, J. Chem. Theory Comput., 2019, 155, 2847-2862
     DOI: 10.1021/acs.jctc.9b00143
   
   for SPH calculations refer to:
   * S. Spicher and S. Grimme, J. Chem. Theory Comput., 2021, 17, 1701-1714
     DOI: 10.1021/acs.jctc.0c01306
   
   with help from (in alphabetical order)
   P. Atkinson, C. Bannwarth, F. Bohle, G. Brandenburg, E. Caldeweyher
   M. Checinski, S. Dohm, S. Ehlert, S. Ehrlich, I. Gerasimov, C. Hölzer
   A. Katbashev, J. Koopman, C. Lavigne, S. Lehtola, F. März, M. Müller,
   F. Musil, H. Neugebauer, J. Pisarek, C. Plett, P. Pracht, F. Pultar,
   J. Seibert, P. Shushkov, S. Spicher, M. Stahn, M. Steiner, T. Strunk,
   J. Stückrath, T. Rose, and J. Unsleber
   
 * started run on 2026/09/12 at 20:21:52.634     

           -------------------------------------------------
          |                Calculation Setup                |
           -------------------------------------------------

          program call               : xtb structure.xyz --gfn 1 --chrg -3 --uhf 0 --alpb water
          coordinate file            : structure.xyz
          omp threads                :                     8

   ID    Z sym.   atoms
    1    6 C      1, 2, 9, 10, 17, 18, 25, 26, 33, 34, 41-43, 45, 47
    2   16 S      3, 11, 19, 27, 35, 60-63
    3    1 H      4-8, 12-16, 20-24, 28-32, 36-40, 48-55
    4    7 N      44, 46
    5   26 Fe     56-59
    6   28 Ni     64

           -------------------------------------------------
          |                 G F N 1 - x T B                 |
           -------------------------------------------------

        Reference                      10.1021/acs.jctc.7b00118
      * Hamiltonian:
        H0-scaling (s, p, d)           1.850000    2.250000    2.000000
        zeta-weighting                 0.000000
      * Dispersion:
        s8                             2.400000
        a1                             0.630000
        a2                             5.000000
        s9                             0.000000
      * Repulsion:
        kExp                           1.500000
        rExp                           1.000000
      * Coulomb:
        alpha                          2.000000
        third order                    atomic
        anisotropic                    false
      * Halogen bond correction:
        rad-scale                      1.300000
        damping                        0.440000

      * Solvation model:               ALPB
        Solvent                        water
        Parameter file                 internal GFN1-xTB/ALPB
        Dielectric constant                8.0200E+01
        Reference state                gsolv [1 M gas/solution]
        Free energy shift                  4.2456E-03 Eh       2.6642E+00 kcal/mol
        Temperature                        2.9815E+02 K
        Density                            1.0000E+00 kg/L
        Solvent mass                       1.8000E+01 g/mol
        Interaction kernel             P16
        Born radius scaling (c1)           1.9452E+00
        Born radii integrator          GBOBC
        Born offset                        0.0000E+00 a0       0.0000E+00 AA
        H-bond correction              true
        Ion screening                  false
        Surface tension                    1.0000E-05 Eh       1.5569E+01 dyn/cm
        Grid points                               230 per atom

          ...................................................
          :                      SETUP                      :
          :.................................................:
          :  # basis functions                 274          :
          :  # atomic orbitals                 260          :
          :  # shells                          142          :
          :  # electrons                       202          :
          :  # halogen bonds                     0          :
          :  max. iterations                   250          :
          :  Hamiltonian                  GFN1-xTB          :
          :  restarted?                      false          :
          :  GBSA solvation                   true          :
          :  PC potential                    false          :
          :  electronic temp.          300.0000000     K    :
          :  accuracy                    1.0000000          :
          :  -> integral cutoff          0.2500000E+02      :
          :  -> integral neglect         0.1000000E-07      :
          :  -> SCF convergence          0.1000000E-05 Eh   :
          :  -> wf. convergence          0.2000000E-04 e    :
          :  Broyden damping             0.4000000          :
          ...................................................

 iter      E             dE          RMSdq      gap      omega  full diag
   1    -81.0342611 -0.810343E+02  0.150E+01    0.08       0.0  T
   2     72.7231734  0.153757E+03  0.222E+01    0.03       1.0  T
   3    -53.0768738 -0.125800E+03  0.150E+01    0.14       1.0  T
   4    -96.3116309 -0.432348E+02  0.784E+00    0.08       1.0  T
   5    -27.2503720  0.690613E+02  0.151E+01    0.67       1.0  T
   6    -70.8035155 -0.435531E+02  0.111E+01    0.30       1.0  T
   7    -65.4376342  0.536588E+01  0.110E+01    0.43       1.0  T
   8    -75.7333383 -0.102957E+02  0.101E+01    0.15       1.0  T
   9    -73.6631186  0.207022E+01  0.108E+01    0.16       1.0  T
  10   -101.7875677 -0.281244E+02  0.532E+00    0.05       1.0  T
  11   -102.9956251 -0.120806E+01  0.444E+00    0.17       1.0  T
  12   -101.9232381  0.107239E+01  0.451E+00    0.15       1.0  T
  13   -105.2297434 -0.330651E+01  0.289E+00    0.23       1.0  T
  14   -102.5327979  0.269695E+01  0.434E+00    0.13       1.0  T
  15   -103.3096660 -0.776868E+00  0.400E+00    0.13       1.0  T
  16   -104.1818560 -0.872190E+00  0.352E+00    0.10       1.0  T
  17   -101.2943609  0.288750E+01  0.465E+00    0.11       1.0  T
  18   -100.3732115  0.921149E+00  0.534E+00    0.20       1.0  T
  19   -100.1191707  0.254041E+00  0.539E+00    0.16       1.0  T
  20   -102.0154184 -0.189625E+01  0.466E+00    0.20       1.0  T
  21   -101.8620239  0.153395E+00  0.458E+00    0.17       1.0  T
  22   -103.9366565 -0.207463E+01  0.370E+00    0.16       1.0  T
  23   -104.3232672 -0.386611E+00  0.359E+00    0.21       1.0  T
  24   -104.9202233 -0.596956E+00  0.324E+00    0.25       1.0  T
  25   -105.4210755 -0.500852E+00  0.288E+00    0.28       1.0  T
  26   -104.8450955  0.575980E+00  0.316E+00    0.18       1.0  T
  27   -106.7365857 -0.189149E+01  0.151E+00    0.32       1.0  T
  28   -107.2250111 -0.488425E+00  0.497E-01    0.32       1.0  T
  29   -107.2668841 -0.418731E-01  0.308E-01    0.29       1.0  T
  30   -107.2826193 -0.157352E-01  0.156E-01    0.27       1.0  T
  31   -107.2840281 -0.140873E-02  0.133E-01    0.26       1.0  T
  32   -107.2860465 -0.201838E-02  0.989E-02    0.27       1.0  T
  33   -107.2881460 -0.209955E-02  0.364E-02    0.27       1.0  T
  34   -107.2884630 -0.317011E-03  0.518E-03    0.27       2.4  T
  35   -107.2884483  0.147156E-04  0.926E-03    0.27       1.4  T
  36   -107.2884689 -0.205489E-04  0.993E-04    0.27      12.6  T
  37   -107.2884688  0.923826E-07  0.113E-03    0.27      11.0  T
  38   -107.2884690 -0.271218E-06  0.392E-04    0.27      31.9  T
  39   -107.2884691 -0.230861E-07  0.238E-04    0.27      52.6  T
  40   -107.2884691 -0.960522E-08  0.127E-04    0.27      98.3  T
  41   -107.2884691 -0.372916E-08  0.287E-05    0.27     436.2  T

   *** convergence criteria satisfied after 41 iterations ***

         #    Occupation            Energy/Eh            Energy/eV
      -------------------------------------------------------------
         1        2.0000           -0.7675725             -20.8867
       ...           ...                  ...                  ...
        95        2.0000           -0.2329126              -6.3379
        96        2.0000           -0.2311874              -6.2909
        97        2.0000           -0.2289001              -6.2287
        98        2.0000           -0.2282724              -6.2116
        99        1.9998           -0.2249762              -6.1219
       100        1.9988           -0.2232240              -6.0742
       101        1.9894           -0.2211555              -6.0179 (HOMO)
       102        0.0117           -0.2113008              -5.7498 (LUMO)
       103        0.0002           -0.2075636              -5.6481
       104        0.0000           -0.2046108              -5.5677
       105                         -0.2000412              -5.4434
       106                         -0.1939941              -5.2788
       ...                                ...                  ...
       260                         15.2084956             413.8442
      -------------------------------------------------------------
                  HL-Gap            0.0098547 Eh            0.2682 eV
             Fermi-level           -0.2161783 Eh           -5.8825 eV

 SCC (total)                   0 d,  0 h,  0 min,  4.783 sec
 SCC setup                      ...        0 min,  0.003 sec (  0.072%)
 Dispersion                     ...        0 min,  0.002 sec (  0.031%)
 classical contributions        ...        0 min,  0.001 sec (  0.011%)
 integral evaluation            ...        0 min,  0.028 sec (  0.589%)
 iterations                     ...        0 min,  4.621 sec ( 96.608%)
 molecular gradient             ...        0 min,  0.093 sec (  1.944%)
 printout                       ...        0 min,  0.036 sec (  0.743%)

         :::::::::::::::::::::::::::::::::::::::::::::::::::::
         ::                     SUMMARY                     ::
         :::::::::::::::::::::::::::::::::::::::::::::::::::::
         :: total energy            -106.494211592355 Eh    ::
         :: total w/o Gsasa/hb      -106.490190301241 Eh    ::
         :: gradient norm              0.001647935196 Eh/a0 ::
         :: HOMO-LUMO gap              0.268161332891 eV    ::
         ::.................................................::
         :: SCC energy              -107.288469071499 Eh    ::
         :: -> electrostatic           0.589646868902 Eh    ::
         :: -> Gsolv                  -0.357093551098 Eh    ::
         ::    -> Gelec               -0.353072259984 Eh    ::
         ::    -> Gsasa               -0.006639078240 Eh    ::
         ::    -> Ghb                 -0.001627819545 Eh    ::
         ::    -> Gshift               0.004245606671 Eh    ::
         :: repulsion energy           0.855528917293 Eh    ::
         :: dispersion energy         -0.061271438149 Eh    ::
         :: halogen bond corr.         0.000000000000 Eh    ::
         :: add. restraining           0.000000000000 Eh    ::
         :: total charge              -3.000000000000 e     ::
         :::::::::::::::::::::::::::::::::::::::::::::::::::::

           -------------------------------------------------
          |                Property Printout                |
           -------------------------------------------------

    * Orbital Energies and Occupations

         #    Occupation            Energy/Eh            Energy/eV
      -------------------------------------------------------------
         1        2.0000           -0.7675725             -20.8867
       ...           ...                  ...                  ...
        89        2.0000           -0.2425673              -6.6006
        90        2.0000           -0.2416990              -6.5770
        91        2.0000           -0.2400490              -6.5321
        92        2.0000           -0.2371175              -6.4523
        93        2.0000           -0.2343481              -6.3769
        94        2.0000           -0.2336417              -6.3577
        95        2.0000           -0.2329126              -6.3379
        96        2.0000           -0.2311874              -6.2909
        97        2.0000           -0.2289001              -6.2287
        98        2.0000           -0.2282724              -6.2116
        99        1.9998           -0.2249762              -6.1219
       100        1.9988           -0.2232240              -6.0742
       101        1.9894           -0.2211555              -6.0179 (HOMO)
       102        0.0117           -0.2113008              -5.7498 (LUMO)
       103        0.0002           -0.2075636              -5.6481
       104        0.0000           -0.2046108              -5.5677
       105                         -0.2000412              -5.4434
       106                         -0.1939941              -5.2788
       107                         -0.1916513              -5.2151
       108                         -0.1905986              -5.1865
       109                         -0.1772907              -4.8243
       110                         -0.1766389              -4.8066
       111                         -0.1732469              -4.7143
       112                         -0.1614864              -4.3943
       ...                                ...                  ...
       260                         15.2084956             413.8442
      -------------------------------------------------------------
                  HL-Gap            0.0098547 Eh            0.2682 eV
             Fermi-level           -0.2161783 Eh           -5.8825 eV

  Mulliken/CM5 charges         n(s)   n(p)   n(d)
     1C    -0.05651 -0.20401   1.002  3.055  0.000
     2C     0.01563 -0.07833   1.026  2.958  0.000
     3S    -0.27666 -0.36770   1.900  4.385 -0.009
     4H    -0.01868  0.03190   1.019  0.000  0.000
     5H    -0.00203  0.05274   1.002  0.000  0.000
     6H    -0.00966  0.04249   1.010  0.000  0.000
     7H    -0.02888  0.02868   1.029  0.000  0.000
     8H    -0.03861  0.01660   1.039  0.000  0.000
     9C    -0.07002 -0.21803   1.005  3.065  0.000
    10C     0.02085 -0.07309   1.024  2.955  0.000
    11S    -0.34940 -0.42928   1.904  4.456 -0.011
    12H    -0.00900  0.04158   1.009  0.000  0.000
    13H    -0.00812  0.04431   1.008  0.000  0.000
    14H    -0.00679  0.04562   1.007  0.000  0.000
    15H    -0.03128  0.02319   1.031  0.000  0.000
    16H    -0.02037  0.03429   1.020  0.000  0.000
    17C    -0.05950 -0.20770   1.003  3.057  0.000
    18C     0.02339 -0.07061   1.023  2.954  0.000
    19S    -0.35785 -0.43887   1.900  4.469 -0.011
    20H    -0.01584  0.03462   1.016  0.000  0.000
    21H    -0.01292  0.03925   1.013  0.000  0.000
    22H     0.00928  0.06153   0.991  0.000  0.000
    23H    -0.04413  0.01092   1.044  0.000  0.000
    24H    -0.02524  0.02946   1.025  0.000  0.000
    25C    -0.05915 -0.20664   1.002  3.057  0.000
    26C     0.02442 -0.06927   1.022  2.953  0.000
    27S    -0.36728 -0.44535   1.899  4.479 -0.011
    28H    -0.01627  0.03580   1.016  0.000  0.000
    29H    -0.02029  0.03022   1.020  0.000  0.000
    30H    -0.00404  0.05097   1.004  0.000  0.000
    31H    -0.02773  0.02666   1.028  0.000  0.000
    32H    -0.04603  0.00908   1.046  0.000  0.000
    33C    -0.06006 -0.20806   1.002  3.058  0.000
    34C     0.02421 -0.06919   1.025  2.951  0.000
    35S    -0.34090 -0.41974   1.872  4.480 -0.012
    36H    -0.00142  0.05074   1.001  0.000  0.000
    37H    -0.01647  0.03581   1.016  0.000  0.000
    38H    -0.01334  0.03729   1.013  0.000  0.000
    39H    -0.01983  0.03767   1.020  0.000  0.000
    40H    -0.04598  0.00907   1.046  0.000  0.000
    41C    -0.07441 -0.22395   1.006  3.069  0.000
    42C    -0.04155 -0.14281   1.022  3.019  0.000
    43C     0.05297  0.11331   1.046  2.902  0.000
    44N    -0.29224 -0.64990   1.429  3.863  0.000
    45C     0.19717  0.29088   0.994  2.809  0.000
    46N    -0.26044 -0.53638   1.536  3.725  0.000
    47C     0.05790  0.08103   1.021  2.921  0.000
    48H     0.02282  0.07601   0.977  0.000  0.000
    49H     0.02499  0.07723   0.975  0.000  0.000
    50H     0.02605  0.07745   0.974  0.000  0.000
    51H     0.02275  0.08006   0.977  0.000  0.000
    52H     0.02525  0.08087   0.975  0.000  0.000
    53H     0.23203  0.42874   0.768  0.000  0.000
    54H     0.00815  0.08384   0.992  0.000  0.000
    55H     0.00117  0.06793   0.999  0.000  0.000
    56Fe   -0.03154  0.24714   0.154  0.968  6.909
    57Fe   -0.02526  0.26148   0.158  0.899  6.968
    58Fe   -0.02856  0.24213   0.153  0.943  6.933
    59Fe   -0.03100  0.24372   0.169  0.960  6.902
    60S    -0.07474 -0.29337   1.849  4.241 -0.016
    61S    -0.16295 -0.39348   1.865  4.317 -0.019
    62S    -0.09001 -0.32232   1.861  4.244 -0.015
    63S    -0.01733 -0.24850   1.860  4.173 -0.016
    64Ni   -0.17875  0.00425   0.599  0.697  8.883

Wiberg/Mayer (AO) data.
largest (>0.10) Wiberg bond orders for each atom

 ---------------------------------------------------------------------------
     #   Z sym  total        # sym  WBO       # sym  WBO       # sym  WBO
 ---------------------------------------------------------------------------
     1   6 C    3.989 --     2 C    1.018     6 H    0.988     4 H    0.985
                             5 H    0.974
     2   6 C    3.975 --     1 C    1.018     8 H    0.986     7 H    0.982
                             3 S    0.944
     3  16 S    2.049 --     2 C    0.944    57 Fe   0.772
     4   1 H    1.010 --     1 C    0.985
     5   1 H    1.055 --     1 C    0.974
     6   1 H    1.028 --     1 C    0.988
     7   1 H    1.025 --     2 C    0.982
     8   1 H    1.032 --     2 C    0.986
     9   6 C    3.991 --    10 C    1.018    13 H    0.988    14 H    0.988
                            12 H    0.985
    10   6 C    3.987 --     9 C    1.018    15 H    0.988    16 H    0.985
                            11 S    0.965
    11  16 S    1.941 --    10 C    0.965    56 Fe   0.604    54 H    0.104
    12   1 H    1.009 --     9 C    0.985
    13   1 H    1.030 --     9 C    0.988
    14   1 H    1.033 --     9 C    0.988
    15   1 H    1.027 --    10 C    0.988
    16   1 H    1.024 --    10 C    0.985
    17   6 C    3.993 --    18 C    1.016    21 H    0.988    20 H    0.986
                            22 H    0.982
    18   6 C    3.985 --    17 C    1.016    23 H    0.987    24 H    0.985
                            19 S    0.971
    19  16 S    1.923 --    18 C    0.971    58 Fe   0.698
    20   1 H    1.010 --    17 C    0.986
    21   1 H    1.032 --    17 C    0.988
    22   1 H    1.026 --    17 C    0.982
    23   1 H    1.034 --    18 C    0.987
    24   1 H    1.027 --    18 C    0.985
    25   6 C    3.988 --    26 C    1.016    28 H    0.988    29 H    0.985
                            30 H    0.971
    26   6 C    3.986 --    25 C    1.016    32 H    0.986    31 H    0.985
                            27 S    0.969
    27  16 S    1.901 --    26 C    0.969    59 Fe   0.683
    28   1 H    1.031 --    25 C    0.988
    29   1 H    1.010 --    25 C    0.985
    30   1 H    1.058 --    25 C    0.971
    31   1 H    1.022 --    26 C    0.985
    32   1 H    1.033 --    26 C    0.986
    33   6 C    3.992 --    34 C    1.016    37 H    0.988    36 H    0.987
                            38 H    0.986
    34   6 C    3.988 --    33 C    1.016    40 H    0.989    39 H    0.973
                            35 S    0.967
    35  16 S    1.916 --    34 C    0.967    64 Ni   0.737
    36   1 H    1.028 --    33 C    0.987
    37   1 H    1.033 --    33 C    0.988
    38   1 H    1.011 --    33 C    0.986
    39   1 H    1.055 --    34 C    0.973
    40   1 H    1.035 --    34 C    0.989
    41   6 C    3.997 --    42 C    1.000    48 H    0.989    49 H    0.988
                            50 H    0.988
    42   6 C    3.998 --    43 C    1.014    41 C    1.000    52 H    0.978
                            51 H    0.977
    43   6 C    3.916 --    47 C    1.578    44 N    1.144    42 C    1.014
                            45 C    0.102
    44   7 N    3.438 --    45 C    1.191    43 C    1.144    53 H    0.913
    45   6 C    3.894 --    46 N    1.472    44 N    1.191    54 H    0.937
                            43 C    0.102
    46   7 N    3.280 --    45 C    1.472    47 C    1.229    57 Fe   0.429
    47   6 C    3.963 --    43 C    1.578    46 N    1.229    55 H    0.973
    48   1 H    1.008 --    41 C    0.989
    49   1 H    1.010 --    41 C    0.988
    50   1 H    1.005 --    41 C    0.988
    51   1 H    1.007 --    42 C    0.977
    52   1 H    1.008 --    42 C    0.978
    53   1 H    0.950 --    44 N    0.913
    54   1 H    1.076 --    45 C    0.937    11 S    0.104
    55   1 H    1.044 --    47 C    0.973
    56  26 Fe   5.735 --    58 Fe   0.893    62 S    0.865    59 Fe   0.835
                            61 S    0.815    63 S    0.740    11 S    0.604
                            57 Fe   0.492    64 Ni   0.243
    57  26 Fe   4.557 --    62 S    0.818     3 S    0.772    63 S    0.516
                            56 Fe   0.492    64 Ni   0.435    46 N    0.429
                            59 Fe   0.400    58 Fe   0.288
    58  26 Fe   5.486 --    56 Fe   0.893    61 S    0.866    59 Fe   0.803
                            60 S    0.786    19 S    0.698    63 S    0.677
                            57 Fe   0.288    64 Ni   0.282
    59  26 Fe   5.622 --    62 S    0.844    56 Fe   0.835    58 Fe   0.803
                            60 S    0.781    61 S    0.766    27 S    0.683
                            57 Fe   0.400    64 Ni   0.262
    60  16 S    2.720 --    64 Ni   0.828    58 Fe   0.786    59 Fe   0.781
    61  16 S    2.633 --    58 Fe   0.866    56 Fe   0.815    59 Fe   0.766
    62  16 S    2.717 --    56 Fe   0.865    59 Fe   0.844    57 Fe   0.818
    63  16 S    2.752 --    56 Fe   0.740    58 Fe   0.677    64 Ni   0.651
                            57 Fe   0.516
    64  28 Ni   3.611 --    60 S    0.828    35 S    0.737    63 S    0.651
Note: The following floating-point exceptions are signalling: IEEE_UNDERFLOW_FLAG IEEE_DENORMAL
normal termination of xtb
                            57 Fe   0.435    58 Fe   0.282    59 Fe   0.262
                            56 Fe   0.243
 ---------------------------------------------------------------------------

Topologies differ in total number of bonds
Writing topology from bond orders to xtbtopo.mol

 dipole moment from electron density (au)
     X       Y       Z   
-308.5744 -64.6526-277.9573  total (Debye): 1068.315


           -------------------------------------------------
          | TOTAL ENERGY             -106.494211592355 Eh   |
          | GRADIENT NORM               0.001647935196 Eh/α |
          | HOMO-LUMO GAP               0.268161332891 eV   |
           -------------------------------------------------

------------------------------------------------------------------------
 * finished run on 2026/09/12 at 20:21:57.467     
------------------------------------------------------------------------
 total:
 * wall-time:     0 d,  0 h,  0 min,  4.833 sec
 *  cpu-time:     0 d,  0 h,  0 min,  5.907 sec
 * ratio c/w:     1.222 speedup
 SCF:
 * wall-time:     0 d,  0 h,  0 min,  4.785 sec
 *  cpu-time:     0 d,  0 h,  0 min,  5.619 sec
 * ratio c/w:     1.174 speedup

