      -----------------------------------------------------------      
     |                   =====================                   |     
     |                           x T B                           |     
     |                   =====================                   |     
     |                         S. Grimme                         |     
     |          Mulliken Center for Theoretical Chemistry        |     
     |                    University of Bonn                     |     
      -----------------------------------------------------------      

   * xtb version 6.6.1 (unknown) compiled by 'builduser@buildhost' on 2023-08-07

   xtb is free software: you can redistribute it and/or modify it under
   the terms of the GNU Lesser General Public License as published by
   the Free Software Foundation, either version 3 of the License, or
   (at your option) any later version.
   
   xtb is distributed in the hope that it will be useful,
   but WITHOUT ANY WARRANTY; without even the implied warranty of
   MERCHANTABILITY or FITNESS FOR A PARTICULAR PURPOSE.  See the
   GNU Lesser General Public License for more details.
   
   Cite this work as:
   * C. Bannwarth, E. Caldeweyher, S. Ehlert, A. Hansen, P. Pracht,
     J. Seibert, S. Spicher, S. Grimme, WIREs Comput. Mol. Sci., 2020, 11,
     e01493. DOI: 10.1002/wcms.1493
   
   for GFN2-xTB:
   * C. Bannwarth, S. Ehlert and S. Grimme., J. Chem. Theory Comput., 2019,
     15, 1652-1671. DOI: 10.1021/acs.jctc.8b01176
   for GFN1-xTB:
   * S. Grimme, C. Bannwarth, P. Shushkov, J. Chem. Theory Comput., 2017,
     13, 1989-2009. DOI: 10.1021/acs.jctc.7b00118
   for GFN0-xTB:
   * P. Pracht, E. Caldeweyher, S. Ehlert, S. Grimme, ChemRxiv, 2019, preprint.
     DOI: 10.26434/chemrxiv.8326202.v1
   for GFN-FF:
   * S. Spicher and S. Grimme, Angew. Chem. Int. Ed., 2020, 59, 15665-15673.
     DOI: 10.1002/anie.202004239
   
   for ALPB and GBSA implicit solvation:
   * S. Ehlert, M. Stahn, S. Spicher, S. Grimme, J. Chem. Theory Comput.,
     2021, 17, 4250-4261. DOI: 10.1021/acs.jctc.1c00471
   
   for DFT-D4:
   * E. Caldeweyher, C. Bannwarth and S. Grimme, J. Chem. Phys., 2017,
     147, 034112. DOI: 10.1063/1.4993215
   * E. Caldeweyher, S. Ehlert, A. Hansen, H. Neugebauer, S. Spicher,
     C. Bannwarth and S. Grimme, J. Chem. Phys., 2019, 150, 154122.
     DOI: 10.1063/1.5090222
   * E. Caldeweyher, J.-M. Mewes, S. Ehlert and S. Grimme, Phys. Chem. Chem. Phys.
     2020, 22, 8499-8512. DOI: 10.1039/D0CP00502A
   
   for sTDA-xTB:
   * S. Grimme and C. Bannwarth, J. Chem. Phys., 2016, 145, 054103.
     DOI: 10.1063/1.4959605
   
   in the mass-spec context:
   * V. Asgeirsson, C. Bauer and S. Grimme, Chem. Sci., 2017, 8, 4879.
     DOI: 10.1039/c7sc00601b
   * J. Koopman and S. Grimme, ACS Omega 2019, 4, 12, 15120-15133.
     DOI: 10.1021/acsomega.9b02011
   
   for metadynamics refer to:
   * S. Grimme, J. Chem. Theory Comput., 2019, 155, 2847-2862
     DOI: 10.1021/acs.jctc.9b00143
   
   for SPH calculations refer to:
   * S. Spicher and S. Grimme, J. Chem. Theory Comput., 2021, 17, 1701-1714
     DOI: 10.1021/acs.jctc.0c01306
   
   with help from (in alphabetical order)
   P. Atkinson, C. Bannwarth, F. Bohle, G. Brandenburg, E. Caldeweyher
   M. Checinski, S. Dohm, S. Ehlert, S. Ehrlich, I. Gerasimov, C. Hölzer
   A. Katbashev, J. Koopman, C. Lavigne, S. Lehtola, F. März, M. Müller,
   F. Musil, H. Neugebauer, J. Pisarek, C. Plett, P. Pracht, F. Pultar,
   J. Seibert, P. Shushkov, S. Spicher, M. Stahn, M. Steiner, T. Strunk,
   J. Stückrath, T. Rose, and J. Unsleber
   
 * started run on 2026/09/13 at 13:39:28.487     

           -------------------------------------------------
          |                Calculation Setup                |
           -------------------------------------------------

          program call               : xtb structure.xyz --gfn 1 --chrg -3 --uhf 1 --alpb water
          coordinate file            : structure.xyz
          omp threads                :                     8

   ID    Z sym.   atoms
    1    6 C      1, 2, 9, 10, 17, 18, 25, 26, 33, 34, 41-43, 45, 47, 65
    2   16 S      3, 11, 19, 27, 35, 60-63
    3    1 H      4-8, 12-16, 20-24, 28-32, 36-40, 48-55, 68
    4    7 N      44, 46
    5   26 Fe     56-59, 64
    6    8 O      66, 67

           -------------------------------------------------
          |                 G F N 1 - x T B                 |
           -------------------------------------------------

        Reference                      10.1021/acs.jctc.7b00118
      * Hamiltonian:
        H0-scaling (s, p, d)           1.850000    2.250000    2.000000
        zeta-weighting                 0.000000
      * Dispersion:
        s8                             2.400000
        a1                             0.630000
        a2                             5.000000
        s9                             0.000000
      * Repulsion:
        kExp                           1.500000
        rExp                           1.000000
      * Coulomb:
        alpha                          2.000000
        third order                    atomic
        anisotropic                    false
      * Halogen bond correction:
        rad-scale                      1.300000
        damping                        0.440000

      * Solvation model:               ALPB
        Solvent                        water
        Parameter file                 internal GFN1-xTB/ALPB
        Dielectric constant                8.0200E+01
        Reference state                gsolv [1 M gas/solution]
        Free energy shift                  4.2456E-03 Eh       2.6642E+00 kcal/mol
        Temperature                        2.9815E+02 K
        Density                            1.0000E+00 kg/L
        Solvent mass                       1.8000E+01 g/mol
        Interaction kernel             P16
        Born radius scaling (c1)           1.9452E+00
        Born radii integrator          GBOBC
        Born offset                        0.0000E+00 a0       0.0000E+00 AA
        H-bond correction              true
        Ion screening                  false
        Surface tension                    1.0000E-05 Eh       1.5569E+01 dyn/cm
        Grid points                               230 per atom

          ...................................................
          :                      SETUP                      :
          :.................................................:
          :  # basis functions                 288          :
          :  # atomic orbitals                 274          :
          :  # shells                          150          :
          :  # electrons                       217          :
          :  # halogen bonds                     0          :
          :  max. iterations                   250          :
          :  Hamiltonian                  GFN1-xTB          :
          :  restarted?                      false          :
          :  GBSA solvation                   true          :
          :  PC potential                    false          :
          :  electronic temp.          300.0000000     K    :
          :  accuracy                    1.0000000          :
          :  -> integral cutoff          0.2500000E+02      :
          :  -> integral neglect         0.1000000E-07      :
          :  -> SCF convergence          0.1000000E-05 Eh   :
          :  -> wf. convergence          0.2000000E-04 e    :
          :  Broyden damping             0.4000000          :
          ...................................................

 iter      E             dE          RMSdq      gap      omega  full diag
   1    -86.2225692 -0.862226E+02  0.154E+01    0.24       0.0  T
   2     55.9484823  0.142171E+03  0.280E+01    0.03       1.0  T
   3    -60.8776856 -0.116826E+03  0.180E+01    0.13       1.0  T
   4    -23.5574487  0.373202E+02  0.162E+01    0.18       1.0  T
   5    -58.1155993 -0.345582E+02  0.134E+01    0.47       1.0  T
   6    -93.1463431 -0.350307E+02  0.107E+01    0.03       1.0  T
   7    -69.9649333  0.231814E+02  0.119E+01    0.07       1.0  T
   8    -76.4347487 -0.646982E+01  0.113E+01    0.27       1.0  T
   9    -76.6338032 -0.199055E+00  0.110E+01    0.25       1.0  T
  10    -94.3736898 -0.177399E+02  0.905E+00    0.12       1.0  T
  11    -97.5504597 -0.317677E+01  0.823E+00    0.00       1.0  T
  12   -109.0403164 -0.114899E+02  0.587E+00    0.02       1.0  T
  13   -113.7362429 -0.469593E+01  0.476E+00    0.09       1.0  T
  14   -111.0183278  0.271792E+01  0.540E+00    0.04       1.0  T
  15   -100.8587174  0.101596E+02  0.760E+00    0.08       1.0  T
  16   -101.9482047 -0.108949E+01  0.733E+00    0.10       1.0  T
  17   -112.3278496 -0.103796E+02  0.514E+00    0.11       1.0  T
  18   -107.3628653  0.496498E+01  0.662E+00    0.10       1.0  T
  19   -107.7084590 -0.345594E+00  0.644E+00    0.04       1.0  T
  20    -92.8807974  0.148277E+02  0.913E+00    0.10       1.0  T
  21    -93.1550532 -0.274256E+00  0.907E+00    0.09       1.0  T
  22    -95.9399240 -0.278487E+01  0.862E+00    0.06       1.0  T
  23   -112.9527359 -0.170128E+02  0.477E+00    0.11       1.0  T
  24   -113.4500916 -0.497356E+00  0.458E+00    0.14       1.0  T
  25   -113.3363292  0.113762E+00  0.461E+00    0.12       1.0  T
  26   -110.7362005  0.260013E+01  0.540E+00    0.08       1.0  T
  27   -110.5829912  0.153209E+00  0.548E+00    0.09       1.0  T
  28   -110.3154948  0.267496E+00  0.554E+00    0.08       1.0  T
  29   -109.9819863  0.333509E+00  0.557E+00    0.07       1.0  T
  30   -106.7004500  0.328154E+01  0.654E+00    0.03       1.0  T
  31   -106.8440150 -0.143565E+00  0.650E+00    0.04       1.0  T
  32   -110.8674207 -0.402341E+01  0.514E+00    0.08       1.0  T
  33   -106.5116782  0.435574E+01  0.622E+00    0.06       1.0  T
  34   -115.5762347 -0.906456E+01  0.334E+00    0.14       1.0  T
  35   -100.1304815  0.154458E+02  0.756E+00    0.02       1.0  T
  36   -114.8021991 -0.146717E+02  0.349E+00    0.10       1.0  T
  37   -114.5601873  0.242012E+00  0.386E+00    0.17       1.0  T
  38   -112.4993217  0.206087E+01  0.440E+00    0.14       1.0  T
  39   -115.1426680 -0.264335E+01  0.356E+00    0.14       1.0  T
  40   -111.2857481  0.385692E+01  0.480E+00    0.13       1.0  T
  41   -115.7226475 -0.443690E+01  0.320E+00    0.15       1.0  T
  42   -118.2050169 -0.248237E+01  0.465E-01    0.16       1.0  T
  43   -118.0249264  0.180090E+00  0.971E-01    0.15       1.0  T
  44   -118.2107073 -0.185781E+00  0.447E-01    0.14       1.0  T
  45   -118.2107951 -0.878528E-04  0.446E-01    0.14       1.0  T
  46   -117.8067842  0.404011E+00  0.129E+00    0.15       1.0  T
  47   -118.2489751 -0.442191E+00  0.236E-01    0.15       1.0  T
  48   -118.2614115 -0.124364E-01  0.947E-02    0.15       1.0  T
  49   -118.2585360  0.287553E-02  0.143E-01    0.14       1.0  T
  50   -118.2526837  0.585228E-02  0.203E-01    0.14       1.0  T
  51   -118.2489449  0.373884E-02  0.235E-01    0.15       1.0  T
  52   -118.2618063 -0.128615E-01  0.868E-02    0.14       1.0  T
  53   -118.2634524 -0.164607E-02  0.371E-02    0.15       1.0  T
  54   -118.2637695 -0.317038E-03  0.142E-02    0.14       1.0  T
  55   -118.2638092 -0.397104E-04  0.719E-03    0.14       1.7  T
  56   -118.2638164 -0.721577E-05  0.495E-03    0.14       2.4  T
  57   -118.2638106  0.577560E-05  0.675E-03    0.14       1.8  T
  58   -118.2638139 -0.333881E-05  0.580E-03    0.14       2.1  T
  59   -118.2638153 -0.140532E-05  0.532E-03    0.14       2.3  T
  60   -118.2638219 -0.659008E-05  0.190E-03    0.14       6.4  T
  61   -118.2638224 -0.447447E-06  0.139E-03    0.14       8.7  T
  62   -118.2638229 -0.471572E-06  0.409E-04    0.14      29.6  T
  63   -118.2638229 -0.135483E-07  0.341E-04    0.14      35.6  T
  64   -118.2638229 -0.272625E-07  0.114E-04    0.14     106.2  T
  65   -118.2638229 -0.227669E-08  0.665E-05    0.14     182.3  T

   *** convergence criteria satisfied after 65 iterations ***

         #    Occupation            Energy/Eh            Energy/eV
      -------------------------------------------------------------
         1        2.0000           -0.8038275             -21.8733
       ...           ...                  ...                  ...
       103        2.0000           -0.2440661              -6.6414
       104        1.9998           -0.2418689              -6.5816
       105        1.9980           -0.2396964              -6.5225
       106        1.9055           -0.2359320              -6.4200
       107        1.8778           -0.2356600              -6.4126
       108        1.7723           -0.2349592              -6.3936
       109        1.3764           -0.2334544              -6.3526 (HOMO)
       110        0.0703           -0.2281322              -6.2078 (LUMO)
       111        0.0000           -0.2195957              -5.9755
       112        0.0000           -0.2186623              -5.9501
       113                         -0.2135648              -5.8114
       114                         -0.2086298              -5.6771
       ...                                ...                  ...
       274                         13.2022083             359.2504
      -------------------------------------------------------------
                  HL-Gap            0.0053223 Eh            0.1448 eV
             Fermi-level           -0.2321840 Eh           -6.3180 eV

 SCC (total)                   0 d,  0 h,  0 min,  7.664 sec
 SCC setup                      ...        0 min,  0.004 sec (  0.053%)
 Dispersion                     ...        0 min,  0.001 sec (  0.018%)
 classical contributions        ...        0 min,  0.000 sec (  0.002%)
 integral evaluation            ...        0 min,  0.031 sec (  0.411%)
 iterations                     ...        0 min,  7.396 sec ( 96.509%)
 molecular gradient             ...        0 min,  0.106 sec (  1.382%)
 printout                       ...        0 min,  0.124 sec (  1.624%)

         :::::::::::::::::::::::::::::::::::::::::::::::::::::
         ::                     SUMMARY                     ::
         :::::::::::::::::::::::::::::::::::::::::::::::::::::
         :: total energy            -117.407286461138 Eh    ::
         :: total w/o Gsasa/hb      -117.399721238276 Eh    ::
         :: gradient norm              0.188580577918 Eh/a0 ::
         :: HOMO-LUMO gap              0.144826652003 eV    ::
         ::.................................................::
         :: SCC energy              -118.263822898035 Eh    ::
         :: -> electrostatic           0.669509848780 Eh    ::
         :: -> Gsolv                  -0.362769513138 Eh    ::
         ::    -> Gelec               -0.355204290277 Eh    ::
         ::    -> Gsasa               -0.004951737939 Eh    ::
         ::    -> Ghb                 -0.006859091594 Eh    ::
         ::    -> Gshift               0.004245606671 Eh    ::
         :: repulsion energy           0.921988898738 Eh    ::
         :: dispersion energy         -0.065452461841 Eh    ::
         :: halogen bond corr.         0.000000000000 Eh    ::
         :: add. restraining           0.000000000000 Eh    ::
         :: total charge              -3.000000000000 e     ::
         :::::::::::::::::::::::::::::::::::::::::::::::::::::

           -------------------------------------------------
          |                Property Printout                |
           -------------------------------------------------

    * Orbital Energies and Occupations

         #    Occupation            Energy/Eh            Energy/eV
      -------------------------------------------------------------
         1        2.0000           -0.8038275             -21.8733
       ...           ...                  ...                  ...
        97        2.0000           -0.2552672              -6.9462
        98        2.0000           -0.2522912              -6.8652
        99        2.0000           -0.2495801              -6.7914
       100        2.0000           -0.2482164              -6.7543
       101        2.0000           -0.2459020              -6.6913
       102        2.0000           -0.2454184              -6.6782
       103        2.0000           -0.2440661              -6.6414
       104        1.9998           -0.2418689              -6.5816
       105        1.9980           -0.2396964              -6.5225
       106        1.9055           -0.2359320              -6.4200
       107        1.8778           -0.2356600              -6.4126
       108        1.7723           -0.2349592              -6.3936
       109        1.3764           -0.2334544              -6.3526 (HOMO)
       110        0.0703           -0.2281322              -6.2078 (LUMO)
       111        0.0000           -0.2195957              -5.9755
       112        0.0000           -0.2186623              -5.9501
       113                         -0.2135648              -5.8114
       114                         -0.2086298              -5.6771
       115                         -0.2057827              -5.5996
       116                         -0.1978346              -5.3834
       117                         -0.1928680              -5.2482
       118                         -0.1884959              -5.1292
       119                         -0.1740650              -4.7365
       120                         -0.1667434              -4.5373
       ...                                ...                  ...
       274                         13.2022083             359.2504
      -------------------------------------------------------------
                  HL-Gap            0.0053223 Eh            0.1448 eV
             Fermi-level           -0.2321840 Eh           -6.3180 eV

  Mulliken/CM5 charges         n(s)   n(p)   n(d)
     1C    -0.06208 -0.21036   1.004  3.058  0.000
     2C     0.01251 -0.08142   1.028  2.960  0.000
     3S    -0.30115 -0.38740   1.899  4.408 -0.006
     4H    -0.00735  0.04327   1.007  0.000  0.000
     5H     0.00717  0.05981   0.993  0.000  0.000
     6H    -0.00035  0.05166   1.000  0.000  0.000
     7H    -0.02129  0.03574   1.021  0.000  0.000
     8H    -0.02981  0.02546   1.030  0.000  0.000
     9C    -0.06918 -0.21712   1.005  3.064  0.000
    10C     0.01963 -0.07448   1.025  2.955  0.000
    11S    -0.32034 -0.40655   1.898  4.433 -0.010
    12H    -0.00659  0.04400   1.007  0.000  0.000
    13H    -0.00747  0.04479   1.007  0.000  0.000
    14H    -0.00343  0.04889   1.003  0.000  0.000
    15H    -0.03113  0.02347   1.031  0.000  0.000
    16H    -0.01277  0.04192   1.013  0.000  0.000
    17C    -0.06518 -0.21288   1.004  3.061  0.000
    18C     0.02334 -0.07039   1.023  2.953  0.000
    19S    -0.34707 -0.42774   1.898  4.460 -0.011
    20H    -0.01295  0.03761   1.013  0.000  0.000
    21H    -0.01093  0.04111   1.011  0.000  0.000
    22H     0.00371  0.05821   0.996  0.000  0.000
    23H    -0.03789  0.01718   1.038  0.000  0.000
    24H    -0.02100  0.03337   1.021  0.000  0.000
    25C    -0.06394 -0.21158   1.004  3.060  0.000
    26C     0.02351 -0.07012   1.023  2.953  0.000
    27S    -0.33615 -0.41626   1.898  4.449 -0.011
    28H    -0.01049  0.04150   1.010  0.000  0.000
    29H    -0.01447  0.03605   1.014  0.000  0.000
    30H     0.00370  0.05850   0.996  0.000  0.000
    31H    -0.02234  0.03204   1.022  0.000  0.000
    32H    -0.03800  0.01714   1.038  0.000  0.000
    33C    -0.06151 -0.20973   1.004  3.058  0.000
    34C     0.01680 -0.07794   1.029  2.955  0.000
    35S    -0.17254 -0.29795   1.888  4.291 -0.006
    36H     0.01085  0.06464   0.989  0.000  0.000
    37H    -0.00237  0.05005   1.002  0.000  0.000
    38H    -0.00508  0.04559   1.005  0.000  0.000
    39H    -0.00691  0.04836   1.007  0.000  0.000
    40H    -0.02366  0.03141   1.024  0.000  0.000
    41C    -0.06485 -0.21435   1.003  3.061  0.000
    42C    -0.03999 -0.14088   1.021  3.019  0.000
    43C     0.04918  0.10358   1.044  2.907  0.000
    44N    -0.37183 -0.71672   1.459  3.913  0.000
    45C     0.15785  0.18866   1.023  2.820  0.000
    46N    -0.37389 -0.65121   1.556  3.818  0.000
    47C     0.05764  0.07832   1.010  2.932  0.000
    48H     0.01860  0.07172   0.981  0.000  0.000
    49H     0.01781  0.07031   0.982  0.000  0.000
    50H     0.01102  0.06220   0.989  0.000  0.000
    51H     0.00710  0.06373   0.993  0.000  0.000
    52H     0.00612  0.06149   0.994  0.000  0.000
    53H     0.19362  0.38750   0.806  0.000  0.000
    54H    -0.03863  0.03363   1.039  0.000  0.000
    55H    -0.03187  0.03228   1.032  0.000  0.000
    56Fe   -0.03114  0.23123   0.142  0.928  6.961
    57Fe   -0.04137  0.29547   0.164  0.911  6.966
    58Fe   -0.03172  0.23916   0.149  0.949  6.934
    59Fe   -0.02989  0.24132   0.153  0.968  6.909
    60S    -0.12272 -0.35418   1.868  4.273 -0.018
    61S    -0.13763 -0.36553   1.865  4.291 -0.018
    62S     0.01281 -0.24243   1.854  4.148 -0.015
    63S    -0.03275 -0.22417   1.872  4.141  0.020
    64Fe   -0.02632  0.23909   0.121  0.916  6.989
    65C     0.60134  0.67532   0.967  2.432  0.000
    66O    -0.64797 -0.68572   1.744  4.904  0.000
    67O    -0.55029 -0.73887   1.589  4.961  0.000
    68H     0.44397  0.59921   0.556  0.000  0.000

Wiberg/Mayer (AO) data.
largest (>0.10) Wiberg bond orders for each atom

 ---------------------------------------------------------------------------
     #   Z sym  total        # sym  WBO       # sym  WBO       # sym  WBO
 ---------------------------------------------------------------------------
     1   6 C    3.993 --     2 C    1.016     6 H    0.988     4 H    0.986
                             5 H    0.983
     2   6 C    3.989 --     1 C    1.016     8 H    0.985     7 H    0.975
                             3 S    0.963
     3  16 S    1.985 --     2 C    0.963    57 Fe   0.831
     4   1 H    1.009 --     1 C    0.986
     5   1 H    1.024 --     1 C    0.983
     6   1 H    1.023 --     1 C    0.988
     7   1 H    1.025 --     2 C    0.975
     8   1 H    1.031 --     2 C    0.985
     9   6 C    3.992 --    10 C    1.017    13 H    0.988    14 H    0.988
                            12 H    0.985
    10   6 C    3.987 --     9 C    1.017    15 H    0.987    16 H    0.983
                            11 S    0.965
    11  16 S    1.992 --    10 C    0.965    56 Fe   0.760
    12   1 H    1.009 --     9 C    0.985
    13   1 H    1.028 --     9 C    0.988
    14   1 H    1.032 --     9 C    0.988
    15   1 H    1.029 --    10 C    0.987
    16   1 H    1.019 --    10 C    0.983
    17   6 C    3.989 --    18 C    1.017    21 H    0.989    20 H    0.986
                            22 H    0.973
    18   6 C    3.988 --    17 C    1.017    23 H    0.986    24 H    0.985
                            19 S    0.970
    19  16 S    1.949 --    18 C    0.970    58 Fe   0.721
    20   1 H    1.010 --    17 C    0.986
    21   1 H    1.027 --    17 C    0.989
    22   1 H    1.051 --    17 C    0.973
    23   1 H    1.031 --    18 C    0.986
    24   1 H    1.020 --    18 C    0.985
    25   6 C    3.989 --    26 C    1.017    28 H    0.989    29 H    0.986
                            30 H    0.971
    26   6 C    3.986 --    25 C    1.017    32 H    0.986    31 H    0.985
                            27 S    0.970
    27  16 S    1.960 --    26 C    0.970    59 Fe   0.720
    28   1 H    1.025 --    25 C    0.989
    29   1 H    1.010 --    25 C    0.986
    30   1 H    1.052 --    25 C    0.971
    31   1 H    1.020 --    26 C    0.985
    32   1 H    1.031 --    26 C    0.986
    33   6 C    3.993 --    34 C    1.022    37 H    0.988    38 H    0.985
                            36 H    0.981
    34   6 C    3.983 --    33 C    1.022    40 H    0.987    39 H    0.985
                            35 S    0.936
    35  16 S    2.285 --    34 C    0.936    64 Fe   0.656    57 Fe   0.470
    36   1 H    1.031 --    33 C    0.981
    37   1 H    1.024 --    33 C    0.988
    38   1 H    1.007 --    33 C    0.985
    39   1 H    1.015 --    34 C    0.985
    40   1 H    1.026 --    34 C    0.987
    41   6 C    3.997 --    42 C    1.000    50 H    0.989    49 H    0.987
                            48 H    0.986
    42   6 C    3.997 --    43 C    1.010    41 C    1.000    52 H    0.980
                            51 H    0.976
    43   6 C    3.916 --    47 C    1.601    44 N    1.097    42 C    1.010
    44   7 N    3.250 --    43 C    1.097    45 C    0.978    53 H    0.926
    45   6 C    3.822 --    46 N    1.201    44 N    0.978    54 H    0.953
                            57 Fe   0.558
    46   7 N    3.119 --    47 C    1.207    45 C    1.201    57 Fe   0.551
Note: The following floating-point exceptions are signalling: IEEE_UNDERFLOW_FLAG IEEE_DENORMAL
normal termination of xtb
    47   6 C    3.969 --    43 C    1.601    46 N    1.207    55 H    0.974
    48   1 H    1.012 --    41 C    0.986
    49   1 H    1.017 --    41 C    0.987
    50   1 H    1.007 --    41 C    0.989
    51   1 H    1.010 --    42 C    0.976
    52   1 H    1.011 --    42 C    0.980
    53   1 H    0.975 --    44 N    0.926
    54   1 H    1.036 --    45 C    0.953
    55   1 H    1.012 --    47 C    0.974
    56  26 Fe   5.152 --    61 S    0.841    11 S    0.760    58 Fe   0.751
                            59 Fe   0.715    62 S    0.628    63 S    0.471
                            64 Fe   0.403    57 Fe   0.323
    57  26 Fe   4.452 --     3 S    0.831    62 S    0.739    45 C    0.558
                            46 N    0.551    35 S    0.470    64 Fe   0.400
                            56 Fe   0.323    59 Fe   0.212
    58  26 Fe   5.165 --    61 S    0.837    60 S    0.779    56 Fe   0.751
                            19 S    0.721    59 Fe   0.646    64 Fe   0.644
                            63 S    0.531
    59  26 Fe   5.519 --    61 S    0.834    60 S    0.808    64 Fe   0.743
                            27 S    0.720    56 Fe   0.715    58 Fe   0.646
                            62 S    0.626    57 Fe   0.212
    60  16 S    2.669 --    64 Fe   0.860    59 Fe   0.808    58 Fe   0.779
    61  16 S    2.628 --    56 Fe   0.841    58 Fe   0.837    59 Fe   0.834
    62  16 S    2.775 --    57 Fe   0.739    64 Fe   0.649    56 Fe   0.628
                            59 Fe   0.626
    63  16 S    2.620 --    65 C    0.891    58 Fe   0.531    64 Fe   0.492
                            56 Fe   0.471
    64  26 Fe   5.148 --    60 S    0.860    59 Fe   0.743    35 S    0.656
                            62 S    0.649    58 Fe   0.644    63 S    0.492
                            56 Fe   0.403    57 Fe   0.400
    65   6 C    3.752 --    66 O    1.553    67 O    1.142    63 S    0.891
    66   8 O    1.818 --    65 C    1.553    67 O    0.117
    67   8 O    2.083 --    65 C    1.142    68 H    0.748    66 O    0.117
    68   1 H    0.800 --    67 O    0.748
 ---------------------------------------------------------------------------

Topologies differ in total number of bonds
Writing topology from bond orders to xtbtopo.mol

 dipole moment from electron density (au)
     X       Y       Z   
-301.4470 -63.5896-278.2934  total (Debye): 1055.242


           -------------------------------------------------
          | TOTAL ENERGY             -117.407286461138 Eh   |
          | GRADIENT NORM               0.188580577918 Eh/α |
          | HOMO-LUMO GAP               0.144826652003 eV   |
           -------------------------------------------------

------------------------------------------------------------------------
 * finished run on 2026/09/13 at 13:39:36.199     
------------------------------------------------------------------------
 total:
 * wall-time:     0 d,  0 h,  0 min,  7.711 sec
 *  cpu-time:     0 d,  0 h,  0 min,  8.963 sec
 * ratio c/w:     1.162 speedup
 SCF:
 * wall-time:     0 d,  0 h,  0 min,  7.665 sec
 *  cpu-time:     0 d,  0 h,  0 min,  8.685 sec
 * ratio c/w:     1.133 speedup

