      -----------------------------------------------------------      
     |                   =====================                   |     
     |                           x T B                           |     
     |                   =====================                   |     
     |                         S. Grimme                         |     
     |          Mulliken Center for Theoretical Chemistry        |     
     |                    University of Bonn                     |     
      -----------------------------------------------------------      

   * xtb version 6.6.1 (unknown) compiled by 'builduser@buildhost' on 2023-08-07

   xtb is free software: you can redistribute it and/or modify it under
   the terms of the GNU Lesser General Public License as published by
   the Free Software Foundation, either version 3 of the License, or
   (at your option) any later version.
   
   xtb is distributed in the hope that it will be useful,
   but WITHOUT ANY WARRANTY; without even the implied warranty of
   MERCHANTABILITY or FITNESS FOR A PARTICULAR PURPOSE.  See the
   GNU Lesser General Public License for more details.
   
   Cite this work as:
   * C. Bannwarth, E. Caldeweyher, S. Ehlert, A. Hansen, P. Pracht,
     J. Seibert, S. Spicher, S. Grimme, WIREs Comput. Mol. Sci., 2020, 11,
     e01493. DOI: 10.1002/wcms.1493
   
   for GFN2-xTB:
   * C. Bannwarth, S. Ehlert and S. Grimme., J. Chem. Theory Comput., 2019,
     15, 1652-1671. DOI: 10.1021/acs.jctc.8b01176
   for GFN1-xTB:
   * S. Grimme, C. Bannwarth, P. Shushkov, J. Chem. Theory Comput., 2017,
     13, 1989-2009. DOI: 10.1021/acs.jctc.7b00118
   for GFN0-xTB:
   * P. Pracht, E. Caldeweyher, S. Ehlert, S. Grimme, ChemRxiv, 2019, preprint.
     DOI: 10.26434/chemrxiv.8326202.v1
   for GFN-FF:
   * S. Spicher and S. Grimme, Angew. Chem. Int. Ed., 2020, 59, 15665-15673.
     DOI: 10.1002/anie.202004239
   
   for ALPB and GBSA implicit solvation:
   * S. Ehlert, M. Stahn, S. Spicher, S. Grimme, J. Chem. Theory Comput.,
     2021, 17, 4250-4261. DOI: 10.1021/acs.jctc.1c00471
   
   for DFT-D4:
   * E. Caldeweyher, C. Bannwarth and S. Grimme, J. Chem. Phys., 2017,
     147, 034112. DOI: 10.1063/1.4993215
   * E. Caldeweyher, S. Ehlert, A. Hansen, H. Neugebauer, S. Spicher,
     C. Bannwarth and S. Grimme, J. Chem. Phys., 2019, 150, 154122.
     DOI: 10.1063/1.5090222
   * E. Caldeweyher, J.-M. Mewes, S. Ehlert and S. Grimme, Phys. Chem. Chem. Phys.
     2020, 22, 8499-8512. DOI: 10.1039/D0CP00502A
   
   for sTDA-xTB:
   * S. Grimme and C. Bannwarth, J. Chem. Phys., 2016, 145, 054103.
     DOI: 10.1063/1.4959605
   
   in the mass-spec context:
   * V. Asgeirsson, C. Bauer and S. Grimme, Chem. Sci., 2017, 8, 4879.
     DOI: 10.1039/c7sc00601b
   * J. Koopman and S. Grimme, ACS Omega 2019, 4, 12, 15120-15133.
     DOI: 10.1021/acsomega.9b02011
   
   for metadynamics refer to:
   * S. Grimme, J. Chem. Theory Comput., 2019, 155, 2847-2862
     DOI: 10.1021/acs.jctc.9b00143
   
   for SPH calculations refer to:
   * S. Spicher and S. Grimme, J. Chem. Theory Comput., 2021, 17, 1701-1714
     DOI: 10.1021/acs.jctc.0c01306
   
   with help from (in alphabetical order)
   P. Atkinson, C. Bannwarth, F. Bohle, G. Brandenburg, E. Caldeweyher
   M. Checinski, S. Dohm, S. Ehlert, S. Ehrlich, I. Gerasimov, C. Hölzer
   A. Katbashev, J. Koopman, C. Lavigne, S. Lehtola, F. März, M. Müller,
   F. Musil, H. Neugebauer, J. Pisarek, C. Plett, P. Pracht, F. Pultar,
   J. Seibert, P. Shushkov, S. Spicher, M. Stahn, M. Steiner, T. Strunk,
   J. Stückrath, T. Rose, and J. Unsleber
   
 * started run on 2026/09/12 at 20:21:46.753     

           -------------------------------------------------
          |                Calculation Setup                |
           -------------------------------------------------

          program call               : xtb structure.xyz --gfn 1 --chrg -3 --uhf 0 --alpb water
          coordinate file            : structure.xyz
          omp threads                :                     8

   ID    Z sym.   atoms
    1    6 C      1, 2, 9, 10, 17, 18, 25, 26, 33, 34, 41-43, 45, 47, 65
    2   16 S      3, 11, 19, 27, 35, 60-63
    3    1 H      4-8, 12-16, 20-24, 28-32, 36-40, 48-55
    4    7 N      44, 46
    5   26 Fe     56-59, 64
    6    8 O      66, 67

           -------------------------------------------------
          |                 G F N 1 - x T B                 |
           -------------------------------------------------

        Reference                      10.1021/acs.jctc.7b00118
      * Hamiltonian:
        H0-scaling (s, p, d)           1.850000    2.250000    2.000000
        zeta-weighting                 0.000000
      * Dispersion:
        s8                             2.400000
        a1                             0.630000
        a2                             5.000000
        s9                             0.000000
      * Repulsion:
        kExp                           1.500000
        rExp                           1.000000
      * Coulomb:
        alpha                          2.000000
        third order                    atomic
        anisotropic                    false
      * Halogen bond correction:
        rad-scale                      1.300000
        damping                        0.440000

      * Solvation model:               ALPB
        Solvent                        water
        Parameter file                 internal GFN1-xTB/ALPB
        Dielectric constant                8.0200E+01
        Reference state                gsolv [1 M gas/solution]
        Free energy shift                  4.2456E-03 Eh       2.6642E+00 kcal/mol
        Temperature                        2.9815E+02 K
        Density                            1.0000E+00 kg/L
        Solvent mass                       1.8000E+01 g/mol
        Interaction kernel             P16
        Born radius scaling (c1)           1.9452E+00
        Born radii integrator          GBOBC
        Born offset                        0.0000E+00 a0       0.0000E+00 AA
        H-bond correction              true
        Ion screening                  false
        Surface tension                    1.0000E-05 Eh       1.5569E+01 dyn/cm
        Grid points                               230 per atom

          ...................................................
          :                      SETUP                      :
          :.................................................:
          :  # basis functions                 286          :
          :  # atomic orbitals                 272          :
          :  # shells                          148          :
          :  # electrons                       216          :
          :  # halogen bonds                     0          :
          :  max. iterations                   250          :
          :  Hamiltonian                  GFN1-xTB          :
          :  restarted?                      false          :
          :  GBSA solvation                   true          :
          :  PC potential                    false          :
          :  electronic temp.          300.0000000     K    :
          :  accuracy                    1.0000000          :
          :  -> integral cutoff          0.2500000E+02      :
          :  -> integral neglect         0.1000000E-07      :
          :  -> SCF convergence          0.1000000E-05 Eh   :
          :  -> wf. convergence          0.2000000E-04 e    :
          :  Broyden damping             0.4000000          :
          ...................................................

 iter      E             dE          RMSdq      gap      omega  full diag
   1    -86.1523761 -0.861524E+02  0.154E+01    0.07       0.0  T
   2     95.5377341  0.181690E+03  0.264E+01    0.01       1.0  T
   3   -110.5437417 -0.206081E+03  0.184E+01    0.11       1.0  T
   4    -51.4352281  0.591085E+02  0.144E+01    0.40       1.0  T
   5    -49.3919855  0.204324E+01  0.138E+01    0.02       1.0  T
   6    -46.3949975  0.299699E+01  0.137E+01    0.08       1.0  T
   7    -70.7797084 -0.243847E+02  0.117E+01    0.14       1.0  T
   8    -69.2350548  0.154465E+01  0.122E+01    0.06       1.0  T
   9   -100.9192659 -0.316842E+02  0.830E+00    0.16       1.0  T
  10    -84.7605416  0.161587E+02  0.100E+01    0.12       1.0  T
  11   -100.8161317 -0.160556E+02  0.805E+00    0.10       1.0  T
  12   -103.4340249 -0.261789E+01  0.717E+00    0.03       1.0  T
  13   -106.0283465 -0.259432E+01  0.653E+00    0.09       1.0  T
  14   -105.0936085  0.934738E+00  0.660E+00    0.21       1.0  T
  15   -106.7817426 -0.168813E+01  0.620E+00    0.17       1.0  T
  16   -116.0990587 -0.931732E+01  0.269E+00    0.09       1.0  T
  17   -115.9988552  0.100204E+00  0.259E+00    0.05       1.0  T
  18    -96.5627013  0.194362E+02  0.864E+00    0.08       1.0  T
  19   -101.3687588 -0.480606E+01  0.767E+00    0.02       1.0  T
  20   -112.3307364 -0.109620E+02  0.442E+00    0.08       1.0  T
  21   -115.6047937 -0.327406E+01  0.265E+00    0.16       1.0  T
  22   -112.7156301  0.288916E+01  0.416E+00    0.12       1.0  T
  23   -111.9145114  0.801119E+00  0.436E+00    0.14       1.0  T
  24   -114.5372456 -0.262273E+01  0.321E+00    0.09       1.0  T
  25   -115.1196567 -0.582411E+00  0.283E+00    0.17       1.0  T
  26   -116.8055403 -0.168588E+01  0.146E+00    0.17       1.0  T
  27   -114.0416971  0.276384E+01  0.337E+00    0.04       1.0  T
  28   -115.5774569 -0.153576E+01  0.249E+00    0.06       1.0  T
  29   -116.5453780 -0.967921E+00  0.170E+00    0.08       1.0  T
  30   -117.1398291 -0.594451E+00  0.828E-01    0.16       1.0  T
  31   -117.2779712 -0.138142E+00  0.433E-01    0.13       1.0  T
  32   -117.3093883 -0.314171E-01  0.237E-01    0.13       1.0  T
  33   -117.3190949 -0.970665E-02  0.147E-01    0.13       1.0  T
  34   -117.3193527 -0.257709E-03  0.139E-01    0.13       1.0  T
  35   -117.3224578 -0.310512E-02  0.888E-02    0.14       1.0  T
  36   -117.3240432 -0.158545E-02  0.440E-02    0.13       1.0  T
  37   -117.3241821 -0.138903E-03  0.373E-02    0.13       1.0  T
  38   -117.3242258 -0.436267E-04  0.346E-02    0.13       1.0  T
  39   -117.3243646 -0.138798E-03  0.257E-02    0.13       1.0  T
  40   -117.3244541 -0.895118E-04  0.176E-02    0.13       1.0  T
  41   -117.3245189 -0.648060E-04  0.834E-03    0.13       1.5  T
  42   -117.3245305 -0.116279E-04  0.491E-03    0.13       2.5  T
  43   -117.3245366 -0.609810E-05  0.132E-03    0.13       9.3  T
  44   -117.3245371 -0.461230E-06  0.221E-04    0.13      55.3  T
  45   -117.3245371 -0.607298E-08  0.151E-04    0.13      80.8  T
  46   -117.3245371  0.277178E-08  0.177E-04    0.13      69.2  T

   *** convergence criteria satisfied after 46 iterations ***

         #    Occupation            Energy/Eh            Energy/eV
      -------------------------------------------------------------
         1        2.0000           -0.7874270             -21.4270
       ...           ...                  ...                  ...
       102        2.0000           -0.2255338              -6.1371
       103        2.0000           -0.2244305              -6.1071
       104        2.0000           -0.2231450              -6.0721
       105        1.9997           -0.2196862              -5.9780
       106        1.9990           -0.2186230              -5.9490
       107        1.9939           -0.2169311              -5.9030
       108        1.8433           -0.2137759              -5.8171 (HOMO)
       109        0.1239           -0.2088525              -5.6832 (LUMO)
       110        0.0403           -0.2077429              -5.6530
       111        0.0000           -0.1994827              -5.4282
       112        0.0000           -0.1979538              -5.3866
       113        0.0000           -0.1969644              -5.3597
       ...           ...                  ...                  ...
       272                         15.6330071             425.3958
      -------------------------------------------------------------
                  HL-Gap            0.0049234 Eh            0.1340 eV
             Fermi-level           -0.2114340 Eh           -5.7534 eV

 SCC (total)                   0 d,  0 h,  0 min,  5.820 sec
 SCC setup                      ...        0 min,  0.006 sec (  0.099%)
 Dispersion                     ...        0 min,  0.001 sec (  0.025%)
 classical contributions        ...        0 min,  0.000 sec (  0.008%)
 integral evaluation            ...        0 min,  0.034 sec (  0.587%)
 iterations                     ...        0 min,  5.665 sec ( 97.343%)
 molecular gradient             ...        0 min,  0.081 sec (  1.384%)
 printout                       ...        0 min,  0.032 sec (  0.554%)

         :::::::::::::::::::::::::::::::::::::::::::::::::::::
         ::                     SUMMARY                     ::
         :::::::::::::::::::::::::::::::::::::::::::::::::::::
         :: total energy            -116.420090948498 Eh    ::
         :: total w/o Gsasa/hb      -116.415923026666 Eh    ::
         :: gradient norm              0.549781079982 Eh/a0 ::
         :: HOMO-LUMO gap              0.133972880369 eV    ::
         ::.................................................::
         :: SCC energy              -117.324537059980 Eh    ::
         :: -> electrostatic           0.706951474942 Eh    ::
         :: -> Gsolv                  -0.350733190456 Eh    ::
         ::    -> Gelec               -0.346565268624 Eh    ::
         ::    -> Gsasa               -0.006122948101 Eh    ::
         ::    -> Ghb                 -0.002290580402 Eh    ::
         ::    -> Gshift               0.004245606671 Eh    ::
         :: repulsion energy           0.970663944421 Eh    ::
         :: dispersion energy         -0.066217832940 Eh    ::
         :: halogen bond corr.         0.000000000000 Eh    ::
         :: add. restraining           0.000000000000 Eh    ::
         :: total charge              -2.999999999999 e     ::
         :::::::::::::::::::::::::::::::::::::::::::::::::::::

           -------------------------------------------------
          |                Property Printout                |
           -------------------------------------------------

    * Orbital Energies and Occupations

         #    Occupation            Energy/Eh            Energy/eV
      -------------------------------------------------------------
         1        2.0000           -0.7874270             -21.4270
       ...           ...                  ...                  ...
        96        2.0000           -0.2392406              -6.5101
        97        2.0000           -0.2366931              -6.4407
        98        2.0000           -0.2356659              -6.4128
        99        2.0000           -0.2349723              -6.3939
       100        2.0000           -0.2330295              -6.3411
       101        2.0000           -0.2269455              -6.1755
       102        2.0000           -0.2255338              -6.1371
       103        2.0000           -0.2244305              -6.1071
       104        2.0000           -0.2231450              -6.0721
       105        1.9997           -0.2196862              -5.9780
       106        1.9990           -0.2186230              -5.9490
       107        1.9939           -0.2169311              -5.9030
       108        1.8433           -0.2137759              -5.8171 (HOMO)
       109        0.1239           -0.2088525              -5.6832 (LUMO)
       110        0.0403           -0.2077429              -5.6530
       111        0.0000           -0.1994827              -5.4282
       112        0.0000           -0.1979538              -5.3866
       113        0.0000           -0.1969644              -5.3597
       114                         -0.1928975              -5.2490
       115                         -0.1844015              -5.0178
       116                         -0.1811335              -4.9289
       117                         -0.1780561              -4.8452
       118                         -0.1735733              -4.7232
       119                         -0.1724685              -4.6931
       ...                                ...                  ...
       272                         15.6330071             425.3958
      -------------------------------------------------------------
                  HL-Gap            0.0049234 Eh            0.1340 eV
             Fermi-level           -0.2114340 Eh           -5.7534 eV

  Mulliken/CM5 charges         n(s)   n(p)   n(d)
     1C    -0.06389 -0.21185   1.004  3.060  0.000
     2C     0.01836 -0.07554   1.025  2.957  0.000
     3S    -0.34466 -0.43356   1.900  4.453 -0.008
     4H    -0.01261  0.03792   1.013  0.000  0.000
     5H    -0.00042  0.05165   1.000  0.000  0.000
     6H    -0.01111  0.04108   1.011  0.000  0.000
     7H    -0.02332  0.03413   1.023  0.000  0.000
     8H    -0.03981  0.01530   1.040  0.000  0.000
     9C    -0.06829 -0.21627   1.004  3.064  0.000
    10C     0.02070 -0.07347   1.024  2.955  0.000
    11S    -0.34363 -0.42414   1.905  4.449 -0.011
    12H    -0.01022  0.04028   1.010  0.000  0.000
    13H    -0.01010  0.04232   1.010  0.000  0.000
    14H    -0.00570  0.04662   1.006  0.000  0.000
    15H    -0.03485  0.01977   1.035  0.000  0.000
    16H    -0.01543  0.03931   1.015  0.000  0.000
    17C    -0.06287 -0.21029   1.004  3.059  0.000
    18C     0.02404 -0.06952   1.023  2.953  0.000
    19S    -0.37079 -0.44867   1.900  4.481 -0.011
    20H    -0.01853  0.03188   1.019  0.000  0.000
    21H    -0.01645  0.03550   1.016  0.000  0.000
    22H     0.00016  0.05514   1.000  0.000  0.000
    23H    -0.04520  0.00978   1.045  0.000  0.000
    24H    -0.02669  0.02763   1.027  0.000  0.000
    25C    -0.06186 -0.20937   1.003  3.059  0.000
    26C     0.02458 -0.06877   1.023  2.953  0.000
    27S    -0.36185 -0.44135   1.899  4.474 -0.011
    28H    -0.01388  0.03811   1.014  0.000  0.000
    29H    -0.01917  0.03132   1.019  0.000  0.000
    30H    -0.00162  0.05331   1.002  0.000  0.000
    31H    -0.02735  0.02696   1.027  0.000  0.000
    32H    -0.04435  0.01067   1.044  0.000  0.000
    33C    -0.08099 -0.22787   1.015  3.066  0.000
    34C     0.04901 -0.03207   1.135  2.816  0.000
    35S    -0.11735 -0.25518   1.911  4.180  0.026
    36H     0.02492  0.08206   0.975  0.000  0.000
    37H     0.00825  0.06082   0.992  0.000  0.000
    38H     0.00091  0.05274   0.999  0.000  0.000
    39H     0.42632  0.68993   0.574  0.000  0.000
    40H     0.03565  0.12531   0.964  0.000  0.000
    41C    -0.07414 -0.22370   1.005  3.069  0.000
    42C    -0.04005 -0.14130   1.021  3.019  0.000
    43C     0.04166  0.10208   1.044  2.914  0.000
    44N    -0.29693 -0.65391   1.428  3.868  0.000
    45C     0.19217  0.28945   0.991  2.817  0.000
    46N    -0.21260 -0.44884   1.535  3.678  0.000
    47C     0.06516  0.09174   1.015  2.920  0.000
    48H     0.02007  0.07296   0.980  0.000  0.000
    49H     0.02265  0.07488   0.977  0.000  0.000
    50H     0.02209  0.07346   0.978  0.000  0.000
    51H     0.01786  0.07533   0.982  0.000  0.000
    52H     0.02060  0.07619   0.979  0.000  0.000
    53H     0.22329  0.41968   0.777  0.000  0.000
    54H     0.00113  0.07696   0.999  0.000  0.000
    55H    -0.00256  0.06588   1.003  0.000  0.000
    56Fe   -0.02846  0.24012   0.145  0.949  6.934
    57Fe   -0.03401  0.24577   0.127  0.829  7.078
    58Fe   -0.03100  0.24524   0.153  0.966  6.912
    59Fe   -0.03171  0.23958   0.154  0.960  6.918
    60S    -0.12448 -0.35317   1.869  4.274 -0.019
    61S    -0.15644 -0.38093   1.865  4.309 -0.018
    62S    -0.00488 -0.26828   1.858  4.161 -0.014
    63S    -0.11177 -0.34066   1.868  4.260 -0.017
    64Fe   -0.01452  0.26985   0.086  0.934  6.995
    65C     0.51586  0.50647   1.007  2.477  0.000
    66O    -0.64899 -0.77144   1.720  4.929  0.000
    67O    -0.70990 -0.88499   1.748  4.962  0.000

Wiberg/Mayer (AO) data.
largest (>0.10) Wiberg bond orders for each atom

 ---------------------------------------------------------------------------
     #   Z sym  total        # sym  WBO       # sym  WBO       # sym  WBO
 ---------------------------------------------------------------------------
     1   6 C    3.992 --     2 C    1.016     6 H    0.988     5 H    0.986
                             4 H    0.985
     2   6 C    3.986 --     1 C    1.016     8 H    0.987     7 H    0.981
                             3 S    0.961
     3  16 S    1.938 --     2 C    0.961    57 Fe   0.739
     4   1 H    1.010 --     1 C    0.985
     5   1 H    1.028 --     1 C    0.986
     6   1 H    1.033 --     1 C    0.988
     7   1 H    1.024 --     2 C    0.981
     8   1 H    1.034 --     2 C    0.987
     9   6 C    3.992 --    10 C    1.017    13 H    0.988    14 H    0.988
                            12 H    0.985
    10   6 C    3.986 --     9 C    1.017    15 H    0.988    16 H    0.984
                            11 S    0.966
    11  16 S    1.961 --    10 C    0.966    56 Fe   0.621
    12   1 H    1.009 --     9 C    0.985
    13   1 H    1.032 --     9 C    0.988
    14   1 H    1.033 --     9 C    0.988
    15   1 H    1.030 --    10 C    0.988
    16   1 H    1.023 --    10 C    0.984
    17   6 C    3.988 --    18 C    1.016    21 H    0.989    20 H    0.985
                            22 H    0.969
    18   6 C    3.986 --    17 C    1.016    23 H    0.986    24 H    0.985
                            19 S    0.969
    19  16 S    1.902 --    18 C    0.969    58 Fe   0.674
    20   1 H    1.010 --    17 C    0.985
    21   1 H    1.028 --    17 C    0.989
    22   1 H    1.058 --    17 C    0.969
    23   1 H    1.033 --    18 C    0.986
    24   1 H    1.022 --    18 C    0.985
    25   6 C    3.988 --    26 C    1.016    28 H    0.988    29 H    0.986
                            30 H    0.971
    26   6 C    3.986 --    25 C    1.016    32 H    0.986    31 H    0.985
                            27 S    0.969
    27  16 S    1.928 --    26 C    0.969    59 Fe   0.685
    28   1 H    1.029 --    25 C    0.988
    29   1 H    1.010 --    25 C    0.986
    30   1 H    1.057 --    25 C    0.971
    31   1 H    1.022 --    26 C    0.985
    32   1 H    1.033 --    26 C    0.986
    33   6 C    3.969 --    38 H    0.983    37 H    0.979    36 H    0.971
                            34 C    0.940
    34   6 C    3.801 --    40 H    0.943    33 C    0.940    35 S    0.810
                            65 C    0.464    39 H    0.316    67 O    0.113
    35  16 S    2.409 --    34 C    0.810    64 Fe   0.501    57 Fe   0.473
                            65 C    0.295    67 O    0.108
    36   1 H    1.047 --    33 C    0.971
    37   1 H    1.014 --    33 C    0.979
    38   1 H    1.010 --    33 C    0.983
    39   1 H    0.858 --    34 C    0.316    65 C    0.219    67 O    0.187
    40   1 H    1.029 --    34 C    0.943
    41   6 C    3.997 --    42 C    1.000    48 H    0.989    50 H    0.988
                            49 H    0.988
    42   6 C    3.998 --    43 C    1.013    41 C    1.000    52 H    0.978
                            51 H    0.978
    43   6 C    3.912 --    47 C    1.563    44 N    1.144    42 C    1.013
                            45 C    0.114
    44   7 N    3.432 --    45 C    1.181    43 C    1.144    53 H    0.917
    45   6 C    3.901 --    46 N    1.541    44 N    1.181    54 H    0.938
                            43 C    0.114
    46   7 N    3.222 --    45 C    1.541    47 C    1.252    57 Fe   0.223
    47   6 C    3.965 --    43 C    1.563    46 N    1.252    55 H    0.972
    48   1 H    1.009 --    41 C    0.989
    49   1 H    1.011 --    41 C    0.988
    50   1 H    1.005 --    41 C    0.988
    51   1 H    1.007 --    42 C    0.978
    52   1 H    1.009 --    42 C    0.978
    53   1 H    0.954 --    44 N    0.917
    54   1 H    1.075 --    45 C    0.938
    55   1 H    1.036 --    47 C    0.972
    56  26 Fe   5.630 --    63 S    0.848    61 S    0.811    58 Fe   0.787
                            59 Fe   0.693    62 S    0.672    11 S    0.621
                            64 Fe   0.583    57 Fe   0.378
    57  26 Fe   4.385 --    62 S    0.837     3 S    0.739    64 Fe   0.580
                            35 S    0.473    59 Fe   0.437    56 Fe   0.378
                            58 Fe   0.239    46 N    0.223    66 O    0.133
    58  26 Fe   5.756 --    61 S    0.835    63 S    0.815    60 S    0.804
                            56 Fe   0.787    59 Fe   0.750    19 S    0.674
                            64 Fe   0.621    57 Fe   0.239
    59  26 Fe   5.664 --    60 S    0.834    61 S    0.809    58 Fe   0.750
                            56 Fe   0.693    27 S    0.685    62 S    0.650
Note: The following floating-point exceptions are signalling: IEEE_UNDERFLOW_FLAG IEEE_DENORMAL
normal termination of xtb
                            64 Fe   0.591    57 Fe   0.437
    60  16 S    2.660 --    59 Fe   0.834    58 Fe   0.804    64 Fe   0.743
    61  16 S    2.577 --    58 Fe   0.835    56 Fe   0.811    59 Fe   0.809
    62  16 S    2.775 --    57 Fe   0.837    56 Fe   0.672    59 Fe   0.650
                            64 Fe   0.520
    63  16 S    2.678 --    56 Fe   0.848    58 Fe   0.815    64 Fe   0.769
    64  26 Fe   5.587 --    63 S    0.769    60 S    0.743    58 Fe   0.621
                            59 Fe   0.591    56 Fe   0.583    57 Fe   0.580
                            62 S    0.520    35 S    0.501    65 C    0.267
    65   6 C    3.654 --    66 O    1.183    67 O    1.000    34 C    0.464
                            35 S    0.295    64 Fe   0.267    39 H    0.219
    66   8 O    1.813 --    65 C    1.183    57 Fe   0.133
    67   8 O    1.707 --    65 C    1.000    39 H    0.187    34 C    0.113
                            35 S    0.108
 ---------------------------------------------------------------------------

Topologies differ in total number of bonds
Writing topology from bond orders to xtbtopo.mol

 dipole moment from electron density (au)
     X       Y       Z   
-306.2584 -63.0057-278.7310  total (Debye): 1064.670


           -------------------------------------------------
          | TOTAL ENERGY             -116.420090948498 Eh   |
          | GRADIENT NORM               0.549781079982 Eh/α |
          | HOMO-LUMO GAP               0.133972880369 eV   |
           -------------------------------------------------

------------------------------------------------------------------------
 * finished run on 2026/09/12 at 20:21:52.622     
------------------------------------------------------------------------
 total:
 * wall-time:     0 d,  0 h,  0 min,  5.869 sec
 *  cpu-time:     0 d,  0 h,  0 min,  7.088 sec
 * ratio c/w:     1.208 speedup
 SCF:
 * wall-time:     0 d,  0 h,  0 min,  5.822 sec
 *  cpu-time:     0 d,  0 h,  0 min,  6.787 sec
 * ratio c/w:     1.166 speedup

