67
C charge -3 CO2 pose transferred from 3B52
C      53.67413420     15.46880323     53.69832359
C      53.47765387     16.15772828     52.34854822
S      54.69571490     15.53886217     51.13961799
H      52.99004944     15.86180554     54.45797814
H      53.50721559     14.39281594     53.59816071
H      54.70044432     15.62102160     54.04251555
H      52.43647544     16.02204305     52.02182080
H      53.64197588     17.23675596     52.47440160
C      47.99209691      9.41894546     49.77683449
C      49.18658459     10.22983597     50.27684023
S      49.97917356     11.02780773     48.83804993
H      47.46568133      8.91505138     50.59449893
H      47.29049884     10.08028520     49.26426210
H      48.32861398      8.66813835     49.05803701
H      48.82793707     10.99423090     50.98063659
H      49.87068850      9.56676623     50.82294509
C      57.39793559      7.68515103     46.79652371
C      56.09561434      6.93320684     46.52472328
S      54.75014588      8.03633854     45.98368575
H      58.19824901      7.00476805     47.11107817
H      57.72057482      8.20779212     45.89130465
H      57.24206072      8.43412167     47.58446046
H      56.26641742      6.21218831     45.71175119
H      55.81679559      6.35311436     47.41708523
C      57.82332480      9.37662689     51.61963484
C      56.73742573      8.40234254     52.07883126
S      55.10873112      9.19510789     52.26088259
H      57.87088147     10.22857761     52.30435207
H      58.80735025      8.89495375     51.59226080
H      57.58801191      9.75343637     50.61597305
H      56.70675017      7.54409488     51.39057475
H      57.01298980      8.01126452     53.06948312
C      55.38692704     16.30756859     47.53815491
C      55.10870494     14.88275076     47.07358865
S      55.62948755     13.71489985     48.38706890
H      54.87631068     16.50190586     48.48869555
H      56.45949088     16.44240103     47.70228168
H      55.05223570     17.04420106     46.80022044
H      54.04988909     14.77721437     46.80699582
H      55.70522250     14.67288450     46.17581204
C      49.53306825     18.32626065     50.75002886
C      49.86062050     17.87464162     49.32032001
C      50.53320359     16.54044337     49.31826072
N      49.82642562     15.36056396     49.30211168
C      50.72216731     14.33694564     49.38461060
N      51.94802551     14.81251753     49.46239911
C      51.84399105     16.17661312     49.42197068
H      48.86799733     17.60738090     51.23061973
H      50.44684502     18.40529879     51.34193888
H      49.04152113     19.29851612     50.73350033
H      48.93467491     17.82919550     48.73905412
H      50.51568624     18.61593705     48.85137511
H      48.82959543     15.29062093     49.21744661
H      50.42533388     13.28574455     49.36213333
H      52.71565119     16.81353662     49.46641575
Fe     52.25485725     10.57958610     48.90016112
Fe     53.96498230     13.76677753     49.98756359
Fe     54.15405335      9.40012446     47.73589859
Fe     54.29310328      9.86662792     50.23207979
S      55.89470476     10.17278037     48.80502304
S      52.87486783      8.53642183     49.26719258
S      53.24722348     11.82975529     50.46596471
S      53.08909506     11.13923678     46.97992946
Fe     54.46153017     11.79056917     48.49996477
C      53.88751373     13.85062654     47.13427100
O      53.16907688     14.52413381     47.90564475
O      54.22447573     14.00616626     45.92511757
