      -----------------------------------------------------------      
     |                   =====================                   |     
     |                           x T B                           |     
     |                   =====================                   |     
     |                         S. Grimme                         |     
     |          Mulliken Center for Theoretical Chemistry        |     
     |                    University of Bonn                     |     
      -----------------------------------------------------------      

   * xtb version 6.6.1 (unknown) compiled by 'builduser@buildhost' on 2023-08-07

   xtb is free software: you can redistribute it and/or modify it under
   the terms of the GNU Lesser General Public License as published by
   the Free Software Foundation, either version 3 of the License, or
   (at your option) any later version.
   
   xtb is distributed in the hope that it will be useful,
   but WITHOUT ANY WARRANTY; without even the implied warranty of
   MERCHANTABILITY or FITNESS FOR A PARTICULAR PURPOSE.  See the
   GNU Lesser General Public License for more details.
   
   Cite this work as:
   * C. Bannwarth, E. Caldeweyher, S. Ehlert, A. Hansen, P. Pracht,
     J. Seibert, S. Spicher, S. Grimme, WIREs Comput. Mol. Sci., 2020, 11,
     e01493. DOI: 10.1002/wcms.1493
   
   for GFN2-xTB:
   * C. Bannwarth, S. Ehlert and S. Grimme., J. Chem. Theory Comput., 2019,
     15, 1652-1671. DOI: 10.1021/acs.jctc.8b01176
   for GFN1-xTB:
   * S. Grimme, C. Bannwarth, P. Shushkov, J. Chem. Theory Comput., 2017,
     13, 1989-2009. DOI: 10.1021/acs.jctc.7b00118
   for GFN0-xTB:
   * P. Pracht, E. Caldeweyher, S. Ehlert, S. Grimme, ChemRxiv, 2019, preprint.
     DOI: 10.26434/chemrxiv.8326202.v1
   for GFN-FF:
   * S. Spicher and S. Grimme, Angew. Chem. Int. Ed., 2020, 59, 15665-15673.
     DOI: 10.1002/anie.202004239
   
   for ALPB and GBSA implicit solvation:
   * S. Ehlert, M. Stahn, S. Spicher, S. Grimme, J. Chem. Theory Comput.,
     2021, 17, 4250-4261. DOI: 10.1021/acs.jctc.1c00471
   
   for DFT-D4:
   * E. Caldeweyher, C. Bannwarth and S. Grimme, J. Chem. Phys., 2017,
     147, 034112. DOI: 10.1063/1.4993215
   * E. Caldeweyher, S. Ehlert, A. Hansen, H. Neugebauer, S. Spicher,
     C. Bannwarth and S. Grimme, J. Chem. Phys., 2019, 150, 154122.
     DOI: 10.1063/1.5090222
   * E. Caldeweyher, J.-M. Mewes, S. Ehlert and S. Grimme, Phys. Chem. Chem. Phys.
     2020, 22, 8499-8512. DOI: 10.1039/D0CP00502A
   
   for sTDA-xTB:
   * S. Grimme and C. Bannwarth, J. Chem. Phys., 2016, 145, 054103.
     DOI: 10.1063/1.4959605
   
   in the mass-spec context:
   * V. Asgeirsson, C. Bauer and S. Grimme, Chem. Sci., 2017, 8, 4879.
     DOI: 10.1039/c7sc00601b
   * J. Koopman and S. Grimme, ACS Omega 2019, 4, 12, 15120-15133.
     DOI: 10.1021/acsomega.9b02011
   
   for metadynamics refer to:
   * S. Grimme, J. Chem. Theory Comput., 2019, 155, 2847-2862
     DOI: 10.1021/acs.jctc.9b00143
   
   for SPH calculations refer to:
   * S. Spicher and S. Grimme, J. Chem. Theory Comput., 2021, 17, 1701-1714
     DOI: 10.1021/acs.jctc.0c01306
   
   with help from (in alphabetical order)
   P. Atkinson, C. Bannwarth, F. Bohle, G. Brandenburg, E. Caldeweyher
   M. Checinski, S. Dohm, S. Ehlert, S. Ehrlich, I. Gerasimov, C. Hölzer
   A. Katbashev, J. Koopman, C. Lavigne, S. Lehtola, F. März, M. Müller,
   F. Musil, H. Neugebauer, J. Pisarek, C. Plett, P. Pracht, F. Pultar,
   J. Seibert, P. Shushkov, S. Spicher, M. Stahn, M. Steiner, T. Strunk,
   J. Stückrath, T. Rose, and J. Unsleber
   
 * started run on 2026/09/12 at 19:12:56.537     

           -------------------------------------------------
          |                Calculation Setup                |
           -------------------------------------------------

          program call               : xtb start.xyz --gfn 1 --chrg -4 --uhf 1 --alpb water --opt loose
          coordinate file            : start.xyz
          omp threads                :                     8

   ID    Z sym.   atoms
    1    6 C      1, 2, 9, 10, 17, 18, 25, 26, 33, 34, 41-43, 45, 47, 65
    2   16 S      3, 11, 19, 27, 35, 60-63
    3    1 H      4-8, 12-16, 20-24, 28-32, 36-40, 48-55
    4    7 N      44, 46
    5   26 Fe     56-59, 64
    6    8 O      66, 67

molecular fragmentation (1/2 indicates fragments):
1111111111111111111111111111111111111111111111111111111111111111112
# atoms in fragment 1/2:    66     1
 fragment masses (1/2) :      837.26       16.00
CMA distance (Bohr)    :   7.683
constraining FC (au)   :  0.0500

           -------------------------------------------------
          |                 G F N 1 - x T B                 |
           -------------------------------------------------

        Reference                      10.1021/acs.jctc.7b00118
      * Hamiltonian:
        H0-scaling (s, p, d)           1.850000    2.250000    2.000000
        zeta-weighting                 0.000000
      * Dispersion:
        s8                             2.400000
        a1                             0.630000
        a2                             5.000000
        s9                             0.000000
      * Repulsion:
        kExp                           1.500000
        rExp                           1.000000
      * Coulomb:
        alpha                          2.000000
        third order                    atomic
        anisotropic                    false
      * Halogen bond correction:
        rad-scale                      1.300000
        damping                        0.440000

      * Solvation model:               ALPB
        Solvent                        water
        Parameter file                 internal GFN1-xTB/ALPB
        Dielectric constant                8.0200E+01
        Reference state                gsolv [1 M gas/solution]
        Free energy shift                  4.2456E-03 Eh       2.6642E+00 kcal/mol
        Temperature                        2.9815E+02 K
        Density                            1.0000E+00 kg/L
        Solvent mass                       1.8000E+01 g/mol
        Interaction kernel             P16
        Born radius scaling (c1)           1.9452E+00
        Born radii integrator          GBOBC
        Born offset                        0.0000E+00 a0       0.0000E+00 AA
        H-bond correction              true
        Ion screening                  false
        Surface tension                    1.0000E-05 Eh       1.5569E+01 dyn/cm
        Grid points                               230 per atom

          ...................................................
          :                      SETUP                      :
          :.................................................:
          :  # basis functions                 286          :
          :  # atomic orbitals                 272          :
          :  # shells                          148          :
          :  # electrons                       217          :
          :  # halogen bonds                     0          :
          :  max. iterations                   250          :
          :  Hamiltonian                  GFN1-xTB          :
          :  restarted?                      false          :
          :  GBSA solvation                   true          :
          :  PC potential                    false          :
          :  electronic temp.          300.0000000     K    :
          :  accuracy                    1.0000000          :
          :  -> integral cutoff          0.2500000E+02      :
          :  -> integral neglect         0.1000000E-07      :
          :  -> SCF convergence          0.1000000E-05 Eh   :
          :  -> wf. convergence          0.2000000E-04 e    :
          :  Broyden damping             0.4000000          :
          ...................................................

 iter      E             dE          RMSdq      gap      omega  full diag
   1    -86.9716717 -0.869717E+02  0.155E+01    0.21       0.0  T
   2     31.7376151  0.118709E+03  0.277E+01    0.17       1.0  T
   3    -72.8984490 -0.104636E+03  0.129E+01    0.13       1.0  T
   4     -2.3715836  0.705269E+02  0.173E+01    0.40       1.0  T
   5    -61.0537604 -0.586822E+02  0.136E+01    0.16       1.0  T
   6    -53.9416390  0.711212E+01  0.128E+01    0.21       1.0  T
   7    -83.3630483 -0.294214E+02  0.105E+01    0.15       1.0  T
   8    -56.6838145  0.266792E+02  0.135E+01    0.27       1.0  T
   9    -95.9488094 -0.392650E+02  0.852E+00    0.11       1.0  T
  10    -75.3331100  0.206157E+02  0.106E+01    0.10       1.0  T
  11    -86.1422673 -0.108092E+02  0.980E+00    0.10       1.0  T
  12   -105.1299907 -0.189877E+02  0.706E+00    0.09       1.0  T
  13   -103.2737929  0.185620E+01  0.723E+00    0.09       1.0  T
  14   -102.0622770  0.121152E+01  0.718E+00    0.12       1.0  T
  15   -116.3723641 -0.143101E+02  0.289E+00    0.15       1.0  T
  16   -107.7215345  0.865083E+01  0.608E+00    0.18       1.0  T
  17   -108.4616954 -0.740161E+00  0.580E+00    0.18       1.0  T
  18    -98.4762143  0.998548E+01  0.813E+00    0.10       1.0  T
  19    -97.5951118  0.881102E+00  0.826E+00    0.04       1.0  T
  20   -115.3409876 -0.177459E+02  0.328E+00    0.23       1.0  T
  21   -116.2218944 -0.880907E+00  0.263E+00    0.14       1.0  T
  22   -116.6055563 -0.383662E+00  0.227E+00    0.16       1.0  T
  23   -113.1754565  0.343010E+01  0.428E+00    0.18       1.0  T
  24   -115.6795376 -0.250408E+01  0.291E+00    0.17       1.0  T
  25   -116.4860676 -0.806530E+00  0.229E+00    0.16       1.0  T
  26   -117.3610798 -0.875012E+00  0.121E+00    0.16       1.0  T
  27   -117.5415687 -0.180489E+00  0.862E-01    0.16       1.0  T
  28   -117.6810477 -0.139479E+00  0.462E-01    0.15       1.0  T
  29   -117.7158341 -0.347864E-01  0.261E-01    0.14       1.0  T
  30   -117.7097139  0.612022E-02  0.308E-01    0.14       1.0  T
  31   -117.7279365 -0.182226E-01  0.151E-01    0.14       1.0  T
  32   -117.7309929 -0.305642E-02  0.102E-01    0.14       1.0  T
  33   -117.7330839 -0.209096E-02  0.484E-02    0.14       1.0  T
  34   -117.7328721  0.211755E-03  0.563E-02    0.14       1.0  T
  35   -117.7335587 -0.686618E-03  0.229E-02    0.14       1.0  T
  36   -117.7336875 -0.128749E-03  0.436E-03    0.14       2.8  T
  37   -117.7336917 -0.418581E-05  0.155E-03    0.14       7.9  T
  38   -117.7336920 -0.357295E-06  0.102E-03    0.14      12.0  T
  39   -117.7336922 -0.135092E-06  0.698E-04    0.14      17.5  T
  40   -117.7336922 -0.539531E-07  0.509E-04    0.14      24.0  T
  41   -117.7336923 -0.669905E-07  0.665E-05    0.14     183.6  T
  42   -117.7336923 -0.166395E-09  0.580E-05    0.14     210.6  T

   *** convergence criteria satisfied after 42 iterations ***

         #    Occupation            Energy/Eh            Energy/eV
      -------------------------------------------------------------
         1        2.0000           -0.7530139             -20.4906
       ...           ...                  ...                  ...
       103        2.0000           -0.2141944              -5.8285
       104        2.0000           -0.2127307              -5.7887
       105        1.9999           -0.2109315              -5.7397
       106        1.9999           -0.2103361              -5.7235
       107        1.9996           -0.2090880              -5.6896
       108        1.9923           -0.2062701              -5.6129
       109        0.9423           -0.1970970              -5.3633 (HOMO)
       110        0.0645           -0.1920379              -5.2256 (LUMO)
       111        0.0013           -0.1882286              -5.1220
       112        0.0001           -0.1861775              -5.0661
       113        0.0000           -0.1848108              -5.0290
       114        0.0000           -0.1834654              -4.9923
       ...           ...                  ...                  ...
       272                         13.4784887             366.7683
      -------------------------------------------------------------
                  HL-Gap            0.0050592 Eh            0.1377 eV
             Fermi-level           -0.1981151 Eh           -5.3910 eV

 SCC (total)                   0 d,  0 h,  0 min,  5.715 sec
 SCC setup                      ...        0 min,  0.006 sec (  0.111%)
 Dispersion                     ...        0 min,  0.003 sec (  0.044%)
 classical contributions        ...        0 min,  0.001 sec (  0.009%)
 integral evaluation            ...        0 min,  0.048 sec (  0.837%)
 iterations                     ...        0 min,  5.411 sec ( 94.689%)
 molecular gradient             ...        0 min,  0.122 sec (  2.130%)
 printout                       ...        0 min,  0.124 sec (  2.179%)

         :::::::::::::::::::::::::::::::::::::::::::::::::::::
         ::                     SUMMARY                     ::
         :::::::::::::::::::::::::::::::::::::::::::::::::::::
         :: total energy            -116.917908500479 Eh    ::
         :: total w/o Gsasa/hb      -116.914963677546 Eh    ::
         :: gradient norm              0.329185678173 Eh/a0 ::
         :: HOMO-LUMO gap              0.137667637400 eV    ::
         ::.................................................::
         :: SCC energy              -117.733692271271 Eh    ::
         :: -> electrostatic           1.034281928693 Eh    ::
         :: -> Gsolv                  -0.632901771915 Eh    ::
         ::    -> Gelec               -0.629956948982 Eh    ::
         ::    -> Gsasa               -0.005758533770 Eh    ::
         ::    -> Ghb                 -0.001431895833 Eh    ::
         ::    -> Gshift               0.004245606671 Eh    ::
         :: repulsion energy           0.879657210798 Eh    ::
         :: dispersion energy         -0.063873440007 Eh    ::
         :: halogen bond corr.         0.000000000000 Eh    ::
         :: add. restraining           0.000000000000 Eh    ::
         :: total charge              -4.000000000000 e     ::
         :::::::::::::::::::::::::::::::::::::::::::::::::::::

      ----------------------------------------------------------- 
     |                   =====================                   |
     |                        A N C O P T                        |
     |                   =====================                   |
     |               Approximate Normal Coordinate               |
     |                Rational Function Optimizer                |
      ----------------------------------------------------------- 

          ...................................................
          :                      SETUP                      :
          :.................................................:
          :   optimization level             loose          :
          :   max. optcycles                   200          :
          :   ANC micro-cycles                  20          :
          :   degrees of freedom               195          :
          :.................................................:
          :   RF solver                   davidson          :
          :   write xtbopt.log                true          :
          :   linear?                        false          :
          :   energy convergence         0.5000000E-04 Eh   :
          :   grad. convergence          0.4000000E-02 Eh/α :
          :   maxmium RF displ.          1.0000000          :
          :   Hlow (freq-cutoff)         0.1000000E-01      :
          :   Hmax (freq-cutoff)         5.0000000          :
          :   S6 in model hess.         20.0000000          :
          ...................................................

generating ANC from model Hessian ...
Using Lindh-Hessian (1995)
 Shifting diagonal of input Hessian by    1.0951237735988113E-002
 Lowest  eigenvalues of input Hessian
    0.010000    0.010518    0.010794    0.010896    0.010935    0.000000
    0.000000    0.000000    0.000000    0.000000    0.000000    0.010962
    0.010990    0.011014    0.011052    0.011088    0.011216    0.011386
 Highest eigenvalues
    1.376603    1.520417    1.586160    1.789897    1.930880    2.295952


........................................................................
.............................. CYCLE    1 ..............................
........................................................................

 iter      E             dE          RMSdq      gap      omega  full diag
   1   -117.7336923 -0.117734E+03  0.121E-05    0.14       0.0  T
   2   -117.7336922  0.423047E-07  0.383E-04    0.14      31.9  T
   3   -117.7336923 -0.420562E-07  0.321E-05    0.14     381.1  T
   4   -117.7336923  0.115378E-09  0.378E-05    0.14     322.9  T
     SCC iter.                  ...        0 min,  0.546 sec
     gradient                   ...        0 min,  0.093 sec
 * total energy  :  -116.9179085 Eh     change       -0.4542358E-09 Eh
   gradient norm :     0.3291855 Eh/α   predicted     0.0000000E+00 (-100.00%)
   displ. norm   :     0.6205842 α      lambda       -0.1656384E+00
   maximum displ.:     0.2284874 α      in ANC's #146, #59, #140, ...

........................................................................
.............................. CYCLE    2 ..............................
........................................................................

 iter      E             dE          RMSdq      gap      omega  full diag
   1   -117.6882851 -0.117688E+03  0.801E-01    0.24       0.0  T
   2    -66.4595765  0.512287E+02  0.117E+01    0.21       1.0  T
   3   -100.1191258 -0.336595E+02  0.741E+00    0.03       1.0  T
   4   -117.5087305 -0.173896E+02  0.116E+00    0.13       1.0  T
   5   -114.4200482  0.308868E+01  0.340E+00    0.14       1.0  T
   6   -117.6924829 -0.327243E+01  0.844E-01    0.15       1.0  T
   7   -117.7019419 -0.945901E-02  0.776E-01    0.14       1.0  T
   8   -117.4811411  0.220801E+00  0.119E+00    0.11       1.0  T
   9   -117.7558358 -0.274695E+00  0.640E-01    0.14       1.0  T
  10   -117.7743384 -0.185026E-01  0.580E-01    0.14       1.0  T
  11   -117.7886602 -0.143218E-01  0.529E-01    0.14       1.0  T
  12   -117.8544217 -0.657615E-01  0.263E-01    0.16       1.0  T
  13   -117.8624977 -0.807600E-02  0.219E-01    0.18       1.0  T
  14   -117.8681234 -0.562567E-02  0.162E-01    0.18       1.0  T
  15   -117.8719201 -0.379669E-02  0.107E-01    0.17       1.0  T
  16   -117.8734232 -0.150319E-02  0.792E-02    0.17       1.0  T
  17   -117.8749599 -0.153670E-02  0.311E-02    0.17       1.0  T
  18   -117.8752166 -0.256663E-03  0.973E-03    0.17       1.3  T
  19   -117.8752286 -0.119421E-04  0.744E-03    0.17       1.6  T
  20   -117.8752390 -0.104563E-04  0.390E-03    0.17       3.1  T
  21   -117.8752395 -0.513789E-06  0.354E-03    0.17       3.4  T
  22   -117.8752427 -0.318538E-05  0.952E-04    0.17      12.8  T
  23   -117.8752429 -0.188835E-06  0.440E-04    0.17      27.8  T
  24   -117.8752429 -0.267517E-07  0.303E-04    0.17      40.3  T
  25   -117.8752430 -0.254363E-07  0.307E-05    0.17     398.4  T
  26   -117.8752430 -0.235204E-09  0.652E-06    0.17    1873.9  T
     SCC iter.                  ...        0 min,  3.317 sec
     gradient                   ...        0 min,  0.084 sec
 * total energy  :  -117.0314803 Eh     change       -0.1135718E+00 Eh
   gradient norm :     0.1203019 Eh/α   predicted    -0.1147587E+00 (   1.05%)
   displ. norm   :     0.6142284 α      lambda       -0.5985544E-01
   maximum displ.:     0.2271316 α      in ANC's #59, #139, #51, ...

........................................................................
.............................. CYCLE    3 ..............................
........................................................................

 iter      E             dE          RMSdq      gap      omega  full diag
   1   -117.7664156 -0.117766E+03  0.744E-01    0.23       0.0  T
   2    -64.5566293  0.532098E+02  0.120E+01    0.26       1.0  T
   3    -99.2440901 -0.346875E+02  0.760E+00    0.04       1.0  T
   4   -117.7168674 -0.184728E+02  0.899E-01    0.17       1.0  T
   5   -116.6806727  0.103619E+01  0.208E+00    0.21       1.0  T
   6   -117.8729484 -0.119228E+01  0.490E-01    0.17       1.0  T
   7   -117.7910806  0.818679E-01  0.695E-01    0.16       1.0  T
   8   -117.6621764  0.128904E+00  0.979E-01    0.13       1.0  T
   9   -117.8992593 -0.237083E+00  0.344E-01    0.17       1.0  T
  10   -117.9150192 -0.157599E-01  0.250E-01    0.17       1.0  T
  11   -117.9109756  0.404363E-02  0.269E-01    0.17       1.0  T
  12   -117.9233920 -0.124165E-01  0.177E-01    0.18       1.0  T
  13   -117.9310330 -0.764102E-02  0.861E-02    0.19       1.0  T
  14   -117.9317595 -0.726457E-03  0.684E-02    0.19       1.0  T
  15   -117.9325641 -0.804629E-03  0.389E-02    0.19       1.0  T
  16   -117.9325678 -0.368505E-05  0.382E-02    0.19       1.0  T
  17   -117.9328820 -0.314153E-03  0.191E-02    0.19       1.0  T
  18   -117.9329482 -0.661960E-04  0.113E-02    0.19       1.1  T
  19   -117.9329848 -0.366945E-04  0.112E-03    0.19      10.9  T
  20   -117.9329851 -0.219883E-06  0.664E-04    0.19      18.4  T
  21   -117.9329852 -0.951287E-07  0.328E-04    0.19      37.3  T
  22   -117.9329852 -0.205050E-07  0.175E-04    0.19      69.7  T
  23   -117.9329852 -0.612238E-08  0.930E-05    0.19     131.3  T
     SCC iter.                  ...        0 min,  2.859 sec
     gradient                   ...        0 min,  0.119 sec
 * total energy  :  -117.0792373 Eh     change       -0.4775699E-01 Eh
   gradient norm :     0.0668240 Eh/α   predicted    -0.4121888E-01 ( -13.69%)
   displ. norm   :     0.7111813 α      lambda       -0.4235005E-01
   maximum displ.:     0.2703059 α      in ANC's #59, #139, #46, ...

........................................................................
.............................. CYCLE    4 ..............................
........................................................................

 iter      E             dE          RMSdq      gap      omega  full diag
   1   -117.8933078 -0.117893E+03  0.474E-01    0.23       0.0  T
   2    -78.5815552  0.393118E+02  0.102E+01    0.07       1.0  T
   3   -116.7032940 -0.381217E+02  0.211E+00    0.16       1.0  T
   4   -117.8547253 -0.115143E+01  0.633E-01    0.21       1.0  T
   5   -116.6211201  0.123361E+01  0.218E+00    0.21       1.0  T
   6   -117.8410927 -0.121997E+01  0.675E-01    0.17       1.0  T
   7   -117.6491531  0.191940E+00  0.105E+00    0.22       1.0  T
   8   -117.8508869 -0.201734E+00  0.612E-01    0.17       1.0  T
   9   -117.9407771 -0.898902E-01  0.277E-01    0.19       1.0  T
  10   -117.9613473 -0.205703E-01  0.994E-02    0.20       1.0  T
  11   -117.9632571 -0.190976E-02  0.642E-02    0.20       1.0  T
  12   -117.9634023 -0.145206E-03  0.567E-02    0.21       1.0  T
  13   -117.9641220 -0.719736E-03  0.285E-02    0.21       1.0  T
  14   -117.9643010 -0.178975E-03  0.137E-02    0.21       1.0  T
  15   -117.9643443 -0.433058E-04  0.517E-03    0.21       2.4  T
  16   -117.9643486 -0.432840E-05  0.334E-03    0.21       3.7  T
  17   -117.9643500 -0.139087E-05  0.244E-03    0.21       5.0  T
  18   -117.9643515 -0.141904E-05  0.913E-04    0.21      13.4  T
  19   -117.9643516 -0.145228E-06  0.553E-04    0.21      22.1  T
  20   -117.9643516 -0.351296E-07  0.415E-04    0.21      29.5  T
  21   -117.9643517 -0.408183E-07  0.147E-04    0.21      83.1  T
  22   -117.9643517 -0.588111E-08  0.202E-05    0.21     604.5  T
     SCC iter.                  ...        0 min,  2.587 sec
     gradient                   ...        0 min,  0.118 sec
 * total energy  :  -117.1137450 Eh     change       -0.3450770E-01 Eh
   gradient norm :     0.0462693 Eh/α   predicted    -0.3188498E-01 (  -7.60%)
   displ. norm   :     0.7271607 α      lambda       -0.2826221E-01
   maximum displ.:     0.2439979 α      in ANC's #59, #139, #46, ...

........................................................................
.............................. CYCLE    5 ..............................
........................................................................

 iter      E             dE          RMSdq      gap      omega  full diag
   1   -117.9501630 -0.117950E+03  0.309E-01    0.22       0.0  T
   2    -84.8527385  0.330974E+02  0.946E+00    0.02       1.0  T
   3   -117.4589022 -0.326062E+02  0.137E+00    0.25       1.0  T
   4   -117.4955097 -0.366075E-01  0.131E+00    0.16       1.0  T
   5   -117.8672147 -0.371705E+00  0.664E-01    0.19       1.0  T
   6   -116.6492268  0.121799E+01  0.215E+00    0.20       1.0  T
   7   -117.8754286 -0.122620E+01  0.589E-01    0.18       1.0  T
   8   -117.8338778  0.415507E-01  0.709E-01    0.20       1.0  T
   9   -117.9555436 -0.121666E+00  0.292E-01    0.19       1.0  T
  10   -117.9703463 -0.148026E-01  0.193E-01    0.20       1.0  T
  11   -117.9786290 -0.828270E-02  0.103E-01    0.20       1.0  T
  12   -117.9808796 -0.225063E-02  0.542E-02    0.21       1.0  T
  13   -117.9814959 -0.616332E-03  0.241E-02    0.21       1.0  T
  14   -117.9815828 -0.868839E-04  0.142E-02    0.21       1.0  T
  15   -117.9816208 -0.379915E-04  0.802E-03    0.21       1.5  T
  16   -117.9816342 -0.134255E-04  0.453E-03    0.21       2.7  T
  17   -117.9816363 -0.205492E-05  0.357E-03    0.21       3.4  T
  18   -117.9816386 -0.231653E-05  0.208E-03    0.21       5.9  T
  19   -117.9816394 -0.778887E-06  0.121E-03    0.21      10.1  T
  20   -117.9816396 -0.263424E-06  0.690E-04    0.21      17.7  T
  21   -117.9816397 -0.111353E-06  0.246E-04    0.21      49.7  T
  22   -117.9816398 -0.135610E-07  0.100E-04    0.21     122.0  T
  23   -117.9816398 -0.262408E-08  0.176E-05    0.21     693.1  T
     SCC iter.                  ...        0 min,  2.937 sec
     gradient                   ...        0 min,  0.107 sec
 * total energy  :  -117.1369273 Eh     change       -0.2318231E-01 Eh
   gradient norm :     0.0357185 Eh/α   predicted    -0.2160310E-01 (  -6.81%)
   displ. norm   :     0.7373132 α      lambda       -0.1968481E-01
   maximum displ.:     0.2343521 α      in ANC's #139, #59, #46, ...

........................................................................
.............................. CYCLE    6 ..............................
........................................................................

 iter      E             dE          RMSdq      gap      omega  full diag
   1   -117.9802381 -0.117980E+03  0.227E-01    0.20       0.0  T
   2    -94.7020922  0.232781E+02  0.829E+00    0.03       1.0  T
   3   -117.2379693 -0.225359E+02  0.165E+00    0.25       1.0  T
   4   -117.3353892 -0.974200E-01  0.151E+00    0.14       1.0  T
   5   -117.8527855 -0.517396E+00  0.720E-01    0.19       1.0  T
   6   -117.3440911  0.508694E+00  0.152E+00    0.16       1.0  T
   7   -117.8987339 -0.554643E+00  0.586E-01    0.18       1.0  T
   8   -117.9129228 -0.141889E-01  0.544E-01    0.17       1.0  T
   9   -117.9768642 -0.639415E-01  0.264E-01    0.18       1.0  T
  10   -117.9831478 -0.628356E-02  0.215E-01    0.19       1.0  T
  11   -117.9922483 -0.910053E-02  0.123E-01    0.19       1.0  T
  12   -117.9944213 -0.217301E-02  0.854E-02    0.19       1.0  T
  13   -117.9957462 -0.132492E-02  0.501E-02    0.20       1.0  T
  14   -117.9963078 -0.561589E-03  0.212E-02    0.20       1.0  T
  15   -117.9963900 -0.821619E-04  0.893E-03    0.20       1.4  T
  16   -117.9964080 -0.180291E-04  0.335E-03    0.20       3.7  T
  17   -117.9964098 -0.175300E-05  0.220E-03    0.20       5.6  T
  18   -117.9964105 -0.730700E-06  0.147E-03    0.20       8.3  T
  19   -117.9964111 -0.577436E-06  0.272E-04    0.20      45.0  T
  20   -117.9964111 -0.131217E-07  0.161E-04    0.20      75.9  T
  21   -117.9964111 -0.444064E-08  0.993E-05    0.20     123.0  T
     SCC iter.                  ...        0 min,  2.663 sec
     gradient                   ...        0 min,  0.087 sec
 * total energy  :  -117.1529617 Eh     change       -0.1603437E-01 Eh
   gradient norm :     0.0238373 Eh/α   predicted    -0.1519304E-01 (  -5.25%)
   displ. norm   :     0.7143071 α      lambda       -0.1253388E-01
   maximum displ.:     0.2069571 α      in ANC's #45, #139, #29, ...

........................................................................
.............................. CYCLE    7 ..............................
........................................................................

 iter      E             dE          RMSdq      gap      omega  full diag
   1   -117.9846361 -0.117985E+03  0.217E-01    0.17       0.0  T
   2    -99.2386246  0.187460E+02  0.741E+00    0.05       1.0  T
   3   -116.7806777 -0.175421E+02  0.209E+00    0.22       1.0  T
   4   -117.6055729 -0.824895E+00  0.116E+00    0.12       1.0  T
   5   -117.6622003 -0.566274E-01  0.110E+00    0.15       1.0  T
   6   -117.7222506 -0.600503E-01  0.100E+00    0.13       1.0  T
   7   -117.9809167 -0.258666E+00  0.260E-01    0.15       1.0  T
   8   -117.9075141  0.734025E-01  0.570E-01    0.16       1.0  T
   9   -117.9858144 -0.783003E-01  0.222E-01    0.15       1.0  T
  10   -117.9899844 -0.417001E-02  0.184E-01    0.15       1.0  T
  11   -117.9957698 -0.578532E-02  0.120E-01    0.16       1.0  T
  12   -117.9976432 -0.187349E-02  0.887E-02    0.16       1.0  T
  13   -117.9991468 -0.150350E-02  0.515E-02    0.16       1.0  T
  14   -117.9994867 -0.339934E-03  0.372E-02    0.16       1.0  T
  15   -117.9997769 -0.290210E-03  0.168E-02    0.16       1.0  T
  16   -117.9998369 -0.599806E-04  0.812E-03    0.16       1.5  T
  17   -117.9998430 -0.613777E-05  0.657E-03    0.16       1.9  T
  18   -117.9998506 -0.761995E-05  0.401E-03    0.17       3.0  T
  19   -117.9998550 -0.432639E-05  0.799E-04    0.17      15.3  T
  20   -117.9998551 -0.134990E-06  0.373E-04    0.17      32.8  T
  21   -117.9998551 -0.330154E-07  0.125E-04    0.17      98.0  T
  22   -117.9998551 -0.346289E-08  0.532E-05    0.17     229.5  T
     SCC iter.                  ...        0 min,  2.819 sec
     gradient                   ...        0 min,  0.100 sec
 * total energy  :  -117.1619154 Eh     change       -0.8953700E-02 Eh
   gradient norm :     0.0375343 Eh/α   predicted    -0.9464547E-02 (   5.71%)
   displ. norm   :     0.5861792 α      lambda       -0.7759217E-02
   maximum displ.:     0.1783970 α      in ANC's #139, #59, #45, ...

........................................................................
.............................. CYCLE    8 ..............................
........................................................................

 iter      E             dE          RMSdq      gap      omega  full diag
   1   -117.9937498 -0.117994E+03  0.241E-01    0.17       0.0  T
   2    -94.8290658  0.231647E+02  0.849E+00    0.08       1.0  T
   3   -115.8622992 -0.210332E+02  0.271E+00    0.19       1.0  T
   4   -117.8691158 -0.200682E+01  0.698E-01    0.13       1.0  T
   5   -117.7423906  0.126725E+00  0.975E-01    0.16       1.0  T
   6   -117.9408732 -0.198483E+00  0.524E-01    0.15       1.0  T
   7   -117.6743470  0.266526E+00  0.108E+00    0.20       1.0  T
   8   -118.0044506 -0.330104E+00  0.160E-01    0.15       1.0  T
   9   -118.0055246 -0.107398E-02  0.142E-01    0.15       1.0  T
  10   -118.0084948 -0.297020E-02  0.100E-01    0.15       1.0  T
  11   -118.0101418 -0.164700E-02  0.646E-02    0.15       1.0  T
  12   -118.0109736 -0.831829E-03  0.379E-02    0.16       1.0  T
  13   -118.0111136 -0.139964E-03  0.305E-02    0.16       1.0  T
  14   -118.0112357 -0.122132E-03  0.220E-02    0.16       1.0  T
  15   -118.0113412 -0.105498E-03  0.112E-02    0.16       1.1  T
  16   -118.0113610 -0.198048E-04  0.739E-03    0.16       1.7  T
  17   -118.0113668 -0.579382E-05  0.576E-03    0.16       2.1  T
  18   -118.0113749 -0.811505E-05  0.198E-03    0.16       6.2  T
  19   -118.0113758 -0.882665E-06  0.872E-04    0.16      14.0  T
  20   -118.0113760 -0.137732E-06  0.518E-04    0.16      23.6  T
  21   -118.0113760 -0.718795E-07  0.815E-05    0.16     149.9  T
  22   -118.0113760 -0.158475E-08  0.222E-05    0.16     549.9  T
     SCC iter.                  ...        0 min,  2.658 sec
     gradient                   ...        0 min,  0.106 sec
 * total energy  :  -117.1667079 Eh     change       -0.4792486E-02 Eh
   gradient norm :     0.0299254 Eh/α   predicted    -0.5212665E-02 (   8.77%)
   displ. norm   :     0.5351621 α      lambda       -0.4962671E-02
   maximum displ.:     0.1724270 α      in ANC's #42, #59, #45, ...

........................................................................
.............................. CYCLE    9 ..............................
........................................................................

 iter      E             dE          RMSdq      gap      omega  full diag
   1   -117.9792359 -0.117979E+03  0.299E-01    0.16       0.0  T
   2    -86.0685584  0.319107E+02  0.990E+00    0.20       1.0  T
   3   -117.4660692 -0.313975E+02  0.139E+00    0.12       1.0  T
   4   -117.6792418 -0.213173E+00  0.108E+00    0.15       1.0  T
   5   -117.8999537 -0.220712E+00  0.629E-01    0.16       1.0  T
   6   -116.9007424  0.999211E+00  0.192E+00    0.23       1.0  T
   7   -117.9854295 -0.108469E+01  0.265E-01    0.14       1.0  T
   8   -117.9271866  0.582428E-01  0.524E-01    0.18       1.0  T
   9   -118.0025274 -0.753407E-01  0.912E-02    0.15       1.0  T
  10   -118.0030364 -0.509042E-03  0.810E-02    0.15       1.0  T
  11   -118.0042301 -0.119365E-02  0.484E-02    0.15       1.0  T
  12   -118.0048532 -0.623116E-03  0.123E-02    0.15       1.0  T
  13   -118.0048824 -0.291982E-04  0.678E-03    0.15       1.8  T
  14   -118.0048791  0.334197E-05  0.745E-03    0.15       1.6  T
  15   -118.0048901 -0.110176E-04  0.409E-03    0.15       3.0  T
  16   -118.0048939 -0.386112E-05  0.179E-03    0.15       6.8  T
  17   -118.0048946 -0.644541E-06  0.899E-04    0.15      13.6  T
  18   -118.0048947 -0.158519E-06  0.504E-04    0.15      24.2  T
  19   -118.0048948 -0.513380E-07  0.262E-04    0.15      46.7  T
  20   -118.0048948 -0.178249E-07  0.406E-05    0.15     300.8  T
  21   -118.0048948 -0.352117E-09  0.177E-05    0.15     691.9  T
     SCC iter.                  ...        0 min,  2.535 sec
     gradient                   ...        0 min,  0.093 sec
 * total energy  :  -117.1695994 Eh     change       -0.2891489E-02 Eh
   gradient norm :     0.0322289 Eh/α   predicted    -0.3192033E-02 (  10.39%)
   displ. norm   :     0.4285676 α      lambda       -0.2925577E-02
   maximum displ.:     0.1241479 α      in ANC's #22, #14, #1, ...

........................................................................
.............................. CYCLE   10 ..............................
........................................................................

 iter      E             dE          RMSdq      gap      omega  full diag
   1   -117.9923665 -0.117992E+03  0.261E-01    0.16       0.0  T
   2    -89.4665741  0.285258E+02  0.938E+00    0.13       1.0  T
   3   -117.0077101 -0.275411E+02  0.186E+00    0.11       1.0  T
   4   -117.9711380 -0.963428E+00  0.383E-01    0.15       1.0  T
   5   -116.8288437  0.114229E+01  0.202E+00    0.15       1.0  T
   6   -117.9714885 -0.114264E+01  0.378E-01    0.16       1.0  T
   7   -117.9498209  0.216676E-01  0.471E-01    0.12       1.0  T
   8   -117.9980734 -0.482525E-01  0.230E-01    0.15       1.0  T
   9   -118.0079916 -0.991819E-02  0.123E-01    0.14       1.0  T
  10   -118.0100454 -0.205378E-02  0.879E-02    0.14       1.0  T
  11   -118.0116655 -0.162009E-02  0.424E-02    0.15       1.0  T
  12   -118.0120996 -0.434093E-03  0.140E-02    0.15       1.0  T
  13   -118.0121368 -0.372649E-04  0.788E-03    0.15       1.6  T
  14   -118.0121463 -0.945053E-05  0.529E-03    0.15       2.3  T
  15   -118.0121497 -0.342985E-05  0.394E-03    0.15       3.1  T
  16   -118.0121527 -0.298672E-05  0.210E-03    0.15       5.8  T
  17   -118.0121535 -0.800615E-06  0.120E-03    0.15      10.2  T
  18   -118.0121536 -0.132871E-06  0.887E-04    0.15      13.8  T
  19   -118.0121538 -0.173874E-06  0.370E-04    0.15      33.0  T
  20   -118.0121538 -0.239920E-07  0.224E-04    0.15      54.6  T
  21   -118.0121538 -0.107185E-07  0.105E-04    0.15     116.5  T
  22   -118.0121538 -0.294129E-08  0.207E-05    0.15     591.6  T
     SCC iter.                  ...        0 min,  2.834 sec
     gradient                   ...        0 min,  0.084 sec
 * total energy  :  -117.1713852 Eh     change       -0.1785834E-02 Eh
   gradient norm :     0.0214345 Eh/α   predicted    -0.1731464E-02 (  -3.04%)
   displ. norm   :     0.4952236 α      lambda       -0.2663540E-02
   maximum displ.:     0.1406869 α      in ANC's #14, #22, #30, ...

........................................................................
.............................. CYCLE   11 ..............................
........................................................................

 iter      E             dE          RMSdq      gap      omega  full diag
   1   -117.9830293 -0.117983E+03  0.331E-01    0.15       0.0  T
   2    -89.5505964  0.284324E+02  0.947E+00    0.04       1.0  T
   3   -112.4385282 -0.228879E+02  0.428E+00    0.07       1.0  T
   4   -117.6430899 -0.520456E+01  0.115E+00    0.15       1.0  T
   5   -117.8535847 -0.210495E+00  0.766E-01    0.15       1.0  T
   6   -117.8782141 -0.246293E-01  0.706E-01    0.12       1.0  T
   7   -117.0982470  0.779967E+00  0.176E+00    0.26       1.0  T
   8   -118.0049411 -0.906694E+00  0.195E-01    0.14       1.0  T
   9   -118.0038924  0.104873E-02  0.197E-01    0.14       1.0  T
  10   -118.0112825 -0.739011E-02  0.110E-01    0.14       1.0  T
  11   -118.0146125 -0.332994E-02  0.161E-02    0.14       1.0  T
  12   -118.0145254  0.870282E-04  0.242E-02    0.14       1.0  T
  13   -118.0146219 -0.965091E-04  0.152E-02    0.14       1.0  T
  14   -118.0146787 -0.567757E-04  0.519E-03    0.14       2.4  T
  15   -118.0146848 -0.604952E-05  0.188E-03    0.14       6.5  T
  16   -118.0146853 -0.526395E-06  0.102E-03    0.14      12.0  T
  17   -118.0146854 -0.130031E-06  0.714E-04    0.14      17.1  T
  18   -118.0146855 -0.932550E-07  0.412E-04    0.14      29.6  T
  19   -118.0146856 -0.425406E-07  0.130E-04    0.14      94.2  T
  20   -118.0146856 -0.410878E-08  0.379E-05    0.14     322.0  T
     SCC iter.                  ...        0 min,  2.511 sec
     gradient                   ...        0 min,  0.082 sec
 * total energy  :  -117.1732092 Eh     change       -0.1824025E-02 Eh
   gradient norm :     0.0202965 Eh/α   predicted    -0.1658383E-02 (  -9.08%)
   displ. norm   :     0.5677037 α      lambda       -0.2195379E-02
   maximum displ.:     0.1793801 α      in ANC's #30, #14, #22, ...

........................................................................
.............................. CYCLE   12 ..............................
........................................................................

 iter      E             dE          RMSdq      gap      omega  full diag
   1   -117.9925690 -0.117993E+03  0.302E-01    0.14       0.0  T
   2    -96.0078604  0.219847E+02  0.831E+00    0.20       1.0  T
   3   -115.0942945 -0.190864E+02  0.321E+00    0.06       1.0  T
   4   -117.9210973 -0.282680E+01  0.594E-01    0.16       1.0  T
   5   -117.4275630  0.493534E+00  0.143E+00    0.09       1.0  T
   6   -117.9411751 -0.513612E+00  0.512E-01    0.15       1.0  T
   7   -117.7638902  0.177285E+00  0.937E-01    0.14       1.0  T
   8   -117.9821819 -0.218292E+00  0.357E-01    0.14       1.0  T
   9   -118.0007419 -0.185600E-01  0.243E-01    0.14       1.0  T
  10   -118.0112521 -0.105103E-01  0.144E-01    0.14       1.0  T
  11   -118.0161513 -0.489918E-02  0.544E-02    0.14       1.0  T
  12   -118.0167204 -0.569099E-03  0.317E-02    0.14       1.0  T
  13   -118.0168262 -0.105753E-03  0.245E-02    0.14       1.0  T
  14   -118.0169323 -0.106101E-03  0.147E-02    0.14       1.0  T
  15   -118.0169877 -0.554213E-04  0.373E-03    0.14       3.3  T
  16   -118.0169892 -0.151163E-05  0.284E-03    0.14       4.3  T
  17   -118.0169904 -0.120226E-05  0.189E-03    0.14       6.5  T
  18   -118.0169911 -0.732927E-06  0.941E-04    0.14      13.0  T
  19   -118.0169913 -0.194133E-06  0.409E-04    0.14      29.9  T
  20   -118.0169914 -0.371968E-07  0.175E-04    0.14      69.9  T
  21   -118.0169914 -0.682056E-08  0.755E-05    0.14     161.8  T
     SCC iter.                  ...        0 min,  2.519 sec
     gradient                   ...        0 min,  0.088 sec
 * total energy  :  -117.1751766 Eh     change       -0.1967356E-02 Eh
   gradient norm :     0.0236963 Eh/α   predicted    -0.1451463E-02 ( -26.22%)
   displ. norm   :     0.7833980 α      lambda       -0.3841750E-02
   maximum displ.:     0.2447933 α      in ANC's #30, #139, #22, ...

........................................................................
.............................. CYCLE   13 ..............................
........................................................................

 iter      E             dE          RMSdq      gap      omega  full diag
   1   -117.9798241 -0.117980E+03  0.381E-01    0.12       0.0  T
   2    -92.3154848  0.256643E+02  0.867E+00    0.24       1.0  T
   3   -116.8827216 -0.245672E+02  0.204E+00    0.13       1.0  T
   4   -117.9566748 -0.107395E+01  0.493E-01    0.15       1.0  T
   5   -117.5556315  0.401043E+00  0.127E+00    0.11       1.0  T
   6   -117.6563752 -0.100744E+00  0.112E+00    0.13       1.0  T
   7   -117.9127341 -0.256359E+00  0.593E-01    0.12       1.0  T
   8   -117.9764219 -0.636878E-01  0.392E-01    0.16       1.0  T
   9   -118.0007402 -0.243184E-01  0.252E-01    0.14       1.0  T
  10   -118.0139490 -0.132088E-01  0.123E-01    0.14       1.0  T
  11   -118.0178570 -0.390800E-02  0.336E-02    0.14       1.0  T
  12   -118.0175189  0.338097E-03  0.495E-02    0.14       1.0  T
  13   -118.0179102 -0.391276E-03  0.315E-02    0.14       1.0  T
  14   -118.0181673 -0.257099E-03  0.788E-03    0.14       1.5  T
  15   -118.0181790 -0.117391E-04  0.450E-03    0.14       2.7  T
  16   -118.0181840 -0.500834E-05  0.120E-03    0.14      10.2  T
  17   -118.0181843 -0.268431E-06  0.630E-04    0.14      19.4  T
  18   -118.0181844 -0.789235E-07  0.337E-04    0.14      36.3  T
  19   -118.0181844 -0.240777E-07  0.154E-04    0.14      79.3  T
  20   -118.0181844 -0.472811E-08  0.820E-05    0.14     148.9  T
     SCC iter.                  ...        0 min,  2.430 sec
     gradient                   ...        0 min,  0.127 sec
 * total energy  :  -117.1773597 Eh     change       -0.2183130E-02 Eh
   gradient norm :     0.0323932 Eh/α   predicted    -0.3099744E-02 (  41.99%)
   displ. norm   :     0.3648541 α      lambda       -0.5024990E-02
   maximum displ.:     0.1218204 α      in ANC's #29, #37, #24, ...

........................................................................
.............................. CYCLE   14 ..............................
........................................................................

 iter      E             dE          RMSdq      gap      omega  full diag
   1   -117.9763205 -0.117976E+03  0.387E-01    0.14       0.0  T
   2    -91.7231548  0.262532E+02  0.873E+00    0.06       1.0  T
   3   -115.6486408 -0.239255E+02  0.280E+00    0.22       1.0  T
   4   -117.9099282 -0.226129E+01  0.631E-01    0.12       1.0  T
   5   -116.8328344  0.107709E+01  0.203E+00    0.22       1.0  T
   6   -117.8898428 -0.105701E+01  0.691E-01    0.10       1.0  T
   7   -117.5360382  0.353805E+00  0.131E+00    0.13       1.0  T
   8   -118.0147929 -0.478755E+00  0.106E-01    0.13       1.0  T
   9   -118.0093115  0.548146E-02  0.167E-01    0.13       1.0  T
  10   -118.0134262 -0.411472E-02  0.114E-01    0.13       1.0  T
  11   -118.0163412 -0.291506E-02  0.551E-02    0.13       1.0  T
  12   -118.0171057 -0.764430E-03  0.243E-02    0.13       1.0  T
  13   -118.0170879  0.177454E-04  0.240E-02    0.13       1.0  T
  14   -118.0171817 -0.937633E-04  0.149E-02    0.13       1.0  T
  15   -118.0172404 -0.586871E-04  0.477E-03    0.13       2.6  T
  16   -118.0172441 -0.371134E-05  0.250E-03    0.13       4.9  T
  17   -118.0172444 -0.350433E-06  0.221E-03    0.13       5.5  T
  18   -118.0172456 -0.114801E-05  0.837E-04    0.13      14.6  T
  19   -118.0172457 -0.122008E-06  0.471E-04    0.13      26.0  T
  20   -118.0172458 -0.458002E-07  0.230E-04    0.13      53.1  T
  21   -118.0172458 -0.981252E-08  0.127E-04    0.13      96.6  T
  22   -118.0172458 -0.368188E-08  0.514E-05    0.13     237.7  T
     SCC iter.                  ...        0 min,  2.868 sec
     gradient                   ...        0 min,  0.107 sec
 * total energy  :  -117.1780276 Eh     change       -0.6678324E-03 Eh
   gradient norm :     0.0392031 Eh/α   predicted    -0.2846959E-02 ( 326.30%)
   displ. norm   :     0.2411250 α      lambda       -0.3887546E-02
   maximum displ.:     0.0752537 α      in ANC's #42, #45, #52, ...

........................................................................
.............................. CYCLE   15 ..............................
........................................................................

 iter      E             dE          RMSdq      gap      omega  full diag
   1   -118.0127338 -0.118013E+03  0.159E-01    0.13       0.0  T
   2   -112.1484059  0.586433E+01  0.457E+00    0.10       1.0  T
   3   -117.2258826 -0.507748E+01  0.165E+00    0.16       1.0  T
   4   -118.0080457 -0.782163E+00  0.210E-01    0.12       1.0  T
   5   -117.6296336  0.378412E+00  0.115E+00    0.18       1.0  T
   6   -118.0086003 -0.378967E+00  0.203E-01    0.12       1.0  T
   7   -118.0118483 -0.324801E-02  0.170E-01    0.13       1.0  T
   8   -117.9973206  0.145277E-01  0.281E-01    0.12       1.0  T
   9   -118.0184638 -0.211432E-01  0.666E-02    0.13       1.0  T
  10   -118.0193652 -0.901411E-03  0.349E-02    0.13       1.0  T
  11   -118.0196059 -0.240653E-03  0.185E-02    0.13       1.0  T
  12   -118.0195706  0.352385E-04  0.221E-02    0.13       1.0  T
  13   -118.0195995 -0.288245E-04  0.194E-02    0.13       1.0  T
  14   -118.0196893 -0.898218E-04  0.686E-03    0.13       1.8  T
  15   -118.0197010 -0.116847E-04  0.258E-03    0.13       4.7  T
  16   -118.0197024 -0.145994E-05  0.878E-04    0.13      13.9  T
  17   -118.0197025 -0.936992E-07  0.630E-04    0.13      19.4  T
  18   -118.0197026 -0.691557E-07  0.375E-04    0.13      32.6  T
  19   -118.0197026 -0.364963E-07  0.746E-05    0.13     163.8  T
  20   -118.0197026 -0.121484E-08  0.315E-05    0.13     387.3  T
     SCC iter.                  ...        0 min,  2.464 sec
     gradient                   ...        0 min,  0.091 sec
 * total energy  :  -117.1806396 Eh     change       -0.2612021E-02 Eh
   gradient norm :     0.0171563 Eh/α   predicted    -0.2056793E-02 ( -21.26%)
   displ. norm   :     0.4210893 α      lambda       -0.3364732E-02
   maximum displ.:     0.1363246 α      in ANC's #27, #29, #139, ...

........................................................................
.............................. CYCLE   16 ..............................
........................................................................

 iter      E             dE          RMSdq      gap      omega  full diag
   1   -118.0169996 -0.118017E+03  0.138E-01    0.13       0.0  T
   2   -109.1883068  0.882869E+01  0.541E+00    0.21       1.0  T
   3   -117.7364225 -0.854812E+01  0.100E+00    0.14       1.0  T
   4   -117.9530878 -0.216665E+00  0.504E-01    0.14       1.0  T
   5   -117.8390543  0.114034E+00  0.797E-01    0.12       1.0  T
   6   -117.8783232 -0.392689E-01  0.716E-01    0.13       1.0  T
   7   -117.9883467 -0.110024E+00  0.340E-01    0.15       1.0  T
   8   -118.0010045 -0.126578E-01  0.275E-01    0.13       1.0  T
   9   -118.0179461 -0.169416E-01  0.124E-01    0.14       1.0  T
  10   -118.0210131 -0.306702E-02  0.632E-02    0.14       1.0  T
  11   -118.0215936 -0.580454E-03  0.426E-02    0.14       1.0  T
  12   -118.0220424 -0.448786E-03  0.119E-02    0.14       1.0  T
  13   -118.0220698 -0.274076E-04  0.593E-03    0.14       2.1  T
  14   -118.0220766 -0.684348E-05  0.342E-03    0.14       3.6  T
  15   -118.0220785 -0.192692E-05  0.213E-03    0.14       5.7  T
  16   -118.0220796 -0.104305E-05  0.902E-04    0.14      13.5  T
  17   -118.0220798 -0.179021E-06  0.433E-04    0.14      28.2  T
  18   -118.0220798 -0.435379E-07  0.181E-04    0.14      67.4  T
  19   -118.0220798 -0.646261E-08  0.101E-04    0.14     121.3  T
     SCC iter.                  ...        0 min,  2.432 sec
     gradient                   ...        0 min,  0.098 sec
 * total energy  :  -117.1821934 Eh     change       -0.1553846E-02 Eh
   gradient norm :     0.0204495 Eh/α   predicted    -0.1980676E-02 (  27.47%)
   displ. norm   :     0.3019970 α      lambda       -0.2264997E-02
   maximum displ.:     0.0971021 α      in ANC's #1, #29, #24, ...

........................................................................
.............................. CYCLE   17 ..............................
........................................................................

 iter      E             dE          RMSdq      gap      omega  full diag
   1   -118.0181177 -0.118018E+03  0.147E-01    0.13       0.0  T
   2   -104.9391202  0.130790E+02  0.643E+00    0.16       1.0  T
   3   -117.8315466 -0.128924E+02  0.813E-01    0.13       1.0  T
   4   -117.9058754 -0.743288E-01  0.646E-01    0.10       1.0  T
   5   -117.1935637  0.712312E+00  0.170E+00    0.18       1.0  T
   6   -118.0067085 -0.813145E+00  0.259E-01    0.11       1.0  T
   7   -117.9659996  0.407088E-01  0.456E-01    0.12       1.0  T
   8   -118.0155080 -0.495083E-01  0.177E-01    0.12       1.0  T
   9   -118.0216391 -0.613114E-02  0.976E-02    0.12       1.0  T
  10   -118.0213404  0.298751E-03  0.103E-01    0.12       1.0  T
  11   -118.0226969 -0.135650E-02  0.750E-02    0.12       1.0  T
  12   -118.0238163 -0.111940E-02  0.388E-02    0.12       1.0  T
  13   -118.0239978 -0.181478E-03  0.285E-02    0.12       1.0  T
  14   -118.0241073 -0.109513E-03  0.201E-02    0.12       1.0  T
  15   -118.0241863 -0.790421E-04  0.104E-02    0.13       1.2  T
  16   -118.0242149 -0.285552E-04  0.218E-03    0.13       5.6  T
  17   -118.0242157 -0.883431E-06  0.114E-03    0.13      10.8  T
  18   -118.0242159 -0.190084E-06  0.763E-04    0.13      16.0  T
  19   -118.0242161 -0.131550E-06  0.312E-04    0.13      39.2  T
  20   -118.0242161 -0.237203E-07  0.983E-05    0.13     124.2  T
  21   -118.0242161 -0.232436E-08  0.332E-05    0.13     368.3  T
     SCC iter.                  ...        0 min,  2.651 sec
     gradient                   ...        0 min,  0.099 sec
 * total energy  :  -117.1838272 Eh     change       -0.1633738E-02 Eh
   gradient norm :     0.0153490 Eh/α   predicted    -0.1235786E-02 ( -24.36%)
   displ. norm   :     0.4609974 α      lambda       -0.2145951E-02
   maximum displ.:     0.1807244 α      in ANC's #1, #29, #24, ...

........................................................................
.............................. CYCLE   18 ..............................
........................................................................

 iter      E             dE          RMSdq      gap      omega  full diag
   1   -118.0033253 -0.118003E+03  0.279E-01    0.13       0.0  T
   2    -90.7632750  0.272401E+02  0.913E+00    0.12       1.0  T
   3   -117.6979564 -0.269347E+02  0.109E+00    0.09       1.0  T
   4   -117.6229946  0.749617E-01  0.119E+00    0.12       1.0  T
   5   -117.9100166 -0.287022E+00  0.656E-01    0.12       1.0  T
   6   -117.2150282  0.694988E+00  0.168E+00    0.05       1.0  T
   7   -117.9713802 -0.756352E+00  0.435E-01    0.11       1.0  T
   8   -117.9981284 -0.267482E-01  0.311E-01    0.12       1.0  T
   9   -118.0202061 -0.220777E-01  0.151E-01    0.12       1.0  T
  10   -118.0232651 -0.305900E-02  0.106E-01    0.12       1.0  T
  11   -118.0252503 -0.198525E-02  0.657E-02    0.12       1.0  T
  12   -118.0260699 -0.819549E-03  0.353E-02    0.12       1.0  T
  13   -118.0263099 -0.240004E-03  0.176E-02    0.12       1.0  T
  14   -118.0263753 -0.653817E-04  0.688E-03    0.12       1.8  T
  15   -118.0263833 -0.801890E-05  0.408E-03    0.12       3.0  T
  16   -118.0263869 -0.361677E-05  0.197E-03    0.12       6.2  T
  17   -118.0263875 -0.629783E-06  0.126E-03    0.12       9.7  T
  18   -118.0263879 -0.329838E-06  0.624E-04    0.12      19.6  T
  19   -118.0263880 -0.936607E-07  0.233E-04    0.12      52.3  T
  20   -118.0263880 -0.133437E-07  0.842E-05    0.12     145.1  T
  21   -118.0263880 -0.159760E-08  0.357E-05    0.12     342.5  T
     SCC iter.                  ...        0 min,  2.778 sec
     gradient                   ...        0 min,  0.102 sec
 * total energy  :  -117.1854036 Eh     change       -0.1576423E-02 Eh
   gradient norm :     0.0149774 Eh/α   predicted    -0.1301011E-02 ( -17.47%)
   displ. norm   :     0.5057655 α      lambda       -0.1707521E-02
   maximum displ.:     0.1866420 α      in ANC's #1, #29, #24, ...

........................................................................
.............................. CYCLE   19 ..............................
........................................................................

 iter      E             dE          RMSdq      gap      omega  full diag
   1   -118.0123790 -0.118012E+03  0.215E-01    0.13       0.0  T
   2    -96.3186454  0.216937E+02  0.817E+00    0.02       1.0  T
   3   -117.6142321 -0.212956E+02  0.123E+00    0.07       1.0  T
   4   -117.6811869 -0.669548E-01  0.112E+00    0.14       1.0  T
   5   -117.9920149 -0.310828E+00  0.374E-01    0.11       1.0  T
   6   -117.8472039  0.144811E+00  0.774E-01    0.08       1.0  T
   7   -118.0170048 -0.169801E+00  0.191E-01    0.11       1.0  T
   8   -117.9442847  0.727201E-01  0.537E-01    0.11       1.0  T
   9   -118.0192441 -0.749594E-01  0.166E-01    0.11       1.0  T
  10   -118.0214433 -0.219923E-02  0.139E-01    0.11       1.0  T
  11   -118.0243542 -0.291087E-02  0.927E-02    0.12       1.0  T
  12   -118.0256359 -0.128167E-02  0.614E-02    0.12       1.0  T
  13   -118.0261614 -0.525539E-03  0.419E-02    0.12       1.0  T
  14   -118.0265455 -0.384051E-03  0.171E-02    0.12       1.0  T
  15   -118.0266174 -0.719698E-04  0.451E-03    0.12       2.7  T
  16   -118.0266192 -0.180472E-05  0.371E-03    0.12       3.3  T
  17   -118.0266211 -0.188553E-05  0.262E-03    0.12       4.7  T
  18   -118.0266229 -0.181159E-05  0.631E-04    0.12      19.4  T
  19   -118.0266230 -0.107689E-06  0.148E-04    0.12      82.5  T
  20   -118.0266231 -0.341683E-08  0.962E-05    0.12     127.0  T
     SCC iter.                  ...        0 min,  2.710 sec
     gradient                   ...        0 min,  0.119 sec
 * total energy  :  -117.1867194 Eh     change       -0.1315826E-02 Eh
   gradient norm :     0.0198748 Eh/α   predicted    -0.1072152E-02 ( -18.52%)
   displ. norm   :     0.5847529 α      lambda       -0.1900540E-02
   maximum displ.:     0.1877963 α      in ANC's #1, #29, #22, ...

........................................................................
.............................. CYCLE   20 ..............................
........................................................................

 iter      E             dE          RMSdq      gap      omega  full diag
   1   -118.0102278 -0.118010E+03  0.261E-01    0.12       0.0  T
   2    -95.2543996  0.227558E+02  0.857E+00    0.21       1.0  T
   3   -113.2181132 -0.179637E+02  0.414E+00    0.08       1.0  T
   4   -117.8523929 -0.463428E+01  0.800E-01    0.12       1.0  T
   5   -117.0393280  0.813065E+00  0.180E+00    0.12       1.0  T
   6   -117.8945666 -0.855239E+00  0.706E-01    0.12       1.0  T
   7   -117.2498464  0.644720E+00  0.166E+00    0.15       1.0  T
   8   -118.0058074 -0.755961E+00  0.300E-01    0.10       1.0  T
   9   -118.0140483 -0.824084E-02  0.241E-01    0.11       1.0  T
  10   -118.0231462 -0.909787E-02  0.164E-01    0.11       1.0  T
  11   -118.0252623 -0.211612E-02  0.139E-01    0.11       1.0  T
  12   -118.0255639 -0.301645E-03  0.135E-01    0.11       1.0  T
  13   -118.0277937 -0.222978E-02  0.991E-02    0.11       1.0  T
  14   -118.0298902 -0.209653E-02  0.450E-02    0.11       1.0  T
  15   -118.0301226 -0.232394E-03  0.340E-02    0.11       1.0  T
  16   -118.0303198 -0.197212E-03  0.203E-02    0.11       1.0  T
  17   -118.0304047 -0.848336E-04  0.973E-03    0.11       1.3  T
  18   -118.0304255 -0.207849E-04  0.419E-03    0.11       2.9  T
  19   -118.0304295 -0.400873E-05  0.165E-03    0.11       7.4  T
  20   -118.0304301 -0.640073E-06  0.551E-04    0.11      22.2  T
  21   -118.0304302 -0.621839E-07  0.279E-04    0.11      43.8  T
  22   -118.0304302 -0.173253E-07  0.834E-05    0.11     146.4  T
  23   -118.0304302 -0.148881E-08  0.434E-05    0.11     281.4  T
     SCC iter.                  ...        0 min,  3.206 sec
     gradient                   ...        0 min,  0.089 sec
 * total energy  :  -117.1880791 Eh     change       -0.1359673E-02 Eh
   gradient norm :     0.0336832 Eh/α   predicted    -0.1275203E-02 (  -6.21%)
   displ. norm   :     0.4821714 α      lambda       -0.2330064E-02
   maximum displ.:     0.1232255 α      in ANC's #14, #29, #12, ...
 * RMSD in coord.:     0.8758831 α      energy gain  -0.2701706E+00 Eh

generating ANC from model Hessian ...
Using Lindh-Hessian (1995)
 Shifting diagonal of input Hessian by    1.3242018156595113E-002
 Lowest  eigenvalues of input Hessian
    0.010000    0.012914    0.013019    0.013173    0.013225    0.013236
    0.000000    0.000000    0.000000    0.000000    0.000000    0.000000
    0.013246    0.013283    0.013308    0.013337    0.013470    0.013492
 Highest eigenvalues
    1.565375    1.584037    1.673684    1.819746    1.951341    2.364674


........................................................................
.............................. CYCLE   21 ..............................
........................................................................

 iter      E             dE          RMSdq      gap      omega  full diag
   1   -118.0197075 -0.118020E+03  0.161E-01    0.10       0.0  T
   2   -113.5366974  0.448301E+01  0.399E+00    0.07       1.0  T
   3   -117.4226914 -0.388599E+01  0.146E+00    0.04       1.0  T
   4   -117.8817934 -0.459102E+00  0.706E-01    0.13       1.0  T
   5   -117.6866113  0.195182E+00  0.111E+00    0.12       1.0  T
   6   -117.9780479 -0.291437E+00  0.421E-01    0.09       1.0  T
   7   -118.0015890 -0.235411E-01  0.304E-01    0.09       1.0  T
   8   -117.9572205  0.443685E-01  0.477E-01    0.11       1.0  T
   9   -118.0148015 -0.575811E-01  0.204E-01    0.10       1.0  T
  10   -118.0236348 -0.883328E-02  0.104E-01    0.10       1.0  T
  11   -118.0237741 -0.139244E-03  0.102E-01    0.10       1.0  T
  12   -118.0242893 -0.515287E-03  0.920E-02    0.10       1.0  T
  13   -118.0258805 -0.159113E-02  0.504E-02    0.10       1.0  T
  14   -118.0265177 -0.637202E-03  0.159E-02    0.10       1.0  T
  15   -118.0265600 -0.423427E-04  0.934E-03    0.10       1.3  T
  16   -118.0265807 -0.206711E-04  0.247E-03    0.10       5.0  T
  17   -118.0265814 -0.709987E-06  0.180E-03    0.10       6.8  T
  18   -118.0265820 -0.551162E-06  0.108E-03    0.10      11.3  T
  19   -118.0265822 -0.278501E-06  0.368E-04    0.10      33.2  T
  20   -118.0265823 -0.347826E-07  0.849E-05    0.10     144.0  T
  21   -118.0265823 -0.181537E-08  0.222E-05    0.10     549.5  T
     SCC iter.                  ...        0 min,  2.836 sec
     gradient                   ...        0 min,  0.116 sec
 * total energy  :  -117.1895373 Eh     change       -0.1458214E-02 Eh
   gradient norm :     0.0278185 Eh/α   predicted     0.0000000E+00 (-100.00%)
   displ. norm   :     0.4871523 α      lambda       -0.7953436E-02
   maximum displ.:     0.2061864 α      in ANC's #41, #45, #40, ...

........................................................................
.............................. CYCLE   22 ..............................
........................................................................

 iter      E             dE          RMSdq      gap      omega  full diag
   1   -117.9014340 -0.117901E+03  0.627E-01    0.16       0.0  T
   2    -85.8449513  0.320565E+02  0.943E+00    0.14       1.0  T
   3   -116.7785584 -0.309336E+02  0.206E+00    0.15       1.0  T
   4   -117.1744385 -0.395880E+00  0.171E+00    0.10       1.0  T
   5   -117.2259180 -0.514795E-01  0.168E+00    0.21       1.0  T
   6   -117.8585148 -0.632597E+00  0.756E-01    0.10       1.0  T
   7   -117.7523805  0.106134E+00  0.925E-01    0.16       1.0  T
   8   -117.9579026 -0.205522E+00  0.419E-01    0.14       1.0  T
   9   -117.9843036 -0.264011E-01  0.275E-01    0.14       1.0  T
  10   -118.0032187 -0.189151E-01  0.874E-02    0.14       1.0  T
  11   -118.0048977 -0.167902E-02  0.383E-02    0.14       1.0  T
  12   -118.0024532  0.244453E-02  0.101E-01    0.14       1.0  T
  13   -118.0050223 -0.256913E-02  0.293E-02    0.14       1.0  T
  14   -118.0051499 -0.127539E-03  0.203E-02    0.14       1.0  T
  15   -118.0052567 -0.106788E-03  0.454E-03    0.14       2.7  T
  16   -118.0052575 -0.818199E-06  0.424E-03    0.14       2.9  T
  17   -118.0052614 -0.394435E-05  0.169E-03    0.14       7.2  T
  18   -118.0052616 -0.177295E-06  0.146E-03    0.14       8.3  T
  19   -118.0052620 -0.448807E-06  0.761E-04    0.14      16.0  T
  20   -118.0052622 -0.153053E-06  0.223E-04    0.14      54.7  T
  21   -118.0052622 -0.672674E-08  0.162E-04    0.14      75.3  T
  22   -118.0052622 -0.595992E-08  0.679E-05    0.14     179.8  T
     SCC iter.                  ...        0 min,  3.030 sec
     gradient                   ...        0 min,  0.132 sec
 * total energy  :  -117.1787609 Eh     change        0.1077640E-01 Eh
   gradient norm :     0.0849947 Eh/α   predicted    -0.4920496E-02 (-145.66%)
   displ. norm   :     0.3166519 α      lambda       -0.2484435E-01
   maximum displ.:     0.1554965 α      in ANC's #45, #41, #46, ...

........................................................................
.............................. CYCLE   23 ..............................
........................................................................

 iter      E             dE          RMSdq      gap      omega  full diag
   1   -117.9535716 -0.117954E+03  0.545E-01    0.09       0.0  T
   2   -100.5513212  0.174023E+02  0.748E+00    0.03       1.0  T
   3    -92.7803306  0.777099E+01  0.893E+00    0.02       1.0  T
   4   -116.5363347 -0.237560E+02  0.233E+00    0.09       1.0  T
   5   -115.7755812  0.760754E+00  0.280E+00    0.05       1.0  T
   6   -117.8247497 -0.204917E+01  0.856E-01    0.08       1.0  T
   7   -115.3630433  0.246171E+01  0.297E+00    0.16       1.0  T
   8   -117.9975155 -0.263447E+01  0.375E-01    0.10       1.0  T
   9   -118.0034497 -0.593425E-02  0.334E-01    0.11       1.0  T
  10   -118.0327691 -0.293194E-01  0.896E-02    0.10       1.0  T
  11   -118.0302896  0.247946E-02  0.134E-01    0.09       1.0  T
  12   -118.0326709 -0.238125E-02  0.944E-02    0.09       1.0  T
  13   -118.0348172 -0.214629E-02  0.338E-02    0.10       1.0  T
  14   -118.0347639  0.532756E-04  0.402E-02    0.10       1.0  T
  15   -118.0346793  0.845900E-04  0.421E-02    0.10       1.0  T
  16   -118.0349657 -0.286432E-03  0.253E-02    0.10       1.0  T
  17   -118.0350589 -0.931494E-04  0.170E-02    0.10       1.0  T
  18   -118.0351264 -0.675340E-04  0.569E-03    0.10       2.1  T
  19   -118.0351278 -0.137878E-05  0.539E-03    0.10       2.3  T
  20   -118.0351346 -0.676039E-05  0.198E-03    0.10       6.2  T
  21   -118.0351347 -0.161413E-06  0.184E-03    0.10       6.6  T
  22   -118.0351356 -0.818081E-06  0.515E-04    0.10      23.7  T
  23   -118.0351356 -0.622935E-07  0.185E-04    0.10      66.2  T
  24   -118.0351356 -0.723323E-08  0.705E-05    0.10     173.3  T
     SCC iter.                  ...        0 min,  3.267 sec
     gradient                   ...        0 min,  0.098 sec
 * total energy  :  -117.1922400 Eh     change       -0.1347912E-01 Eh
   gradient norm :     0.0134502 Eh/α   predicted    -0.1366773E-01 (   1.40%)
   displ. norm   :     0.2925263 α      lambda       -0.1982308E-02
   maximum displ.:     0.1307411 α      in ANC's #30, #27, #23, ...

........................................................................
.............................. CYCLE   24 ..............................
........................................................................

 iter      E             dE          RMSdq      gap      omega  full diag
   1   -118.0313356 -0.118031E+03  0.135E-01    0.08       0.0  T
   2   -115.0886246  0.294271E+01  0.321E+00    0.08       1.0  T
   3   -117.4062845 -0.231766E+01  0.144E+00    0.13       1.0  T
   4   -117.9926314 -0.586347E+00  0.399E-01    0.08       1.0  T
   5   -117.8364060  0.156225E+00  0.835E-01    0.08       1.0  T
   6   -118.0029668 -0.166561E+00  0.342E-01    0.08       1.0  T
   7   -117.9460833  0.568835E-01  0.569E-01    0.06       1.0  T
   8   -118.0294253 -0.833420E-01  0.151E-01    0.08       1.0  T
   9   -118.0342465 -0.482123E-02  0.697E-02    0.08       1.0  T
  10   -118.0353377 -0.109118E-02  0.346E-02    0.08       1.0  T
  11   -118.0353653 -0.276102E-04  0.328E-02    0.08       1.0  T
  12   -118.0354585 -0.931581E-04  0.262E-02    0.08       1.0  T
  13   -118.0356348 -0.176330E-03  0.502E-03    0.08       2.4  T
  14   -118.0356345  0.323987E-06  0.541E-03    0.08       2.3  T
  15   -118.0356407 -0.629029E-05  0.247E-03    0.08       4.9  T
  16   -118.0356421 -0.130986E-05  0.104E-03    0.08      11.8  T
  17   -118.0356422 -0.183495E-06  0.685E-04    0.08      17.8  T
  18   -118.0356424 -0.121527E-06  0.184E-04    0.08      66.4  T
  19   -118.0356424 -0.757309E-08  0.773E-05    0.08     158.1  T
     SCC iter.                  ...        0 min,  2.634 sec
     gradient                   ...        0 min,  0.092 sec
 * total energy  :  -117.1938343 Eh     change       -0.1594292E-02 Eh
   gradient norm :     0.0074607 Eh/α   predicted    -0.1075963E-02 ( -32.51%)
   displ. norm   :     0.5665973 α      lambda       -0.2445588E-02
   maximum displ.:     0.2471355 α      in ANC's #30, #27, #23, ...

........................................................................
.............................. CYCLE   25 ..............................
........................................................................

 iter      E             dE          RMSdq      gap      omega  full diag
   1   -118.0320688 -0.118032E+03  0.139E-01    0.07       0.0  T
   2   -114.8273685  0.320470E+01  0.333E+00    0.07       1.0  T
   3   -117.2356167 -0.240825E+01  0.164E+00    0.12       1.0  T
   4   -117.9422041 -0.706587E+00  0.586E-01    0.06       1.0  T
   5   -117.6370333  0.305171E+00  0.118E+00    0.09       1.0  T
   6   -117.9886360 -0.351603E+00  0.413E-01    0.07       1.0  T
   7   -117.9850620  0.357393E-02  0.428E-01    0.06       1.0  T
   8   -118.0289142 -0.438521E-01  0.169E-01    0.07       1.0  T
   9   -118.0319392 -0.302500E-02  0.121E-01    0.07       1.0  T
  10   -118.0353950 -0.345582E-02  0.506E-02    0.07       1.0  T
  11   -118.0357297 -0.334721E-03  0.362E-02    0.07       1.0  T
  12   -118.0358231 -0.933732E-04  0.299E-02    0.07       1.0  T
  13   -118.0360357 -0.212594E-03  0.971E-03    0.07       1.3  T
  14   -118.0360612 -0.255204E-04  0.255E-03    0.07       4.8  T
  15   -118.0360616 -0.427753E-06  0.223E-03    0.07       5.5  T
  16   -118.0360621 -0.443249E-06  0.180E-03    0.07       6.8  T
  17   -118.0360628 -0.740826E-06  0.749E-04    0.07      16.3  T
  18   -118.0360630 -0.150785E-06  0.137E-04    0.07      88.9  T
  19   -118.0360630 -0.488481E-08  0.235E-05    0.07     519.0  T
     SCC iter.                  ...        0 min,  2.546 sec
     gradient                   ...        0 min,  0.072 sec
 * total energy  :  -117.1954507 Eh     change       -0.1616407E-02 Eh
   gradient norm :     0.0133839 Eh/α   predicted    -0.1615354E-02 (  -0.07%)
   displ. norm   :     0.4050494 α      lambda       -0.1339119E-02
   maximum displ.:     0.1667117 α      in ANC's #30, #27, #23, ...

........................................................................
.............................. CYCLE   26 ..............................
........................................................................

 iter      E             dE          RMSdq      gap      omega  full diag
   1   -118.0325856 -0.118033E+03  0.958E-02    0.07       0.0  T
   2   -114.1897897  0.384280E+01  0.366E+00    0.01       1.0  T
   3   -117.9313902 -0.374160E+01  0.614E-01    0.10       1.0  T
   4   -117.9065602  0.248300E-01  0.685E-01    0.07       1.0  T
   5   -117.9732133 -0.666531E-01  0.462E-01    0.05       1.0  T
   6   -118.0128862 -0.396729E-01  0.283E-01    0.09       1.0  T
   7   -118.0315438 -0.186576E-01  0.115E-01    0.07       1.0  T
   8   -118.0093242  0.222196E-01  0.299E-01    0.08       1.0  T
   9   -118.0335950 -0.242708E-01  0.760E-02    0.07       1.0  T
  10   -118.0338673 -0.272208E-03  0.679E-02    0.07       1.0  T
  11   -118.0345277 -0.660493E-03  0.479E-02    0.07       1.0  T
  12   -118.0349945 -0.466754E-03  0.247E-02    0.07       1.0  T
  13   -118.0351107 -0.116238E-03  0.134E-02    0.07       1.0  T
  14   -118.0351441 -0.333120E-04  0.753E-03    0.07       1.6  T
  15   -118.0351563 -0.122274E-04  0.332E-03    0.07       3.7  T
  16   -118.0351592 -0.294682E-05  0.584E-04    0.07      20.9  T
  17   -118.0351593 -0.598570E-07  0.335E-04    0.07      36.5  T
  18   -118.0351593 -0.248900E-07  0.145E-04    0.07      84.3  T
  19   -118.0351593 -0.517794E-08  0.464E-05    0.07     263.4  T
     SCC iter.                  ...        0 min,  2.659 sec
     gradient                   ...        0 min,  0.097 sec
 * total energy  :  -117.1964761 Eh     change       -0.1025404E-02 Eh
   gradient norm :     0.0114686 Eh/α   predicted    -0.7794135E-03 ( -23.99%)
   displ. norm   :     0.5076089 α      lambda       -0.1544872E-02
   maximum displ.:     0.2188186 α      in ANC's #23, #30, #27, ...

........................................................................
.............................. CYCLE   27 ..............................
........................................................................

 iter      E             dE          RMSdq      gap      omega  full diag
   1   -118.0295070 -0.118030E+03  0.150E-01    0.08       0.0  T
   2   -107.5354199  0.104941E+02  0.593E+00    0.08       1.0  T
   3   -117.4389766 -0.990356E+01  0.147E+00    0.14       1.0  T
   4   -118.0025837 -0.563607E+00  0.353E-01    0.08       1.0  T
   5   -117.8879910  0.114593E+00  0.719E-01    0.06       1.0  T
   6   -117.9458184 -0.578275E-01  0.572E-01    0.10       1.0  T
   7   -118.0236935 -0.778751E-01  0.207E-01    0.08       1.0  T
   8   -118.0338049 -0.101114E-01  0.915E-02    0.09       1.0  T
   9   -118.0344656 -0.660669E-03  0.782E-02    0.08       1.0  T
  10   -118.0352421 -0.776473E-03  0.568E-02    0.08       1.0  T
  11   -118.0357055 -0.463420E-03  0.402E-02    0.08       1.0  T
  12   -118.0360128 -0.307304E-03  0.224E-02    0.09       1.0  T
  13   -118.0360874 -0.746094E-04  0.152E-02    0.09       1.0  T
  14   -118.0361254 -0.379958E-04  0.957E-03    0.09       1.3  T
  15   -118.0361454 -0.199811E-04  0.430E-03    0.09       2.8  T
  16   -118.0361491 -0.375215E-05  0.208E-03    0.09       5.9  T
  17   -118.0361501 -0.949320E-06  0.943E-04    0.09      13.0  T
  18   -118.0361503 -0.193808E-06  0.417E-04    0.09      29.3  T
  19   -118.0361503 -0.448758E-07  0.957E-05    0.09     127.6  T
  20   -118.0361503 -0.232670E-08  0.257E-05    0.09     475.0  T
     SCC iter.                  ...        0 min,  2.564 sec
     gradient                   ...        0 min,  0.102 sec
 * total energy  :  -117.1976384 Eh     change       -0.1162282E-02 Eh
   gradient norm :     0.0071653 Eh/α   predicted    -0.9714703E-03 ( -16.42%)
   displ. norm   :     0.5100703 α      lambda       -0.1069783E-02
   maximum displ.:     0.2190636 α      in ANC's #23, #21, #24, ...

........................................................................
.............................. CYCLE   28 ..............................
........................................................................

 iter      E             dE          RMSdq      gap      omega  full diag
   1   -118.0307029 -0.118031E+03  0.156E-01    0.09       0.0  T
   2   -109.3612501  0.866945E+01  0.545E+00    0.07       1.0  T
   3   -117.8729269 -0.851168E+01  0.762E-01    0.08       1.0  T
   4   -117.9862993 -0.113372E+00  0.424E-01    0.10       1.0  T
   5   -117.8048162  0.181483E+00  0.917E-01    0.11       1.0  T
   6   -117.9823021 -0.177486E+00  0.439E-01    0.07       1.0  T
   7   -117.9256329  0.566692E-01  0.632E-01    0.08       1.0  T
   8   -118.0370384 -0.111406E+00  0.550E-02    0.09       1.0  T
   9   -118.0362213  0.817109E-03  0.755E-02    0.09       1.0  T
  10   -118.0372015 -0.980174E-03  0.467E-02    0.09       1.0  T
  11   -118.0376674 -0.465859E-03  0.228E-02    0.09       1.0  T
  12   -118.0377939 -0.126580E-03  0.826E-03    0.09       1.5  T
  13   -118.0378103 -0.164028E-04  0.292E-03    0.09       4.2  T
  14   -118.0378107 -0.376199E-06  0.262E-03    0.09       4.7  T
  15   -118.0378121 -0.141132E-05  0.139E-03    0.09       8.8  T
  16   -118.0378125 -0.380378E-06  0.748E-04    0.09      16.3  T
  17   -118.0378126 -0.806194E-07  0.499E-04    0.09      24.5  T
  18   -118.0378126 -0.569440E-07  0.165E-04    0.09      73.8  T
  19   -118.0378127 -0.695658E-08  0.434E-05    0.09     281.3  T
     SCC iter.                  ...        0 min,  2.605 sec
     gradient                   ...        0 min,  0.085 sec
 * total energy  :  -117.1984793 Eh     change       -0.8408646E-03 Eh
   gradient norm :     0.0068614 Eh/α   predicted    -0.6740602E-03 ( -19.84%)
   displ. norm   :     0.5805221 α      lambda       -0.9804036E-03
   maximum displ.:     0.2401202 α      in ANC's #23, #21, #19, ...

........................................................................
.............................. CYCLE   29 ..............................
........................................................................

 iter      E             dE          RMSdq      gap      omega  full diag
   1   -118.0307951 -0.118031E+03  0.173E-01    0.09       0.0  T
   2   -108.0187156  0.100121E+02  0.585E+00    0.04       1.0  T
   3   -117.4827984 -0.946408E+01  0.142E+00    0.13       1.0  T
   4   -118.0145974 -0.531799E+00  0.300E-01    0.10       1.0  T
   5   -117.7235656  0.291032E+00  0.104E+00    0.04       1.0  T
   6   -117.9998008 -0.276235E+00  0.385E-01    0.09       1.0  T
   7   -117.7713562  0.228445E+00  0.958E-01    0.12       1.0  T
   8   -118.0383661 -0.267010E+00  0.649E-02    0.09       1.0  T
   9   -118.0387058 -0.339747E-03  0.535E-02    0.10       1.0  T
  10   -118.0389128 -0.206952E-03  0.449E-02    0.09       1.0  T
  11   -118.0392444 -0.331617E-03  0.292E-02    0.09       1.0  T
  12   -118.0394076 -0.163208E-03  0.159E-02    0.09       1.0  T
  13   -118.0394732 -0.656168E-04  0.530E-03    0.09       2.3  T
  14   -118.0394772 -0.399826E-05  0.380E-03    0.09       3.2  T
  15   -118.0394805 -0.331122E-05  0.170E-03    0.09       7.2  T
  16   -118.0394813 -0.798437E-06  0.386E-04    0.09      31.6  T
  17   -118.0394813 -0.233659E-07  0.248E-04    0.09      49.3  T
  18   -118.0394813 -0.726882E-08  0.181E-04    0.09      67.3  T
  19   -118.0394813 -0.832812E-08  0.645E-05    0.09     189.4  T
     SCC iter.                  ...        0 min,  2.655 sec
     gradient                   ...        0 min,  0.098 sec
 * total energy  :  -117.1992742 Eh     change       -0.7949296E-03 Eh
   gradient norm :     0.0061476 Eh/α   predicted    -0.6554052E-03 ( -17.55%)
   displ. norm   :     0.5931781 α      lambda       -0.9276262E-03
   maximum displ.:     0.2201464 α      in ANC's #23, #19, #21, ...

........................................................................
.............................. CYCLE   30 ..............................
........................................................................

 iter      E             dE          RMSdq      gap      omega  full diag
   1   -118.0265843 -0.118027E+03  0.234E-01    0.07       0.0  T
   2    -96.8832507  0.211433E+02  0.811E+00    0.07       1.0  T
   3   -115.8294750 -0.189462E+02  0.277E+00    0.08       1.0  T
   4   -117.9798985 -0.215042E+01  0.484E-01    0.07       1.0  T
   5   -117.5130219  0.466877E+00  0.136E+00    0.11       1.0  T
   6   -117.9494259 -0.436404E+00  0.571E-01    0.06       1.0  T
   7   -117.4050881  0.544338E+00  0.151E+00    0.07       1.0  T
   8   -118.0420324 -0.636944E+00  0.493E-02    0.09       1.0  T
   9   -118.0416914  0.341021E-03  0.566E-02    0.09       1.0  T
  10   -118.0423348 -0.643491E-03  0.291E-02    0.09       1.0  T
  11   -118.0423616 -0.267795E-04  0.270E-02    0.09       1.0  T
  12   -118.0424282 -0.665710E-04  0.221E-02    0.09       1.0  T
  13   -118.0424674 -0.391651E-04  0.182E-02    0.09       1.0  T
  14   -118.0425066 -0.392742E-04  0.135E-02    0.09       1.0  T
  15   -118.0425425 -0.358909E-04  0.712E-03    0.09       1.7  T
  16   -118.0425499 -0.734793E-05  0.484E-03    0.09       2.5  T
  17   -118.0425540 -0.417407E-05  0.285E-03    0.09       4.3  T
  18   -118.0425560 -0.199678E-05  0.860E-04    0.09      14.2  T
  19   -118.0425562 -0.196250E-06  0.915E-05    0.09     133.5  T
  20   -118.0425562  0.268457E-09  0.906E-05    0.09     134.8  T
     SCC iter.                  ...        0 min,  2.681 sec
     gradient                   ...        0 min,  0.084 sec
 * total energy  :  -117.1999684 Eh     change       -0.6942377E-03 Eh
   gradient norm :     0.0079489 Eh/α   predicted    -0.6270118E-03 (  -9.68%)
   displ. norm   :     0.6335087 α      lambda       -0.7608488E-03
   maximum displ.:     0.2353755 α      in ANC's #19, #23, #21, ...

........................................................................
.............................. CYCLE   31 ..............................
........................................................................

 iter      E             dE          RMSdq      gap      omega  full diag
   1   -118.0319568 -0.118032E+03  0.181E-01    0.08       0.0  T
   2   -103.6011888  0.144308E+02  0.675E+00    0.13       1.0  T
   3   -116.7509138 -0.131497E+02  0.217E+00    0.16       1.0  T
   4   -118.0260987 -0.127518E+01  0.237E-01    0.08       1.0  T
   5   -117.4955621  0.530537E+00  0.135E+00    0.04       1.0  T
   6   -117.9787732 -0.483211E+00  0.475E-01    0.07       1.0  T
   7   -117.7577272  0.221046E+00  0.982E-01    0.10       1.0  T
   8   -118.0382767 -0.280550E+00  0.103E-01    0.08       1.0  T
   9   -118.0404343 -0.215764E-02  0.513E-02    0.09       1.0  T
  10   -118.0401936  0.240724E-03  0.588E-02    0.08       1.0  T
  11   -118.0407582 -0.564540E-03  0.373E-02    0.08       1.0  T
  12   -118.0409825 -0.224383E-03  0.228E-02    0.08       1.0  T
  13   -118.0411051 -0.122566E-03  0.892E-03    0.08       1.4  T
  14   -118.0411182 -0.130545E-04  0.572E-03    0.08       2.1  T
  15   -118.0411226 -0.438423E-05  0.411E-03    0.08       3.0  T
  16   -118.0411254 -0.281282E-05  0.265E-03    0.08       4.6  T
  17   -118.0411261 -0.698498E-06  0.209E-03    0.08       5.8  T
  18   -118.0411268 -0.708164E-06  0.129E-03    0.08       9.5  T
  19   -118.0411272 -0.403384E-06  0.355E-04    0.08      34.4  T
  20   -118.0411272 -0.224387E-07  0.203E-04    0.08      60.3  T
  21   -118.0411272 -0.888036E-08  0.900E-05    0.08     135.8  T
  22   -118.0411272 -0.211267E-08  0.174E-05    0.08     702.4  T
     SCC iter.                  ...        0 min,  2.790 sec
     gradient                   ...        0 min,  0.118 sec
 * total energy  :  -117.2003842 Eh     change       -0.4157843E-03 Eh
   gradient norm :     0.0101307 Eh/α   predicted    -0.5331022E-03 (  28.22%)
   displ. norm   :     0.3983477 α      lambda       -0.6758490E-03
   maximum displ.:     0.1594125 α      in ANC's #19, #35, #11, ...

........................................................................
.............................. CYCLE   32 ..............................
........................................................................

 iter      E             dE          RMSdq      gap      omega  full diag
   1   -118.0346539 -0.118035E+03  0.192E-01    0.06       0.0  T
   2   -102.9067565  0.151279E+02  0.694E+00    0.07       1.0  T
   3   -116.8768328 -0.139701E+02  0.207E+00    0.16       1.0  T
   4   -118.0331163 -0.115628E+01  0.212E-01    0.06       1.0  T
   5   -117.2389096  0.794207E+00  0.168E+00    0.07       1.0  T
   6   -118.0152183 -0.776309E+00  0.327E-01    0.06       1.0  T
   7   -117.9697186  0.454997E-01  0.505E-01    0.08       1.0  T
   8   -118.0425098 -0.727912E-01  0.100E-01    0.07       1.0  T
   9   -118.0432905 -0.780755E-03  0.809E-02    0.07       1.0  T
  10   -118.0442039 -0.913378E-03  0.584E-02    0.07       1.0  T
  11   -118.0447478 -0.543866E-03  0.377E-02    0.07       1.0  T
  12   -118.0450705 -0.322727E-03  0.159E-02    0.07       1.0  T
  13   -118.0451216 -0.511225E-04  0.777E-03    0.06       1.6  T
  14   -118.0451321 -0.104622E-04  0.497E-03    0.06       2.5  T
  15   -118.0451359 -0.379510E-05  0.332E-03    0.06       3.7  T
  16   -118.0451379 -0.198853E-05  0.196E-03    0.06       6.2  T
  17   -118.0451389 -0.100975E-05  0.541E-04    0.06      22.6  T
  18   -118.0451389 -0.391223E-07  0.393E-04    0.06      31.1  T
  19   -118.0451390 -0.407977E-07  0.119E-04    0.06     102.4  T
  20   -118.0451390 -0.395745E-08  0.234E-05    0.06     522.9  T
     SCC iter.                  ...        0 min,  2.592 sec
     gradient                   ...        0 min,  0.112 sec
 * total energy  :  -117.2007129 Eh     change       -0.3286435E-03 Eh
   gradient norm :     0.0108585 Eh/α   predicted    -0.3915498E-03 (  19.14%)
   displ. norm   :     0.3954339 α      lambda       -0.5112980E-03
   maximum displ.:     0.1757409 α      in ANC's #19, #21, #11, ...

........................................................................
.............................. CYCLE   33 ..............................
........................................................................

 iter      E             dE          RMSdq      gap      omega  full diag
   1   -118.0378041 -0.118038E+03  0.155E-01    0.06       0.0  T
   2   -105.2017176  0.128361E+02  0.640E+00    0.05       1.0  T
   3   -117.7466240 -0.125449E+02  0.101E+00    0.10       1.0  T
   4   -118.0186199 -0.271996E+00  0.303E-01    0.04       1.0  T
   5   -117.4162000  0.602420E+00  0.148E+00    0.07       1.0  T
   6   -118.0207579 -0.604558E+00  0.298E-01    0.05       1.0  T
   7   -117.9732817  0.474763E-01  0.500E-01    0.07       1.0  T
   8   -118.0412894 -0.680077E-01  0.110E-01    0.06       1.0  T
   9   -118.0443757 -0.308633E-02  0.301E-02    0.06       1.0  T
  10   -118.0444568 -0.810601E-04  0.257E-02    0.06       1.0  T
  11   -118.0445585 -0.101757E-03  0.167E-02    0.06       1.0  T
  12   -118.0446057 -0.472041E-04  0.100E-02    0.06       1.2  T
  13   -118.0446113 -0.554204E-05  0.858E-03    0.06       1.4  T
  14   -118.0446248 -0.135748E-04  0.494E-03    0.06       2.5  T
  15   -118.0446295 -0.461710E-05  0.270E-03    0.06       4.5  T
  16   -118.0446307 -0.124431E-05  0.160E-03    0.06       7.6  T
  17   -118.0446313 -0.642745E-06  0.485E-04    0.06      25.2  T
  18   -118.0446314 -0.528674E-07  0.214E-04    0.06      57.2  T
  19   -118.0446314 -0.114853E-07  0.725E-05    0.06     168.5  T
  20   -118.0446314 -0.121869E-08  0.295E-05    0.06     414.6  T
     SCC iter.                  ...        0 min,  2.591 sec
     gradient                   ...        0 min,  0.086 sec
 * total energy  :  -117.2009040 Eh     change       -0.1910963E-03 Eh
   gradient norm :     0.0144877 Eh/α   predicted    -0.2956245E-03 (  54.70%)
   displ. norm   :     0.2563995 α      lambda       -0.3848209E-03
   maximum displ.:     0.1237023 α      in ANC's #19, #21, #11, ...

........................................................................
.............................. CYCLE   34 ..............................
........................................................................

 iter      E             dE          RMSdq      gap      omega  full diag
   1   -118.0405215 -0.118041E+03  0.111E-01    0.06       0.0  T
   2   -109.7005252  0.834000E+01  0.522E+00    0.02       1.0  T
   3   -117.9457408 -0.824522E+01  0.577E-01    0.07       1.0  T
   4   -118.0061626 -0.604218E-01  0.362E-01    0.04       1.0  T
   5   -117.5558705  0.450292E+00  0.131E+00    0.10       1.0  T
   6   -118.0336731 -0.477803E+00  0.195E-01    0.05       1.0  T
   7   -117.9773607  0.563124E-01  0.489E-01    0.08       1.0  T
   8   -118.0418730 -0.645123E-01  0.897E-02    0.06       1.0  T
   9   -118.0438850 -0.201196E-02  0.292E-02    0.06       1.0  T
  10   -118.0439695 -0.844476E-04  0.228E-02    0.06       1.0  T
  11   -118.0440668 -0.973874E-04  0.135E-02    0.06       1.0  T
  12   -118.0440895 -0.226901E-04  0.976E-03    0.06       1.3  T
  13   -118.0441116 -0.220416E-04  0.394E-03    0.06       3.1  T
  14   -118.0441137 -0.215384E-05  0.270E-03    0.06       4.5  T
  15   -118.0441145 -0.754914E-06  0.210E-03    0.06       5.8  T
  16   -118.0441151 -0.614946E-06  0.143E-03    0.06       8.5  T
  17   -118.0441156 -0.496654E-06  0.397E-04    0.06      30.8  T
  18   -118.0441156 -0.367294E-07  0.126E-04    0.06      96.9  T
  19   -118.0441156 -0.281308E-08  0.747E-05    0.06     163.6  T
     SCC iter.                  ...        0 min,  2.592 sec
     gradient                   ...        0 min,  0.068 sec
 * total energy  :  -117.2011369 Eh     change       -0.2329388E-03 Eh
   gradient norm :     0.0060241 Eh/α   predicted    -0.2050604E-03 ( -11.97%)
   displ. norm   :     0.2174409 α      lambda       -0.2799516E-03
   maximum displ.:     0.1195290 α      in ANC's #19, #11, #7, ...

........................................................................
.............................. CYCLE   35 ..............................
........................................................................

 iter      E             dE          RMSdq      gap      omega  full diag
   1   -118.0446982 -0.118045E+03  0.419E-02    0.06       0.0  T
   2   -117.2574821  0.787216E+00  0.166E+00    0.05       1.0  T
   3   -118.0384224 -0.780940E+00  0.157E-01    0.07       1.0  T
   4   -118.0387634 -0.341049E-03  0.152E-01    0.05       1.0  T
   5   -118.0151844  0.235790E-01  0.324E-01    0.06       1.0  T
   6   -118.0438703 -0.286859E-01  0.706E-02    0.06       1.0  T
   7   -118.0423528  0.151749E-02  0.979E-02    0.06       1.0  T
   8   -118.0441810 -0.182820E-02  0.601E-02    0.06       1.0  T
   9   -118.0449410 -0.760033E-03  0.294E-02    0.06       1.0  T
  10   -118.0451057 -0.164695E-03  0.167E-02    0.06       1.0  T
  11   -118.0451613 -0.555752E-04  0.880E-03    0.06       1.4  T
  12   -118.0451808 -0.195223E-04  0.239E-03    0.06       5.1  T
  13   -118.0451822 -0.143868E-05  0.639E-04    0.06      19.1  T
  14   -118.0451823 -0.283361E-07  0.544E-04    0.06      22.5  T
  15   -118.0451823 -0.509395E-07  0.338E-04    0.06      36.1  T
  16   -118.0451824 -0.270533E-07  0.127E-04    0.06      96.5  T
  17   -118.0451824 -0.344139E-08  0.559E-05    0.06     218.5  T
     SCC iter.                  ...        0 min,  2.225 sec
     gradient                   ...        0 min,  0.088 sec
 * total energy  :  -117.2013425 Eh     change       -0.2055955E-03 Eh
   gradient norm :     0.0052236 Eh/α   predicted    -0.1465953E-03 ( -28.70%)
   displ. norm   :     0.3867538 α      lambda       -0.2916859E-03
   maximum displ.:     0.2206104 α      in ANC's #19, #11, #7, ...

........................................................................
.............................. CYCLE   36 ..............................
........................................................................

 iter      E             dE          RMSdq      gap      omega  full diag
   1   -118.0410390 -0.118041E+03  0.116E-01    0.06       0.0  T
   2   -107.8802947  0.101607E+02  0.571E+00    0.10       1.0  T
   3   -117.9172568 -0.100370E+02  0.663E-01    0.09       1.0  T
   4   -118.0119469 -0.946901E-01  0.340E-01    0.05       1.0  T
   5   -117.2884524  0.723495E+00  0.162E+00    0.10       1.0  T
   6   -118.0389963 -0.750544E+00  0.146E-01    0.07       1.0  T
   7   -118.0376571  0.133920E-02  0.157E-01    0.06       1.0  T
   8   -118.0328981  0.475900E-02  0.207E-01    0.07       1.0  T
   9   -118.0444854 -0.115873E-01  0.375E-02    0.06       1.0  T
  10   -118.0445908 -0.105413E-03  0.321E-02    0.06       1.0  T
  11   -118.0447211 -0.130249E-03  0.234E-02    0.06       1.0  T
  12   -118.0447872 -0.661563E-04  0.173E-02    0.06       1.0  T
  13   -118.0448359 -0.486622E-04  0.106E-02    0.06       1.2  T
  14   -118.0448609 -0.250484E-04  0.428E-03    0.06       2.9  T
  15   -118.0448642 -0.328451E-05  0.239E-03    0.06       5.1  T
  16   -118.0448656 -0.134906E-05  0.741E-04    0.06      16.5  T
  17   -118.0448657 -0.105674E-06  0.382E-04    0.06      31.9  T
  18   -118.0448657 -0.248212E-07  0.224E-04    0.06      54.5  T
  19   -118.0448657 -0.767896E-08  0.148E-04    0.06      82.5  T
  20   -118.0448657 -0.456637E-08  0.700E-05    0.06     174.6  T
     SCC iter.                  ...        0 min,  2.512 sec
     gradient                   ...        0 min,  0.091 sec
 * total energy  :  -117.2015550 Eh     change       -0.2124574E-03 Eh
   gradient norm :     0.0041920 Eh/α   predicted    -0.1676604E-03 ( -21.09%)
   displ. norm   :     0.3326086 α      lambda       -0.2048591E-03
   maximum displ.:     0.1921182 α      in ANC's #19, #10, #24, ...

........................................................................
.............................. CYCLE   37 ..............................
........................................................................

 iter      E             dE          RMSdq      gap      omega  full diag
   1   -118.0438398 -0.118044E+03  0.860E-02    0.07       0.0  T
   2   -112.6085823  0.543526E+01  0.424E+00    0.05       1.0  T
   3   -117.9460159 -0.533743E+01  0.590E-01    0.06       1.0  T
   4   -118.0329349 -0.869190E-01  0.213E-01    0.07       1.0  T
   5   -117.7630945  0.269840E+00  0.101E+00    0.03       1.0  T
   6   -118.0331302 -0.270036E+00  0.213E-01    0.07       1.0  T
   7   -118.0027536  0.303766E-01  0.390E-01    0.07       1.0  T
   8   -118.0444761 -0.417225E-01  0.750E-02    0.07       1.0  T
   9   -118.0456940 -0.121788E-02  0.319E-02    0.07       1.0  T
  10   -118.0458428 -0.148835E-03  0.229E-02    0.07       1.0  T
  11   -118.0459062 -0.633656E-04  0.170E-02    0.07       1.0  T
  12   -118.0459665 -0.603183E-04  0.825E-03    0.07       1.5  T
  13   -118.0459768 -0.102625E-04  0.534E-03    0.07       2.3  T
  14   -118.0459822 -0.546927E-05  0.290E-03    0.07       4.2  T
  15   -118.0459835 -0.128374E-05  0.189E-03    0.07       6.5  T
  16   -118.0459840 -0.492736E-06  0.130E-03    0.07       9.4  T
  17   -118.0459844 -0.371892E-06  0.545E-04    0.07      22.4  T
  18   -118.0459845 -0.673133E-07  0.212E-04    0.06      57.8  T
  19   -118.0459845 -0.109114E-07  0.655E-05    0.06     186.4  T
  20   -118.0459845 -0.108700E-08  0.173E-05    0.06     706.6  T
     SCC iter.                  ...        0 min,  2.531 sec
     gradient                   ...        0 min,  0.103 sec
 * total energy  :  -117.2017008 Eh     change       -0.1458864E-03 Eh
   gradient norm :     0.0043609 Eh/α   predicted    -0.1137656E-03 ( -22.02%)
   displ. norm   :     0.4548735 α      lambda       -0.2053470E-03
   maximum displ.:     0.2675711 α      in ANC's #19, #10, #21, ...

........................................................................
.............................. CYCLE   38 ..............................
........................................................................

 iter      E             dE          RMSdq      gap      omega  full diag
   1   -118.0378992 -0.118038E+03  0.145E-01    0.08       0.0  T
   2   -103.7601926  0.142777E+02  0.667E+00    0.21       1.0  T
   3   -117.9488745 -0.141887E+02  0.573E-01    0.07       1.0  T
   4   -117.9518490 -0.297451E-02  0.563E-01    0.09       1.0  T
   5   -117.4297495  0.522099E+00  0.146E+00    0.08       1.0  T
   6   -118.0320820 -0.602333E+00  0.206E-01    0.08       1.0  T
   7   -117.9986461  0.334359E-01  0.396E-01    0.09       1.0  T
   8   -118.0424517 -0.438056E-01  0.721E-02    0.08       1.0  T
   9   -118.0433685 -0.916801E-03  0.365E-02    0.08       1.0  T
  10   -118.0434204 -0.519152E-04  0.334E-02    0.08       1.0  T
  11   -118.0435789 -0.158532E-03  0.231E-02    0.08       1.0  T
  12   -118.0436705 -0.915562E-04  0.136E-02    0.08       1.0  T
  13   -118.0436975 -0.270217E-04  0.898E-03    0.08       1.4  T
  14   -118.0437141 -0.165409E-04  0.425E-03    0.08       2.9  T
  15   -118.0437173 -0.323849E-05  0.232E-03    0.08       5.3  T
  16   -118.0437182 -0.912764E-06  0.137E-03    0.08       8.9  T
  17   -118.0437187 -0.438539E-06  0.427E-04    0.08      28.6  T
  18   -118.0437187 -0.353014E-07  0.220E-04    0.08      55.5  T
  19   -118.0437187 -0.970026E-08  0.112E-04    0.08     108.7  T
  20   -118.0437187 -0.298736E-08  0.393E-05    0.08     310.9  T
     SCC iter.                  ...        0 min,  2.570 sec
     gradient                   ...        0 min,  0.084 sec
 * total energy  :  -117.2018201 Eh     change       -0.1192890E-03 Eh
   gradient norm :     0.0090281 Eh/α   predicted    -0.1239179E-03 (   3.88%)
   displ. norm   :     0.3604001 α      lambda       -0.2789519E-03
   maximum displ.:     0.1573372 α      in ANC's #19, #10, #24, ...

........................................................................
.............................. CYCLE   39 ..............................
........................................................................

 iter      E             dE          RMSdq      gap      omega  full diag
   1   -118.0433058 -0.118043E+03  0.962E-02    0.09       0.0  T
   2   -114.5707532  0.347255E+01  0.350E+00    0.12       1.0  T
   3   -118.0144540 -0.344370E+01  0.329E-01    0.08       1.0  T
   4   -118.0270480 -0.125940E-01  0.256E-01    0.08       1.0  T
   5   -117.9825520  0.444960E-01  0.475E-01    0.07       1.0  T
   6   -118.0410171 -0.584651E-01  0.135E-01    0.08       1.0  T
   7   -118.0456329 -0.461575E-02  0.360E-02    0.08       1.0  T
   8   -118.0354192  0.102137E-01  0.191E-01    0.08       1.0  T
   9   -118.0457495 -0.103303E-01  0.282E-02    0.08       1.0  T
  10   -118.0459387 -0.189195E-03  0.117E-02    0.08       1.0  T
  11   -118.0459509 -0.122565E-04  0.933E-03    0.08       1.3  T
  12   -118.0459740 -0.230786E-04  0.193E-03    0.08       6.3  T
  13   -118.0459747 -0.710949E-06  0.962E-04    0.08      12.7  T
  14   -118.0459747 -0.464185E-07  0.839E-04    0.08      14.6  T
  15   -118.0459749 -0.175587E-06  0.307E-04    0.08      39.8  T
  16   -118.0459749 -0.200331E-07  0.136E-04    0.08      89.8  T
  17   -118.0459749 -0.474067E-08  0.334E-05    0.08     366.3  T
     SCC iter.                  ...        0 min,  2.076 sec
     gradient                   ...        0 min,  0.111 sec
 * total energy  :  -117.2019983 Eh     change       -0.1781838E-03 Eh
   gradient norm :     0.0073307 Eh/α   predicted    -0.1575940E-03 ( -11.56%)
   displ. norm   :     0.3499091 α      lambda       -0.2293340E-03
   maximum displ.:     0.1768556 α      in ANC's #19, #10, #21, ...

........................................................................
.............................. CYCLE   40 ..............................
........................................................................

 iter      E             dE          RMSdq      gap      omega  full diag
   1   -118.0446988 -0.118045E+03  0.934E-02    0.10       0.0  T
   2   -113.5336542  0.451104E+01  0.393E+00    0.15       1.0  T
   3   -117.8930077 -0.435935E+01  0.735E-01    0.08       1.0  T
   4   -118.0420733 -0.149066E+00  0.134E-01    0.09       1.0  T
   5   -117.7681159  0.273957E+00  0.977E-01    0.12       1.0  T
   6   -118.0460953 -0.277979E+00  0.620E-02    0.09       1.0  T
   7   -118.0331539  0.129414E-01  0.218E-01    0.09       1.0  T
   8   -118.0465186 -0.133647E-01  0.464E-02    0.09       1.0  T
   9   -118.0468839 -0.365277E-03  0.301E-02    0.09       1.0  T
  10   -118.0470647 -0.180759E-03  0.158E-02    0.09       1.0  T
  11   -118.0470886 -0.239646E-04  0.126E-02    0.09       1.0  T
  12   -118.0471230 -0.343785E-04  0.600E-03    0.09       2.0  T
  13   -118.0471298 -0.673198E-05  0.329E-03    0.09       3.7  T
  14   -118.0471323 -0.250372E-05  0.134E-03    0.09       9.1  T
  15   -118.0471325 -0.220748E-06  0.976E-04    0.09      12.5  T
  16   -118.0471327 -0.232089E-06  0.313E-04    0.09      39.0  T
  17   -118.0471327 -0.193107E-07  0.164E-04    0.09      74.4  T
  18   -118.0471327 -0.658396E-08  0.523E-05    0.09     233.4  T
     SCC iter.                  ...        0 min,  2.376 sec
     gradient                   ...        0 min,  0.115 sec
 * total energy  :  -117.2021736 Eh     change       -0.1752357E-03 Eh
   gradient norm :     0.0079140 Eh/α   predicted    -0.1287081E-03 ( -26.55%)
   displ. norm   :     0.4508156 α      lambda       -0.3221049E-03
   maximum displ.:     0.2358419 α      in ANC's #10, #19, #5, ...

........................................................................
.............................. CYCLE   41 ..............................
........................................................................

 iter      E             dE          RMSdq      gap      omega  full diag
   1   -118.0428210 -0.118043E+03  0.127E-01    0.10       0.0  T
   2   -111.2943244  0.674850E+01  0.483E+00    0.15       1.0  T
   3   -117.8492531 -0.655493E+01  0.834E-01    0.08       1.0  T
   4   -118.0355739 -0.186321E+00  0.205E-01    0.10       1.0  T
   5   -117.8957127  0.139861E+00  0.737E-01    0.11       1.0  T
   6   -118.0165679 -0.120855E+00  0.339E-01    0.09       1.0  T
   7   -118.0077977  0.877011E-02  0.360E-01    0.11       1.0  T
   8   -118.0468915 -0.390938E-01  0.347E-02    0.10       1.0  T
   9   -118.0464978  0.393722E-03  0.492E-02    0.10       1.0  T
  10   -118.0470113 -0.513474E-03  0.266E-02    0.10       1.0  T
  11   -118.0471758 -0.164460E-03  0.120E-02    0.10       1.0  T
  12   -118.0472120 -0.362103E-04  0.410E-03    0.10       3.0  T
  13   -118.0472156 -0.367075E-05  0.183E-03    0.10       6.7  T
  14   -118.0472166 -0.963946E-06  0.156E-04    0.10      78.5  T
  15   -118.0472166  0.358912E-08  0.179E-04    0.10      68.2  T
     SCC iter.                  ...        0 min,  1.969 sec
     gradient                   ...        0 min,  0.081 sec
 * total energy  :  -117.2023952 Eh     change       -0.2216090E-03 Eh
   gradient norm :     0.0057781 Eh/α   predicted    -0.1937869E-03 ( -12.55%)
   displ. norm   :     0.3870263 α      lambda       -0.1886611E-03
   maximum displ.:     0.2062943 α      in ANC's #10, #19, #5, ...

........................................................................
.............................. CYCLE   42 ..............................
........................................................................

 iter      E             dE          RMSdq      gap      omega  full diag
   1   -118.0434324 -0.118043E+03  0.935E-02    0.11       0.0  T
   2   -114.2333134  0.381012E+01  0.366E+00    0.17       1.0  T
   3   -117.9815528 -0.374824E+01  0.477E-01    0.10       1.0  T
   4   -118.0300343 -0.484815E-01  0.237E-01    0.11       1.0  T
   5   -118.0241695  0.586475E-02  0.278E-01    0.11       1.0  T
   6   -118.0168893  0.728029E-02  0.314E-01    0.12       1.0  T
   7   -118.0435390 -0.266498E-01  0.885E-02    0.11       1.0  T
   8   -118.0420701  0.146897E-02  0.113E-01    0.11       1.0  T
   9   -118.0454222 -0.335219E-02  0.345E-02    0.11       1.0  T
  10   -118.0456923 -0.270061E-03  0.168E-02    0.11       1.0  T
  11   -118.0457186 -0.262751E-04  0.136E-02    0.11       1.0  T
  12   -118.0457657 -0.471165E-04  0.461E-03    0.11       2.7  T
  13   -118.0457705 -0.482814E-05  0.189E-03    0.11       6.5  T
  14   -118.0457711 -0.534665E-06  0.123E-03    0.11       9.9  T
  15   -118.0457714 -0.349605E-06  0.481E-04    0.11      25.4  T
  16   -118.0457714 -0.219339E-07  0.370E-04    0.11      33.0  T
  17   -118.0457715 -0.371663E-07  0.105E-04    0.11     116.5  T
  18   -118.0457715 -0.280031E-08  0.347E-05    0.11     352.0  T
     SCC iter.                  ...        0 min,  2.293 sec
     gradient                   ...        0 min,  0.081 sec
 * total energy  :  -117.2025320 Eh     change       -0.1368330E-03 Eh
   gradient norm :     0.0044567 Eh/α   predicted    -0.1084642E-03 ( -20.73%)
   displ. norm   :     0.3129534 α      lambda       -0.1711876E-03
   maximum displ.:     0.1658290 α      in ANC's #10, #12, #5, ...
 * RMSD in coord.:     0.7645668 α      energy gain  -0.1445291E-01 Eh

generating ANC from model Hessian ...
Using Lindh-Hessian (1995)
 Shifting diagonal of input Hessian by    1.1904864989134048E-002
 Lowest  eigenvalues of input Hessian
    0.010000    0.011605    0.011692    0.011767    0.011877    0.011898
    0.000000    0.000000    0.000000    0.000000    0.000000    0.000000
    0.011907    0.011947    0.011964    0.012004    0.012105    0.012158
 Highest eigenvalues
    1.561686    1.655787    1.670169    1.814127    1.948605    2.375462


........................................................................
.............................. CYCLE   43 ..............................
........................................................................

 iter      E             dE          RMSdq      gap      omega  full diag
   1   -118.0451995 -0.118045E+03  0.650E-02    0.12       0.0  T
   2   -115.4536596  0.259154E+01  0.297E+00    0.15       1.0  T
   3   -117.9910601 -0.253740E+01  0.443E-01    0.10       1.0  T
   4   -118.0397461 -0.486860E-01  0.154E-01    0.12       1.0  T
   5   -118.0163249  0.234212E-01  0.334E-01    0.12       1.0  T
   6   -118.0343294 -0.180045E-01  0.208E-01    0.11       1.0  T
   7   -118.0441967 -0.986733E-02  0.857E-02    0.11       1.0  T
   8   -118.0446921 -0.495353E-03  0.753E-02    0.12       1.0  T
   9   -118.0460815 -0.138941E-02  0.306E-02    0.11       1.0  T
  10   -118.0462405 -0.159065E-03  0.200E-02    0.12       1.0  T
  11   -118.0462884 -0.478956E-04  0.152E-02    0.12       1.0  T
  12   -118.0463421 -0.536854E-04  0.680E-03    0.12       1.8  T
  13   -118.0463510 -0.892770E-05  0.370E-03    0.12       3.3  T
  14   -118.0463534 -0.234667E-05  0.227E-03    0.12       5.4  T
  15   -118.0463544 -0.998723E-06  0.119E-03    0.12      10.3  T
  16   -118.0463548 -0.369137E-06  0.199E-04    0.12      61.5  T
  17   -118.0463548 -0.937715E-08  0.637E-05    0.12     191.9  T
     SCC iter.                  ...        0 min,  2.176 sec
     gradient                   ...        0 min,  0.118 sec
 * total energy  :  -117.2026521 Eh     change       -0.1201038E-03 Eh
   gradient norm :     0.0038116 Eh/α   predicted     0.0000000E+00 (-100.00%)
   displ. norm   :     0.0793227 α      lambda       -0.1275040E-03
   maximum displ.:     0.0477473 α      in ANC's #24, #25, #1, ...

........................................................................
.............................. CYCLE   44 ..............................
........................................................................

 iter      E             dE          RMSdq      gap      omega  full diag
   1   -118.0461097 -0.118046E+03  0.253E-02    0.12       0.0  T
   2   -117.7770616  0.269048E+00  0.988E-01    0.16       1.0  T
   3   -118.0441850 -0.267123E+00  0.867E-02    0.12       1.0  T
   4   -118.0433348  0.850245E-03  0.102E-01    0.12       1.0  T
   5   -118.0455537 -0.221895E-02  0.517E-02    0.12       1.0  T
   6   -118.0454211  0.132583E-03  0.558E-02    0.12       1.0  T
   7   -118.0461625 -0.741340E-03  0.211E-02    0.12       1.0  T
   8   -118.0456865  0.475991E-03  0.444E-02    0.12       1.0  T
   9   -118.0462459 -0.559409E-03  0.120E-02    0.12       1.0  T
  10   -118.0462694 -0.235569E-04  0.768E-03    0.12       1.6  T
  11   -118.0462796 -0.101388E-04  0.469E-03    0.12       2.6  T
  12   -118.0462853 -0.572700E-05  0.131E-03    0.12       9.3  T
  13   -118.0462857 -0.430926E-06  0.454E-04    0.12      26.9  T
  14   -118.0462858 -0.257556E-07  0.339E-04    0.12      36.0  T
  15   -118.0462858 -0.194146E-07  0.208E-04    0.12      58.7  T
  16   -118.0462858 -0.108840E-07  0.688E-05    0.12     177.5  T
  17   -118.0462858 -0.125577E-08  0.113E-05    0.12    1080.0  T
     SCC iter.                  ...        0 min,  2.244 sec
     gradient                   ...        0 min,  0.084 sec
 * total energy  :  -117.2027095 Eh     change       -0.5743953E-04 Eh
   gradient norm :     0.0048604 Eh/α   predicted    -0.6436560E-04 (  12.06%)
   displ. norm   :     0.3831685 α      lambda       -0.5639174E-03
   maximum displ.:     0.2526538 α      in ANC's #24, #25, #1, ...

........................................................................
.............................. CYCLE   45 ..............................
........................................................................

 iter      E             dE          RMSdq      gap      omega  full diag
   1   -118.0413188 -0.118041E+03  0.847E-02    0.13       0.0  T
   2   -112.2167228  0.582460E+01  0.430E+00    0.01       1.0  T
   3   -117.9265321 -0.570981E+01  0.633E-01    0.15       1.0  T
   4   -118.0126732 -0.861411E-01  0.333E-01    0.12       1.0  T
   5   -117.8073758  0.205297E+00  0.918E-01    0.12       1.0  T
   6   -118.0392795 -0.231904E+00  0.117E-01    0.13       1.0  T
   7   -118.0412517 -0.197218E-02  0.869E-02    0.13       1.0  T
   8   -118.0329570  0.829468E-02  0.191E-01    0.12       1.0  T
   9   -118.0424640 -0.950701E-02  0.495E-02    0.13       1.0  T
  10   -118.0427525 -0.288425E-03  0.377E-02    0.13       1.0  T
  11   -118.0428087 -0.562392E-04  0.342E-02    0.13       1.0  T
  12   -118.0430153 -0.206573E-03  0.211E-02    0.13       1.0  T
  13   -118.0430797 -0.643890E-04  0.148E-02    0.13       1.0  T
  14   -118.0431002 -0.205817E-04  0.121E-02    0.13       1.0  T
  15   -118.0431283 -0.280614E-04  0.684E-03    0.13       1.8  T
  16   -118.0431401 -0.117793E-04  0.262E-03    0.13       4.7  T
  17   -118.0431419 -0.181929E-05  0.682E-04    0.13      17.9  T
  18   -118.0431420 -0.107316E-06  0.308E-04    0.13      39.7  T
  19   -118.0431420 -0.178893E-07  0.179E-04    0.13      68.4  T
  20   -118.0431420 -0.800482E-08  0.637E-05    0.13     191.9  T
     SCC iter.                  ...        0 min,  2.200 sec
     gradient                   ...        0 min,  0.067 sec
 * total energy  :  -117.2028412 Eh     change       -0.1316579E-03 Eh
   gradient norm :     0.0147804 Eh/α   predicted    -0.3233557E-03 ( 145.60%)
   displ. norm   :     0.0923007 α      lambda       -0.3248324E-03
   maximum displ.:     0.0560161 α      in ANC's #24, #25, #35, ...

........................................................................
.............................. CYCLE   46 ..............................
........................................................................

 iter      E             dE          RMSdq      gap      omega  full diag
   1   -118.0458501 -0.118046E+03  0.387E-02    0.13       0.0  T
   2   -117.5205903  0.525260E+00  0.132E+00    0.16       1.0  T
   3   -118.0395620 -0.518972E+00  0.155E-01    0.13       1.0  T
   4   -118.0354510  0.411099E-02  0.194E-01    0.12       1.0  T
   5   -118.0350404  0.410581E-03  0.200E-01    0.13       1.0  T
   6   -118.0459460 -0.109056E-01  0.323E-02    0.13       1.0  T
   7   -118.0452133  0.732730E-03  0.605E-02    0.13       1.0  T
   8   -118.0458263 -0.613038E-03  0.381E-02    0.13       1.0  T
   9   -118.0461852 -0.358845E-03  0.137E-02    0.13       1.0  T
  10   -118.0462013 -0.161338E-04  0.110E-02    0.13       1.1  T
  11   -118.0462265 -0.251507E-04  0.542E-03    0.13       2.3  T
  12   -118.0462337 -0.718858E-05  0.195E-03    0.13       6.3  T
  13   -118.0462343 -0.655958E-06  0.122E-03    0.13      10.0  T
  14   -118.0462346 -0.254531E-06  0.779E-04    0.13      15.7  T
  15   -118.0462347 -0.159193E-06  0.259E-04    0.13      47.2  T
  16   -118.0462347 -0.122403E-07  0.144E-04    0.13      85.0  T
  17   -118.0462348 -0.526313E-08  0.515E-05    0.13     237.4  T
     SCC iter.                  ...        0 min,  2.098 sec
     gradient                   ...        0 min,  0.108 sec
 * total energy  :  -117.2030141 Eh     change       -0.1729041E-03 Eh
   gradient norm :     0.0034891 Eh/α   predicted    -0.1637993E-03 (  -5.27%)
   displ. norm   :     0.1395259 α      lambda       -0.1452778E-03
   maximum displ.:     0.0895788 α      in ANC's #24, #25, #4, ...

........................................................................
.............................. CYCLE   47 ..............................
........................................................................

 iter      E             dE          RMSdq      gap      omega  full diag
   1   -118.0460002 -0.118046E+03  0.280E-02    0.13       0.0  T
   2   -117.7501119  0.295888E+00  0.101E+00    0.16       1.0  T
   3   -118.0437335 -0.293622E+00  0.951E-02    0.13       1.0  T
   4   -118.0433809  0.352541E-03  0.101E-01    0.13       1.0  T
   5   -118.0446375 -0.125657E-02  0.728E-02    0.13       1.0  T
   6   -118.0453485 -0.711018E-03  0.564E-02    0.13       1.0  T
   7   -118.0460835 -0.735003E-03  0.216E-02    0.13       1.0  T
   8   -118.0458255  0.258029E-03  0.372E-02    0.13       1.0  T
   9   -118.0461993 -0.373819E-03  0.833E-03    0.13       1.5  T
  10   -118.0462068 -0.752354E-05  0.629E-03    0.13       1.9  T
  11   -118.0462149 -0.802843E-05  0.325E-03    0.13       3.8  T
  12   -118.0462176 -0.269868E-05  0.928E-04    0.13      13.2  T
  13   -118.0462177 -0.161952E-06  0.498E-04    0.13      24.5  T
  14   -118.0462178 -0.318088E-07  0.364E-04    0.13      33.6  T
  15   -118.0462178 -0.304963E-07  0.144E-04    0.13      84.9  T
  16   -118.0462178 -0.492255E-08  0.508E-05    0.13     240.5  T
     SCC iter.                  ...        0 min,  2.290 sec
     gradient                   ...        0 min,  0.097 sec
 * total energy  :  -117.2031296 Eh     change       -0.1154796E-03 Eh
   gradient norm :     0.0043745 Eh/α   predicted    -0.7405448E-04 ( -35.87%)
   displ. norm   :     0.3380105 α      lambda       -0.2585196E-03
   maximum displ.:     0.2149921 α      in ANC's #24, #4, #11, ...

........................................................................
.............................. CYCLE   48 ..............................
........................................................................

 iter      E             dE          RMSdq      gap      omega  full diag
   1   -118.0446168 -0.118045E+03  0.324E-02    0.14       0.0  T
   2   -117.5793221  0.465295E+00  0.126E+00    0.16       1.0  T
   3   -118.0385557 -0.459234E+00  0.153E-01    0.14       1.0  T
   4   -118.0277591  0.107966E-01  0.248E-01    0.13       1.0  T
   5   -118.0417360 -0.139770E-01  0.106E-01    0.14       1.0  T
   6   -118.0357620  0.597409E-02  0.180E-01    0.14       1.0  T
   7   -118.0442796 -0.851766E-02  0.442E-02    0.14       1.0  T
   8   -118.0422688  0.201081E-02  0.953E-02    0.14       1.0  T
   9   -118.0447932 -0.252443E-02  0.166E-02    0.14       1.0  T
  10   -118.0448135 -0.202637E-04  0.138E-02    0.14       1.0  T
  11   -118.0448453 -0.317751E-04  0.856E-03    0.14       1.4  T
  12   -118.0448639 -0.185756E-04  0.248E-03    0.14       4.9  T
  13   -118.0448644 -0.567579E-06  0.194E-03    0.14       6.3  T
  14   -118.0448650 -0.539410E-06  0.134E-03    0.14       9.1  T
  15   -118.0448653 -0.297518E-06  0.824E-04    0.14      14.8  T
  16   -118.0448654 -0.127282E-06  0.459E-04    0.14      26.6  T
  17   -118.0448654 -0.483992E-07  0.178E-04    0.14      68.5  T
  18   -118.0448654 -0.741436E-08  0.653E-05    0.14     187.1  T
     SCC iter.                  ...        0 min,  2.185 sec
     gradient                   ...        0 min,  0.110 sec
 * total energy  :  -117.2032560 Eh     change       -0.1263951E-03 Eh
   gradient norm :     0.0125474 Eh/α   predicted    -0.1440341E-03 (  13.96%)
   displ. norm   :     0.0851523 α      lambda       -0.1741100E-03
   maximum displ.:     0.0337311 α      in ANC's #11, #4, #18, ...

........................................................................
.............................. CYCLE   49 ..............................
........................................................................

 iter      E             dE          RMSdq      gap      omega  full diag
   1   -118.0471242 -0.118047E+03  0.231E-02    0.14       0.0  T
   2   -117.8867084  0.160416E+00  0.748E-01    0.12       1.0  T
   3   -118.0458918 -0.159183E+00  0.731E-02    0.14       1.0  T
   4   -118.0356547  0.102371E-01  0.201E-01    0.14       1.0  T
   5   -118.0468436 -0.111889E-01  0.400E-02    0.14       1.0  T
   6   -118.0362897  0.105538E-01  0.197E-01    0.14       1.0  T
   7   -118.0471484 -0.108587E-01  0.198E-02    0.14       1.0  T
   8   -118.0461107  0.103770E-02  0.633E-02    0.14       1.0  T
   9   -118.0472492 -0.113847E-02  0.574E-03    0.14       2.1  T
  10   -118.0472550 -0.579445E-05  0.364E-03    0.14       3.4  T
  11   -118.0472573 -0.228582E-05  0.212E-03    0.14       5.8  T
  12   -118.0472584 -0.115088E-05  0.633E-04    0.14      19.3  T
  13   -118.0472585 -0.502517E-07  0.442E-04    0.14      27.6  T
  14   -118.0472585 -0.539287E-07  0.120E-04    0.14     101.9  T
  15   -118.0472585 -0.313975E-08  0.441E-05    0.14     277.3  T
     SCC iter.                  ...        0 min,  1.805 sec
     gradient                   ...        0 min,  0.131 sec
 * total energy  :  -117.2033623 Eh     change       -0.1062941E-03 Eh
   gradient norm :     0.0046314 Eh/α   predicted    -0.8768789E-04 ( -17.50%)
   displ. norm   :     0.2632219 α      lambda       -0.1734233E-03
   maximum displ.:     0.1405171 α      in ANC's #24, #11, #4, ...

........................................................................
.............................. CYCLE   50 ..............................
........................................................................

 iter      E             dE          RMSdq      gap      omega  full diag
   1   -118.0467286 -0.118047E+03  0.270E-02    0.15       0.0  T
   2   -117.7275840  0.319145E+00  0.106E+00    0.15       1.0  T
   3   -118.0421789 -0.314595E+00  0.131E-01    0.15       1.0  T
   4   -118.0431400 -0.961041E-03  0.117E-01    0.15       1.0  T
   5   -118.0442424 -0.110239E-02  0.948E-02    0.15       1.0  T
   6   -118.0450382 -0.795814E-03  0.815E-02    0.15       1.0  T
   7   -118.0468396 -0.180139E-02  0.178E-02    0.15       1.0  T
   8   -118.0454252  0.141438E-02  0.727E-02    0.15       1.0  T
   9   -118.0469199 -0.149468E-02  0.564E-03    0.15       2.2  T
  10   -118.0469235 -0.360961E-05  0.418E-03    0.15       2.9  T
  11   -118.0469266 -0.310399E-05  0.246E-03    0.15       5.0  T
  12   -118.0469281 -0.150717E-05  0.605E-04    0.15      20.2  T
  13   -118.0469282 -0.100650E-06  0.150E-04    0.15      81.4  T
  14   -118.0469282 -0.450261E-08  0.883E-05    0.15     138.3  T
     SCC iter.                  ...        0 min,  1.674 sec
     gradient                   ...        0 min,  0.116 sec
 * total energy  :  -117.2035041 Eh     change       -0.1418301E-03 Eh
   gradient norm :     0.0034681 Eh/α   predicted    -0.9271630E-04 ( -34.63%)
   displ. norm   :     0.4973518 α      lambda       -0.2564288E-03
   maximum displ.:     0.2664545 α      in ANC's #24, #11, #18, ...

........................................................................
.............................. CYCLE   51 ..............................
........................................................................

 iter      E             dE          RMSdq      gap      omega  full diag
   1   -118.0427904 -0.118043E+03  0.532E-02    0.16       0.0  T
   2   -116.1596812  0.188311E+01  0.252E+00    0.19       1.0  T
   3   -118.0244089 -0.186473E+01  0.263E-01    0.16       1.0  T
   4   -118.0243688  0.400541E-04  0.265E-01    0.15       1.0  T
   5   -118.0190152  0.535359E-02  0.293E-01    0.15       1.0  T
   6   -118.0427570 -0.237418E-01  0.535E-02    0.16       1.0  T
   7   -118.0421447  0.612319E-03  0.691E-02    0.16       1.0  T
   8   -118.0421318  0.128982E-04  0.688E-02    0.16       1.0  T
   9   -118.0435051 -0.137330E-02  0.121E-02    0.16       1.0  T
  10   -118.0435186 -0.135243E-04  0.888E-03    0.16       1.4  T
  11   -118.0435348 -0.161539E-04  0.430E-03    0.16       2.8  T
  12   -118.0435384 -0.358421E-05  0.192E-03    0.16       6.4  T
  13   -118.0435393 -0.941974E-06  0.781E-04    0.16      15.7  T
  14   -118.0435394 -0.116764E-06  0.464E-04    0.16      26.3  T
  15   -118.0435395 -0.393885E-07  0.263E-04    0.16      46.4  T
  16   -118.0435395 -0.805953E-08  0.200E-04    0.16      61.2  T
  17   -118.0435395 -0.556720E-08  0.138E-04    0.16      88.4  T
     SCC iter.                  ...        0 min,  2.038 sec
     gradient                   ...        0 min,  0.221 sec
 * total energy  :  -117.2036083 Eh     change       -0.1041910E-03 Eh
   gradient norm :     0.0136044 Eh/α   predicted    -0.1599150E-03 (  53.48%)
   displ. norm   :     0.1164672 α      lambda       -0.2886231E-03
   maximum displ.:     0.0509540 α      in ANC's #10, #11, #5, ...

........................................................................
.............................. CYCLE   52 ..............................
........................................................................

 iter      E             dE          RMSdq      gap      omega  full diag
   1   -118.0473826 -0.118047E+03  0.294E-02    0.16       0.0  T
   2   -117.8359366  0.211446E+00  0.879E-01    0.16       1.0  T
   3   -118.0458063 -0.209870E+00  0.797E-02    0.16       1.0  T
   4   -118.0311045  0.147018E-01  0.236E-01    0.15       1.0  T
   5   -118.0435748 -0.124704E-01  0.120E-01    0.16       1.0  T
   6   -118.0468664 -0.329152E-02  0.486E-02    0.16       1.0  T
   7   -118.0465351  0.331248E-03  0.608E-02    0.16       1.0  T
   8   -118.0472579 -0.722750E-03  0.341E-02    0.16       1.0  T
   9   -118.0475034 -0.245548E-03  0.166E-02    0.16       1.0  T
  10   -118.0475593 -0.559159E-04  0.797E-03    0.16       1.5  T
  11   -118.0475736 -0.142236E-04  0.362E-03    0.16       3.4  T
  12   -118.0475771 -0.357099E-05  0.126E-03    0.16       9.7  T
  13   -118.0475775 -0.352713E-06  0.576E-04    0.16      21.2  T
  14   -118.0475776 -0.705433E-07  0.284E-04    0.16      43.0  T
  15   -118.0475776 -0.122533E-07  0.194E-04    0.16      63.1  T
  16   -118.0475776 -0.859532E-08  0.843E-05    0.16     144.9  T
     SCC iter.                  ...        0 min,  1.962 sec
     gradient                   ...        0 min,  0.096 sec
 * total energy  :  -117.2037451 Eh     change       -0.1367942E-03 Eh
   gradient norm :     0.0044275 Eh/α   predicted    -0.1462782E-03 (   6.93%)
   displ. norm   :     0.2809937 α      lambda       -0.1396042E-03
   maximum displ.:     0.1192094 α      in ANC's #24, #11, #10, ...

........................................................................
.............................. CYCLE   53 ..............................
........................................................................

 iter      E             dE          RMSdq      gap      omega  full diag
   1   -118.0464353 -0.118046E+03  0.445E-02    0.16       0.0  T
   2   -116.7297157  0.131672E+01  0.210E+00    0.20       1.0  T
   3   -118.0288891 -0.129917E+01  0.250E-01    0.17       1.0  T
   4   -118.0396688 -0.107796E-01  0.159E-01    0.16       1.0  T
   5   -118.0354427  0.422607E-02  0.204E-01    0.16       1.0  T
   6   -118.0452217 -0.977896E-02  0.797E-02    0.16       1.0  T
   7   -118.0469379 -0.171628E-02  0.159E-02    0.16       1.0  T
   8   -118.0459820  0.955995E-03  0.602E-02    0.16       1.0  T
   9   -118.0469918 -0.100987E-02  0.740E-03    0.16       1.7  T
  10   -118.0469989 -0.705659E-05  0.545E-03    0.16       2.2  T
  11   -118.0470030 -0.409533E-05  0.377E-03    0.16       3.2  T
  12   -118.0470061 -0.307896E-05  0.177E-03    0.16       6.9  T
  13   -118.0470066 -0.562663E-06  0.101E-03    0.16      12.1  T
  14   -118.0470067 -0.125865E-06  0.734E-04    0.16      16.6  T
  15   -118.0470068 -0.821668E-07  0.485E-04    0.16      25.2  T
  16   -118.0470069 -0.501761E-07  0.220E-04    0.16      55.5  T
  17   -118.0470069 -0.116491E-07  0.766E-05    0.16     159.5  T
  18   -118.0470069 -0.136339E-08  0.284E-05    0.16     430.2  T
     SCC iter.                  ...        0 min,  2.278 sec
     gradient                   ...        0 min,  0.125 sec
 * total energy  :  -117.2038646 Eh     change       -0.1194703E-03 Eh
   gradient norm :     0.0038945 Eh/α   predicted    -0.7533218E-04 ( -36.94%)
   displ. norm   :     0.6163649 α      lambda       -0.2828561E-03
   maximum displ.:     0.2521762 α      in ANC's #11, #24, #10, ...

........................................................................
.............................. CYCLE   54 ..............................
........................................................................

 iter      E             dE          RMSdq      gap      omega  full diag
   1   -118.0402327 -0.118040E+03  0.104E-01    0.17       0.0  T
   2   -110.7022844  0.733795E+01  0.485E+00    0.15       1.0  T
   3   -117.8547546 -0.715247E+01  0.806E-01    0.18       1.0  T
   4   -118.0144672 -0.159713E+00  0.310E-01    0.16       1.0  T
   5   -117.9741084  0.403588E-01  0.497E-01    0.17       1.0  T
   6   -118.0235094 -0.494010E-01  0.270E-01    0.16       1.0  T
   7   -118.0388176 -0.153081E-01  0.125E-01    0.16       1.0  T
   8   -118.0428955 -0.407793E-02  0.376E-02    0.17       1.0  T
   9   -118.0431081 -0.212622E-03  0.250E-02    0.17       1.0  T
  10   -118.0430556  0.525759E-04  0.282E-02    0.17       1.0  T
  11   -118.0431491 -0.935344E-04  0.211E-02    0.17       1.0  T
  12   -118.0432439 -0.947713E-04  0.101E-02    0.17       1.2  T
  13   -118.0432591 -0.152131E-04  0.648E-03    0.17       1.9  T
  14   -118.0432670 -0.795087E-05  0.359E-03    0.17       3.4  T
  15   -118.0432689 -0.186969E-05  0.239E-03    0.17       5.1  T
  16   -118.0432701 -0.119706E-05  0.111E-03    0.17      11.0  T
  17   -118.0432704 -0.303658E-06  0.320E-04    0.17      38.1  T
  18   -118.0432704 -0.266760E-07  0.606E-05    0.17     201.5  T
  19   -118.0432704 -0.615159E-09  0.364E-05    0.17     335.7  T
     SCC iter.                  ...        0 min,  2.492 sec
     gradient                   ...        0 min,  0.107 sec
 * total energy  :  -117.2039633 Eh     change       -0.9872777E-04 Eh
   gradient norm :     0.0139003 Eh/α   predicted    -0.1952890E-03 (  97.81%)
   displ. norm   :     0.7030285 α      lambda        0.2224333E-03
   maximum displ.:     0.2978547 α      in ANC's #11, #10, #24, ...

........................................................................
.............................. CYCLE   55 ..............................
........................................................................

 iter      E             dE          RMSdq      gap      omega  full diag
   1   -118.0327315 -0.118033E+03  0.119E-01    0.17       0.0  T
   2   -108.2424461  0.979029E+01  0.556E+00    0.11       1.0  T
   3   -117.8295844 -0.958714E+01  0.849E-01    0.19       1.0  T
   4   -117.9998622 -0.170278E+00  0.355E-01    0.17       1.0  T
   5   -117.8438960  0.155966E+00  0.821E-01    0.17       1.0  T
   6   -118.0235792 -0.179683E+00  0.222E-01    0.18       1.0  T
   7   -118.0174375  0.614173E-02  0.260E-01    0.16       1.0  T
   8   -118.0362774 -0.188399E-01  0.399E-02    0.17       1.0  T
   9   -118.0366200 -0.342597E-03  0.188E-02    0.17       1.0  T
  10   -118.0365389  0.810313E-04  0.250E-02    0.17       1.0  T
  11   -118.0366195 -0.805903E-04  0.179E-02    0.17       1.0  T
  12   -118.0366870 -0.674550E-04  0.860E-03    0.17       1.4  T
  13   -118.0366973 -0.103254E-04  0.581E-03    0.17       2.1  T
  14   -118.0367036 -0.632940E-05  0.323E-03    0.17       3.8  T
  15   -118.0367048 -0.115528E-05  0.244E-03    0.17       5.0  T
  16   -118.0367060 -0.119472E-05  0.122E-03    0.17      10.0  T
  17   -118.0367063 -0.357391E-06  0.377E-04    0.17      32.4  T
  18   -118.0367064 -0.364273E-07  0.816E-05    0.17     149.7  T
  19   -118.0367064 -0.163297E-08  0.248E-05    0.17     493.3  T
     SCC iter.                  ...        0 min,  2.373 sec
     gradient                   ...        0 min,  0.087 sec
 * total energy  :  -117.2037534 Eh     change        0.2099091E-03 Eh
   gradient norm :     0.0239538 Eh/α   predicted     0.1663153E-03 ( -20.77%)
   displ. norm   :     0.2118947 α      lambda       -0.8999205E-03
   maximum displ.:     0.1236455 α      in ANC's #24, #11, #4, ...

........................................................................
.............................. CYCLE   56 ..............................
........................................................................

 iter      E             dE          RMSdq      gap      omega  full diag
   1   -118.0472527 -0.118047E+03  0.424E-02    0.17       0.0  T
   2   -117.6352514  0.412001E+00  0.121E+00    0.16       1.0  T
   3   -118.0427179 -0.407466E+00  0.132E-01    0.17       1.0  T
   4   -118.0082848  0.344331E-01  0.376E-01    0.17       1.0  T
   5   -118.0459363 -0.376515E-01  0.831E-02    0.17       1.0  T
   6   -118.0338102  0.121261E-01  0.215E-01    0.16       1.0  T
   7   -118.0475314 -0.137212E-01  0.177E-02    0.17       1.0  T
   8   -118.0416424  0.588900E-02  0.145E-01    0.17       1.0  T
   9   -118.0475280 -0.588558E-02  0.163E-02    0.17       1.0  T
  10   -118.0475800 -0.520220E-04  0.887E-03    0.17       1.4  T
  11   -118.0475885 -0.856027E-05  0.621E-03    0.17       2.0  T
  12   -118.0475993 -0.107434E-04  0.123E-03    0.17       9.9  T
  13   -118.0475994 -0.993962E-07  0.101E-03    0.17      12.1  T
  14   -118.0475994 -0.848988E-08  0.986E-04    0.17      12.4  T
  15   -118.0475996 -0.212694E-06  0.457E-04    0.17      26.7  T
  16   -118.0475997 -0.384829E-07  0.263E-04    0.17      46.5  T
  17   -118.0475997 -0.165779E-07  0.929E-05    0.17     131.5  T
  18   -118.0475997 -0.223609E-08  0.217E-05    0.17     562.4  T
     SCC iter.                  ...        0 min,  2.195 sec
     gradient                   ...        0 min,  0.115 sec
 * total energy  :  -117.2041432 Eh     change       -0.3897889E-03 Eh
   gradient norm :     0.0087319 Eh/α   predicted    -0.4697787E-03 (  20.52%)
   displ. norm   :     0.1009247 α      lambda       -0.3014467E-03
   maximum displ.:     0.0479190 α      in ANC's #1, #20, #19, ...

........................................................................
.............................. CYCLE   57 ..............................
........................................................................

 iter      E             dE          RMSdq      gap      omega  full diag
   1   -118.0476105 -0.118048E+03  0.581E-02    0.17       0.0  T
   2   -116.5836503  0.146396E+01  0.227E+00    0.13       1.0  T
   3   -118.0308741 -0.144722E+01  0.249E-01    0.18       1.0  T
   4   -118.0264136  0.446050E-02  0.276E-01    0.17       1.0  T
   5   -118.0398097 -0.133961E-01  0.178E-01    0.17       1.0  T
   6   -117.9968458  0.429639E-01  0.421E-01    0.18       1.0  T
   7   -118.0476818 -0.508360E-01  0.534E-02    0.17       1.0  T
   8   -118.0389875  0.869435E-02  0.182E-01    0.17       1.0  T
   9   -118.0482870 -0.929952E-02  0.264E-02    0.17       1.0  T
  10   -118.0483577 -0.706651E-04  0.204E-02    0.17       1.0  T
  11   -118.0484412 -0.835737E-04  0.119E-02    0.17       1.0  T
  12   -118.0484753 -0.340410E-04  0.441E-03    0.17       2.8  T
  13   -118.0484805 -0.525987E-05  0.135E-03    0.17       9.1  T
  14   -118.0484808 -0.214806E-06  0.993E-04    0.17      12.3  T
  15   -118.0484810 -0.198726E-06  0.509E-04    0.17      24.0  T
  16   -118.0484810 -0.561612E-07  0.230E-04    0.17      53.1  T
  17   -118.0484810 -0.126227E-07  0.783E-05    0.17     156.1  T
  18   -118.0484810 -0.126649E-08  0.382E-05    0.17     319.7  T
     SCC iter.                  ...        0 min,  2.313 sec
     gradient                   ...        0 min,  0.137 sec
 * total energy  :  -117.2042518 Eh     change       -0.1086782E-03 Eh
   gradient norm :     0.0062480 Eh/α   predicted    -0.1523674E-03 (  40.20%)
   displ. norm   :     0.1461867 α      lambda       -0.1150389E-03
   maximum displ.:     0.0665786 α      in ANC's #11, #10, #7, ...

........................................................................
.............................. CYCLE   58 ..............................
........................................................................

 iter      E             dE          RMSdq      gap      omega  full diag
   1   -118.0486785 -0.118049E+03  0.189E-02    0.17       0.0  T
   2   -117.9251826  0.123496E+00  0.668E-01    0.18       1.0  T
   3   -118.0474332 -0.122251E+00  0.700E-02    0.17       1.0  T
   4   -118.0448134  0.261973E-02  0.117E-01    0.17       1.0  T
   5   -118.0480236 -0.321018E-02  0.523E-02    0.17       1.0  T
   6   -118.0426351  0.538853E-02  0.147E-01    0.18       1.0  T
   7   -118.0486893 -0.605425E-02  0.165E-02    0.17       1.0  T
   8   -118.0480734  0.615908E-03  0.476E-02    0.17       1.0  T
   9   -118.0487455 -0.672100E-03  0.808E-03    0.17       1.5  T
  10   -118.0487544 -0.890807E-05  0.554E-03    0.17       2.2  T
  11   -118.0487623 -0.790093E-05  0.193E-03    0.17       6.3  T
  12   -118.0487633 -0.993445E-06  0.339E-04    0.17      36.1  T
  13   -118.0487633 -0.252730E-07  0.141E-04    0.17      86.6  T
  14   -118.0487633 -0.551729E-08  0.437E-05    0.17     279.4  T
     SCC iter.                  ...        0 min,  1.763 sec
     gradient                   ...        0 min,  0.113 sec
 * total energy  :  -117.2043341 Eh     change       -0.8227843E-04 Eh
   gradient norm :     0.0027588 Eh/α   predicted    -0.5850382E-04 ( -28.90%)
   displ. norm   :     0.4446503 α      lambda       -0.1826676E-03
   maximum displ.:     0.1994818 α      in ANC's #11, #10, #7, ...

........................................................................
.............................. CYCLE   59 ..............................
........................................................................

 iter      E             dE          RMSdq      gap      omega  full diag
   1   -118.0474020 -0.118047E+03  0.385E-02    0.17       0.0  T
   2   -117.2779032  0.769499E+00  0.164E+00    0.21       1.0  T
   3   -118.0417194 -0.763816E+00  0.147E-01    0.18       1.0  T
   4   -118.0371979  0.452150E-02  0.194E-01    0.17       1.0  T
   5   -118.0443977 -0.719979E-02  0.112E-01    0.18       1.0  T
   6   -118.0336126  0.107851E-01  0.219E-01    0.18       1.0  T
   7   -118.0475589 -0.139463E-01  0.291E-02    0.18       1.0  T
   8   -118.0445507  0.300819E-02  0.105E-01    0.17       1.0  T
   9   -118.0477137 -0.316300E-02  0.157E-02    0.18       1.0  T
  10   -118.0477382 -0.245305E-04  0.123E-02    0.18       1.0  T
  11   -118.0477741 -0.358640E-04  0.565E-03    0.18       2.2  T
  12   -118.0477819 -0.787587E-05  0.201E-03    0.18       6.1  T
  13   -118.0477829 -0.942860E-06  0.822E-04    0.18      14.9  T
  14   -118.0477829 -0.533622E-07  0.678E-04    0.18      18.0  T
  15   -118.0477830 -0.998881E-07  0.303E-04    0.18      40.3  T
  16   -118.0477831 -0.214803E-07  0.118E-04    0.18     103.9  T
  17   -118.0477831 -0.338019E-08  0.349E-05    0.18     350.3  T
     SCC iter.                  ...        0 min,  2.036 sec
     gradient                   ...        0 min,  0.111 sec
 * total energy  :  -117.2044666 Eh     change       -0.1325020E-03 Eh
   gradient norm :     0.0040513 Eh/α   predicted    -0.1075724E-03 ( -18.81%)
   displ. norm   :     0.5190896 α      lambda       -0.3114019E-03
   maximum displ.:     0.2399494 α      in ANC's #11, #10, #7, ...

........................................................................
.............................. CYCLE   60 ..............................
........................................................................

 iter      E             dE          RMSdq      gap      omega  full diag
   1   -118.0453705 -0.118045E+03  0.389E-02    0.18       0.0  T
   2   -117.2675476  0.777823E+00  0.164E+00    0.23       1.0  T
   3   -118.0379120 -0.770364E+00  0.166E-01    0.18       1.0  T
   4   -118.0362622  0.164979E-02  0.182E-01    0.17       1.0  T
   5   -118.0353597  0.902535E-03  0.189E-01    0.18       1.0  T
   6   -118.0442937 -0.893397E-02  0.698E-02    0.18       1.0  T
   7   -118.0456121 -0.131844E-02  0.233E-02    0.18       1.0  T
   8   -118.0449547  0.657419E-03  0.532E-02    0.18       1.0  T
   9   -118.0457218 -0.767119E-03  0.109E-02    0.18       1.1  T
  10   -118.0457240 -0.221700E-05  0.994E-03    0.18       1.2  T
  11   -118.0457465 -0.225096E-04  0.491E-03    0.18       2.5  T
  12   -118.0457528 -0.630662E-05  0.150E-03    0.18       8.2  T
  13   -118.0457532 -0.389154E-06  0.945E-04    0.18      12.9  T
  14   -118.0457534 -0.151590E-06  0.577E-04    0.18      21.2  T
  15   -118.0457534 -0.581312E-07  0.337E-04    0.18      36.3  T
  16   -118.0457535 -0.253800E-07  0.148E-04    0.18      82.4  T
  17   -118.0457535 -0.507555E-08  0.559E-05    0.18     218.5  T
     SCC iter.                  ...        0 min,  2.147 sec
     gradient                   ...        0 min,  0.096 sec
 * total energy  :  -117.2045742 Eh     change       -0.1075671E-03 Eh
   gradient norm :     0.0076862 Eh/α   predicted    -0.9865477E-04 (  -8.29%)
   displ. norm   :     0.4673787 α      lambda       -0.4717319E-03
   maximum displ.:     0.2181281 α      in ANC's #11, #10, #7, ...

........................................................................
.............................. CYCLE   61 ..............................
........................................................................

 iter      E             dE          RMSdq      gap      omega  full diag
   1   -118.0453888 -0.118045E+03  0.298E-02    0.18       0.0  T
   2   -117.6586962  0.386693E+00  0.116E+00    0.21       1.0  T
   3   -118.0394883 -0.380792E+00  0.148E-01    0.19       1.0  T
   4   -118.0419032 -0.241499E-02  0.115E-01    0.18       1.0  T
   5   -118.0398636  0.203965E-02  0.143E-01    0.19       1.0  T
   6   -118.0450953 -0.523170E-02  0.440E-02    0.19       1.0  T
   7   -118.0453607 -0.265437E-03  0.303E-02    0.19       1.0  T
   8   -118.0439560  0.140477E-02  0.755E-02    0.18       1.0  T
   9   -118.0455939 -0.163798E-02  0.100E-02    0.19       1.2  T
  10   -118.0456019 -0.794753E-05  0.827E-03    0.19       1.5  T
  11   -118.0456148 -0.129397E-04  0.475E-03    0.19       2.6  T
  12   -118.0456205 -0.571827E-05  0.124E-03    0.19       9.8  T
  13   -118.0456209 -0.393596E-06  0.480E-04    0.19      25.5  T
  14   -118.0456210 -0.182993E-07  0.396E-04    0.19      30.8  T
  15   -118.0456210 -0.383988E-07  0.156E-04    0.19      78.2  T
  16   -118.0456210 -0.523244E-08  0.784E-05    0.19     155.8  T
     SCC iter.                  ...        0 min,  1.973 sec
     gradient                   ...        0 min,  0.108 sec
 * total energy  :  -117.2046854 Eh     change       -0.1111601E-03 Eh
   gradient norm :     0.0052301 Eh/α   predicted    -0.8558675E-04 ( -23.01%)
   displ. norm   :     0.3643415 α      lambda       -0.5408777E-03
   maximum displ.:     0.1728621 α      in ANC's #11, #7, #10, ...

........................................................................
.............................. CYCLE   62 ..............................
........................................................................

 iter      E             dE          RMSdq      gap      omega  full diag
   1   -118.0485297 -0.118049E+03  0.349E-02    0.19       0.0  T
   2   -117.5978480  0.450682E+00  0.127E+00    0.22       1.0  T
   3   -118.0432833 -0.445435E+00  0.139E-01    0.19       1.0  T
   4   -118.0425720  0.711349E-03  0.146E-01    0.19       1.0  T
   5   -118.0472581 -0.468613E-02  0.776E-02    0.19       1.0  T
   6   -118.0369999  0.102582E-01  0.204E-01    0.19       1.0  T
   7   -118.0486483 -0.116484E-01  0.279E-02    0.19       1.0  T
   8   -118.0456007  0.304761E-02  0.106E-01    0.19       1.0  T
   9   -118.0488206 -0.321991E-02  0.112E-02    0.19       1.1  T
  10   -118.0488453 -0.246297E-04  0.603E-03    0.19       2.0  T
  11   -118.0488514 -0.610560E-05  0.374E-03    0.19       3.3  T
  12   -118.0488550 -0.356974E-05  0.903E-04    0.19      13.5  T
  13   -118.0488552 -0.218840E-06  0.351E-04    0.19      34.8  T
  14   -118.0488552 -0.175662E-07  0.244E-04    0.19      50.1  T
  15   -118.0488552 -0.120793E-07  0.128E-04    0.19      95.1  T
  16   -118.0488552 -0.345129E-08  0.657E-05    0.19     186.0  T
     SCC iter.                  ...        0 min,  1.938 sec
     gradient                   ...        0 min,  0.099 sec
 * total energy  :  -117.2047569 Eh     change       -0.7150560E-04 Eh
   gradient norm :     0.0035986 Eh/α   predicted    -0.6249247E-04 ( -12.60%)
   displ. norm   :     0.3779502 α      lambda       -0.5633865E-03
   maximum displ.:     0.1792291 α      in ANC's #11, #7, #10, ...

........................................................................
.............................. CYCLE   63 ..............................
........................................................................

 iter      E             dE          RMSdq      gap      omega  full diag
   1   -118.0470236 -0.118047E+03  0.381E-02    0.19       0.0  T
   2   -117.4020888  0.644935E+00  0.152E+00    0.24       1.0  T
   3   -118.0390477 -0.636959E+00  0.171E-01    0.19       1.0  T
   4   -118.0428351 -0.378736E-02  0.127E-01    0.19       1.0  T
   5   -118.0448513 -0.201626E-02  0.953E-02    0.19       1.0  T
   6   -118.0447530  0.983561E-04  0.951E-02    0.19       1.0  T
   7   -118.0472691 -0.251612E-02  0.239E-02    0.19       1.0  T
   8   -118.0461498  0.111932E-02  0.663E-02    0.19       1.0  T
   9   -118.0473845 -0.123470E-02  0.113E-02    0.19       1.1  T
  10   -118.0474094 -0.249698E-04  0.620E-03    0.19       2.0  T
  11   -118.0474157 -0.625723E-05  0.397E-03    0.19       3.1  T
  12   -118.0474197 -0.406326E-05  0.902E-04    0.19      13.5  T
  13   -118.0474200 -0.240746E-06  0.181E-04    0.19      67.6  T
  14   -118.0474200 -0.265314E-08  0.147E-04    0.19      82.9  T
     SCC iter.                  ...        0 min,  1.792 sec
     gradient                   ...        0 min,  0.103 sec
 * total energy  :  -117.2048222 Eh     change       -0.6530338E-04 Eh
   gradient norm :     0.0032560 Eh/α   predicted    -0.5591512E-04 ( -14.38%)
   displ. norm   :     0.3408258 α      lambda       -0.6953008E-03
   maximum displ.:     0.1598907 α      in ANC's #7, #11, #10, ...

........................................................................
.............................. CYCLE   64 ..............................
........................................................................

 iter      E             dE          RMSdq      gap      omega  full diag
   1   -118.0479635 -0.118048E+03  0.429E-02    0.19       0.0  T
   2   -117.2721866  0.775777E+00  0.167E+00    0.23       1.0  T
   3   -118.0383181 -0.766131E+00  0.189E-01    0.20       1.0  T
   4   -118.0434422 -0.512410E-02  0.132E-01    0.19       1.0  T
   5   -118.0376459  0.579631E-02  0.192E-01    0.19       1.0  T
   6   -118.0458366 -0.819071E-02  0.977E-02    0.20       1.0  T
   7   -118.0481330 -0.229641E-02  0.353E-02    0.20       1.0  T
   8   -118.0471205  0.101253E-02  0.685E-02    0.19       1.0  T
   9   -118.0484183 -0.129777E-02  0.144E-02    0.20       1.0  T
  10   -118.0484589 -0.406161E-04  0.824E-03    0.20       1.5  T
  11   -118.0484733 -0.144453E-04  0.406E-03    0.20       3.0  T
  12   -118.0484778 -0.448573E-05  0.557E-04    0.20      21.9  T
  13   -118.0484779 -0.668846E-07  0.307E-04    0.20      39.8  T
  14   -118.0484779 -0.816503E-08  0.248E-04    0.20      49.3  T
  15   -118.0484779 -0.147394E-07  0.995E-05    0.20     122.7  T
  16   -118.0484779 -0.159721E-08  0.626E-05    0.20     195.2  T
     SCC iter.                  ...        0 min,  2.020 sec
     gradient                   ...        0 min,  0.104 sec
 * total energy  :  -117.2048949 Eh     change       -0.7271486E-04 Eh
   gradient norm :     0.0042592 Eh/α   predicted    -0.6024827E-04 ( -17.14%)
   displ. norm   :     0.3604418 α      lambda       -0.7934282E-03
   maximum displ.:     0.1698162 α      in ANC's #7, #11, #10, ...

........................................................................
.............................. CYCLE   65 ..............................
........................................................................

 iter      E             dE          RMSdq      gap      omega  full diag
   1   -118.0471579 -0.118047E+03  0.450E-02    0.19       0.0  T
   2   -117.0682875  0.978870E+00  0.187E+00    0.24       1.0  T
   3   -118.0437833 -0.975496E+00  0.117E-01    0.20       1.0  T
   4   -118.0344178  0.936556E-02  0.216E-01    0.19       1.0  T
   5   -118.0359332 -0.151540E-02  0.204E-01    0.19       1.0  T
   6   -118.0471641 -0.112309E-01  0.433E-02    0.19       1.0  T
   7   -118.0476600 -0.495880E-03  0.138E-02    0.20       1.0  T
   8   -118.0473387  0.321284E-03  0.352E-02    0.20       1.0  T
   9   -118.0476884 -0.349657E-03  0.874E-03    0.20       1.4  T
  10   -118.0476976 -0.927481E-05  0.618E-03    0.20       2.0  T
  11   -118.0477052 -0.760173E-05  0.315E-03    0.20       3.9  T
  12   -118.0477080 -0.278121E-05  0.380E-04    0.20      32.1  T
  13   -118.0477080  0.109182E-07  0.383E-04    0.20      31.9  T
  14   -118.0477080 -0.306595E-07  0.199E-04    0.20      61.4  T
  15   -118.0477080 -0.880124E-08  0.921E-05    0.20     132.7  T
     SCC iter.                  ...        0 min,  1.938 sec
     gradient                   ...        0 min,  0.111 sec
 * total energy  :  -117.2049580 Eh     change       -0.6310085E-04 Eh
   gradient norm :     0.0049381 Eh/α   predicted    -0.6084402E-04 (  -3.58%)
   displ. norm   :     0.3448140 α      lambda       -0.1126931E-02
   maximum displ.:     0.1705287 α      in ANC's #7, #11, #2, ...

........................................................................
.............................. CYCLE   66 ..............................
........................................................................

 iter      E             dE          RMSdq      gap      omega  full diag
   1   -118.0499549 -0.118050E+03  0.304E-02    0.19       0.0  T
   2   -117.6258069  0.424148E+00  0.122E+00    0.21       1.0  T
   3   -118.0487933 -0.422986E+00  0.711E-02    0.19       1.0  T
   4   -118.0329959  0.157974E-01  0.249E-01    0.20       1.0  T
   5   -118.0467117 -0.137158E-01  0.109E-01    0.19       1.0  T
   6   -118.0485119 -0.180019E-02  0.772E-02    0.19       1.0  T
   7   -118.0497674 -0.125558E-02  0.386E-02    0.19       1.0  T
   8   -118.0489374  0.830006E-03  0.660E-02    0.19       1.0  T
   9   -118.0501256 -0.118817E-02  0.161E-02    0.19       1.0  T
  10   -118.0501756 -0.499435E-04  0.949E-03    0.19       1.3  T
  11   -118.0501943 -0.187515E-04  0.519E-03    0.19       2.4  T
  12   -118.0502014 -0.713405E-05  0.133E-03    0.19       9.2  T
  13   -118.0502017 -0.243794E-06  0.890E-04    0.19      13.7  T
  14   -118.0502018 -0.160053E-06  0.483E-04    0.19      25.3  T
  15   -118.0502019 -0.384977E-07  0.295E-04    0.19      41.4  T
  16   -118.0502019 -0.166457E-07  0.157E-04    0.19      77.9  T
  17   -118.0502019 -0.412172E-08  0.959E-05    0.19     127.3  T
     SCC iter.                  ...        0 min,  2.119 sec
     gradient                   ...        0 min,  0.105 sec
 * total energy  :  -117.2050493 Eh     change       -0.9128459E-04 Eh
   gradient norm :     0.0041133 Eh/α   predicted    -0.8721887E-04 (  -4.45%)
   displ. norm   :     0.3625086 α      lambda       -0.1084292E-02
   maximum displ.:     0.1841995 α      in ANC's #7, #11, #2, ...
 * RMSD in coord.:     0.7456629 α      energy gain  -0.2517262E-02 Eh

generating ANC from model Hessian ...
Using Lindh-Hessian (1995)
 Shifting diagonal of input Hessian by    1.3231582269657861E-002
 Lowest  eigenvalues of input Hessian
    0.010000    0.012713    0.013025    0.013060    0.013204    0.013222
    0.000000    0.000000    0.000000    0.000000    0.000000    0.000000
    0.013236    0.013276    0.013296    0.013342    0.013478    0.013502
 Highest eigenvalues
    1.571961    1.657695    1.687810    1.821189    1.952324    2.370966


........................................................................
.............................. CYCLE   67 ..............................
........................................................................

 iter      E             dE          RMSdq      gap      omega  full diag
   1   -118.0492986 -0.118049E+03  0.201E-02    0.19       0.0  T
   2   -117.8803603  0.168938E+00  0.770E-01    0.18       1.0  T
   3   -118.0487728 -0.168412E+00  0.476E-02    0.19       1.0  T
   4   -118.0412072  0.756554E-02  0.171E-01    0.19       1.0  T
   5   -118.0485205 -0.731325E-02  0.548E-02    0.19       1.0  T
   6   -118.0488624 -0.341939E-03  0.428E-02    0.19       1.0  T
   7   -118.0491705 -0.308055E-03  0.295E-02    0.19       1.0  T
   8   -118.0488695  0.301004E-03  0.436E-02    0.19       1.0  T
   9   -118.0493643 -0.494835E-03  0.117E-02    0.19       1.0  T
  10   -118.0493911 -0.267996E-04  0.690E-03    0.19       1.8  T
  11   -118.0494013 -0.101821E-04  0.365E-03    0.19       3.4  T
  12   -118.0494050 -0.375249E-05  0.670E-04    0.19      18.2  T
  13   -118.0494051 -0.443929E-07  0.490E-04    0.19      24.9  T
  14   -118.0494052 -0.703344E-07  0.117E-04    0.19     104.1  T
  15   -118.0494052 -0.245932E-08  0.669E-05    0.19     182.5  T
     SCC iter.                  ...        0 min,  1.780 sec
     gradient                   ...        0 min,  0.078 sec
 * total energy  :  -117.2051394 Eh     change       -0.9010486E-04 Eh
   gradient norm :     0.0037012 Eh/α   predicted     0.0000000E+00 (-100.00%)
   displ. norm   :     0.0432384 α      lambda       -0.5790893E-04
   maximum displ.:     0.0142387 α      in ANC's #43, #14, #36, ...

........................................................................
.............................. CYCLE   68 ..............................
........................................................................

 iter      E             dE          RMSdq      gap      omega  full diag
   1   -118.0488892 -0.118049E+03  0.373E-02    0.19       0.0  T
   2   -117.3908359  0.658053E+00  0.153E+00    0.13       1.0  T
   3   -118.0418066 -0.650971E+00  0.160E-01    0.19       1.0  T
   4   -118.0450783 -0.327168E-02  0.120E-01    0.19       1.0  T
   5   -118.0384429  0.663540E-02  0.195E-01    0.18       1.0  T
   6   -118.0465781 -0.813519E-02  0.957E-02    0.19       1.0  T
   7   -118.0488512 -0.227314E-02  0.388E-02    0.19       1.0  T
   8   -118.0491467 -0.295454E-03  0.216E-02    0.19       1.0  T
   9   -118.0492650 -0.118352E-03  0.658E-03    0.19       1.9  T
  10   -118.0492767 -0.116323E-04  0.197E-03    0.19       6.2  T
  11   -118.0492772 -0.539188E-06  0.135E-03    0.19       9.0  T
  12   -118.0492776 -0.442401E-06  0.363E-04    0.19      33.7  T
  13   -118.0492776 -0.110821E-07  0.292E-04    0.19      41.9  T
  14   -118.0492777 -0.214262E-07  0.101E-04    0.19     121.1  T
  15   -118.0492777 -0.173158E-08  0.596E-05    0.19     205.2  T
     SCC iter.                  ...        0 min,  1.802 sec
     gradient                   ...        0 min,  0.091 sec
 * total energy  :  -117.2051724 Eh     change       -0.3305741E-04 Eh
   gradient norm :     0.0027524 Eh/α   predicted    -0.2921473E-04 ( -11.62%)
   displ. norm   :     0.2032274 α      lambda       -0.2317562E-03
   maximum displ.:     0.0679962 α      in ANC's #14, #16, #23, ...

   *** GEOMETRY OPTIMIZATION CONVERGED AFTER 68 ITERATIONS ***

------------------------------------------------------------------------
 total energy gain   :        -0.2872639 Eh     -180.2608 kcal/mol
 total RMSD          :         1.7656759 a0        0.9344 Å
 total power (kW/mol):       -11.0913430 (step)   -4.1662 (real)
------------------------------------------------------------------------

 ANCopt (total)                0 d,  0 h,  3 min,  1.032 sec
 optimizer setup                ...        0 min,  0.000 sec (  0.000%)
 model hessian                  ...        0 min,  0.103 sec (  0.057%)
 ANC generation                 ...        0 min,  0.110 sec (  0.061%)
 coordinate transformation      ...        0 min,  0.012 sec (  0.007%)
 single point calculation       ...        3 min,  0.624 sec ( 99.775%)
 optimization log               ...        0 min,  0.023 sec (  0.013%)
 hessian update                 ...        0 min,  0.036 sec (  0.020%)
 rational function              ...        0 min,  0.078 sec (  0.043%)

================
 final structure:
================
67
 xtb: 6.6.1 (unknown)
C           52.89050382673810       14.84710153143952       53.79128955218420
C           53.22653729349721       16.06750397291284       52.93696972303909
S           54.04261381202676       15.62439893638668       51.37136802673205
H           52.43867348419448       15.13973495191013       54.74477898365200
H           52.19162127342305       14.19467264703920       53.25909769229812
H           53.79960617174179       14.27675763331901       54.00018182926676
H           52.31253083318800       16.65611972659052       52.77191445049458
H           53.92170258240870       16.70996592510063       53.49358864161084
C           48.02635325581581        8.64886609129273       49.11742340956339
C           49.01383461702022        9.65671735409918       49.70371253325151
S           49.92361810612738       10.43106652504531       48.32640822188997
H           47.45745491560729        8.13125419096466       49.89611258176664
H           47.32375615577065        9.16328827538620       48.45728336578214
H           48.56264429340785        7.90598449794197       48.52179377286188
H           48.45112080873218       10.42050910010459       50.25922808365897
H           49.67192024388978        9.14429687702529       50.41726139306194
C           57.76062366975095        8.22748810017363       46.98790486415002
C           56.56247943884972        7.30859991417662       46.75052824070228
S           55.11001388721020        8.21176674382947       46.12858041227746
H           58.64233887604747        7.66132774162173       47.30729789091027
H           58.00594448233595        8.76093869381016       46.06504062898664
H           57.52025969397503        8.97009569432980       47.75910619876315
H           56.83350689482569        6.56730675398700       45.98524914228299
H           56.34128479587424        6.75242731414049       47.67313500388393
C           57.55999941569336        9.31386938096039       51.76216434792426
C           56.30345109868067        8.68139253387413       52.36061036253048
S           54.88443587521480        9.82094306595188       52.38173004253161
H           57.83480442386437       10.20491531888909       52.33352521357116
H           58.40450359137454        8.61577233014572       51.77975463556887
H           57.37530472869773        9.61727469044498       50.72374405433138
H           56.07552674578803        7.74821081863194       51.82486170829636
H           56.51168715440856        8.41040313596143       53.40525199570114
C           54.75128759820566       16.73343152984519       47.54943094226392
C           54.68331679983901       15.27270940345385       47.11663633840563
S           54.92672792100524       14.21726664883108       48.58852092700701
H           53.96837362566642       16.95115401727962       48.28200040018679
H           55.71569356969508       16.93514678201707       48.02202864387750
H           54.63300840358901       17.41249692009038       46.69882692287916
H           53.73071577584609       15.08071654745013       46.60505119506099
H           55.49665831856070       15.07454579128021       46.40618811253444
C           51.67954438156119       18.97279121012834       50.63269668323598
C           50.57935050493717       18.30283533851937       49.79538102282794
C           50.79902474566810       16.82728700411652       49.68400627226296
N           50.48727458446469       15.96174355817988       50.73799085202033
C           51.04152010979396       14.68042631432248       50.36136563149707
N           51.36686699503152       14.74403840137661       49.01525083321034
C           51.28983244376406       16.07295370981029       48.66745248638119
H           51.61819359540557       18.64352472575307       51.67172433077817
H           52.66692151098970       18.70965484975452       50.24435110778694
H           51.56946522190427       20.05786443095728       50.61028063916835
H           49.60729583166116       18.51706964680904       50.25703018716934
H           50.57480776130095       18.74863737652009       48.79308603445839
H           50.57441238909782       16.30257168237725       51.68599442818697
H           50.40689056611419       13.84381466870308       50.68327866248806
H           51.52749062417479       16.41297001827677       47.66372503787630
Fe          52.12074640935513       10.46503904935956       48.77152920449220
Fe          52.95884604685356       14.20586893747673       50.01008843806470
Fe          54.30540763277249        9.54126016450334       47.79581880437602
Fe          54.18298940976680       10.22594735220762       50.24645821527838
S           55.86966881571297       10.57966555756531       48.91756123017713
S           53.07694200925791        8.61017877000257       49.32038428530870
S           52.86352105614779       12.03129850956543       50.22059822445046
S           53.10199788203516       11.18048631673218       46.86842753202355
Fe          54.35668944548564       12.05239734920443       48.52779903453215
C           52.85761256433982       11.24566190449953       45.05056412182774
O           51.92546922401634       10.55514963893649       44.61420986506158
O           53.62600077972177       12.01483814746911       44.45426771907643

 Bond Distances (Angstroems)
 ---------------------------
C1-C2=1.5271         C1-H4=1.0950         C1-H5=1.0942         C1-H6=1.0933         C2-C1=1.5271         C2-S3=1.8203         
C2-H7=1.0996         C2-H8=1.0981         S3-C2=1.8203         S3-Fe57=2.2450       H4-C1=1.0950         H5-C1=1.0942         
H6-C1=1.0933         H7-C2=1.0996         H8-C2=1.0981         C9-C10=1.5279        C9-H12=1.0945        C9-H13=1.0927        
C9-H14=1.0928        C10-C9=1.5279        C10-S11=1.8233       C10-H15=1.0994       C10-H16=1.0976       S11-C10=1.8233       
S11-Fe56=2.2420      H12-C9=1.0945        H13-C9=1.0927        H14-C9=1.0928        H15-C10=1.0994       H16-C10=1.0976       
C17-C18=1.5285       C17-H20=1.0954       C17-H21=1.0938       C17-H22=1.0973       C18-C17=1.5285       C18-S19=1.8199       
C18-H23=1.0994       C18-H24=1.0998       S19-C18=1.8199       S19-Fe58=2.2792      H20-C17=1.0954       H21-C17=1.0938       
H22-C17=1.0973       H23-C18=1.0994       H24-C18=1.0998       C25-C26=1.5288       C25-H28=1.0936       C25-H29=1.0958       
C25-H30=1.0975       C26-C25=1.5288       C26-S27=1.8201       C26-H31=1.0999       C26-H32=1.0991       S27-C26=1.8201       
S27-Fe59=2.2837      H28-C25=1.0936       H29-C25=1.0958       H30-C25=1.0975       H31-C26=1.0999       H32-C26=1.0991       
C33-C34=1.5250       C33-H36=1.0941       C33-H37=1.0928       C33-H38=1.0948       C34-C33=1.5250       C34-S35=1.8275       
C34-H39=1.0982       C34-H40=1.0980       S35-C34=1.8275       S35-Fe57=2.4277      S35-Fe64=2.2395      H36-C33=1.0941       
H37-C33=1.0928       H38-C33=1.0948       H39-C34=1.0982       H40-C34=1.0980       C41-C42=1.5363       C41-H48=1.0917       
C41-H49=1.0931       C41-H50=1.0909       C42-C41=1.5363       C42-C43=1.4960       C42-H51=1.0972       C42-H52=1.0970       
C43-C42=1.4960       C43-N44=1.3990       C43-C47=1.3577       N44-C43=1.3990       N44-C45=1.4460       N44-H53=1.0112       
C45-N44=1.4460       C45-N46=1.3863       C45-H54=1.0983       C45-Fe57=2.0062      N46-C45=1.3863       N46-C47=1.3758       
N46-Fe57=1.9529      C47-C43=1.3577       C47-N46=1.3758       C47-H55=1.0861       H48-C41=1.0917       H49-C41=1.0931       
H50-C41=1.0909       H51-C42=1.0972       H52-C42=1.0970       H53-N44=1.0112       H54-C45=1.0983       H55-C47=1.0861       
Fe56-S11=2.2420      Fe56-Fe58=2.5648     Fe56-Fe59=2.5467     Fe56-S61=2.1578      Fe56-S62=2.2594      Fe56-S63=2.2575      
Fe56-Fe64=2.7529     Fe57-S3=2.2450       Fe57-S35=2.4277      Fe57-C45=2.0062      Fe57-N46=1.9529      Fe57-S62=2.1868      
Fe57-Fe64=2.9646     Fe58-S19=2.2792      Fe58-Fe56=2.5648     Fe58-Fe59=2.5474     Fe58-S60=2.1871      Fe58-S61=2.1680      
Fe58-S63=2.2350      Fe58-Fe64=2.6161     Fe59-S27=2.2837      Fe59-Fe56=2.5467     Fe59-Fe58=2.5474     Fe59-S60=2.1762      
Fe59-S61=2.1660      Fe59-S62=2.2363      Fe59-Fe64=2.5139     S60-Fe58=2.1871      S60-Fe59=2.1762      S60-Fe64=2.1471      
S61-Fe56=2.1578      S61-Fe58=2.1680      S61-Fe59=2.1660      S62-Fe56=2.2594      S62-Fe57=2.1868      S62-Fe59=2.2363      
S62-Fe64=2.2573      S63-Fe56=2.2575      S63-Fe58=2.2350      S63-Fe64=2.2557      S63-C65=1.8354       Fe64-S35=2.2395      
Fe64-Fe56=2.7529     Fe64-Fe57=2.9646     Fe64-Fe58=2.6161     Fe64-Fe59=2.5139     Fe64-S60=2.1471      Fe64-S62=2.2573      
Fe64-S63=2.2557      C65-S63=1.8354       C65-O66=1.2394       C65-O67=1.2400       O66-C65=1.2394       O67-C65=1.2400       
 C  H  Rav=1.0957 sigma=0.0031  Rmin=1.0861  Rmax=1.0999    32
 C  C  Rav=1.5034 sigma=0.0562  Rmin=1.3577  Rmax=1.5363     8
 N  H  Rav=1.0112 sigma=0.0000  Rmin=1.0112  Rmax=1.0112     1
 N  C  Rav=1.4018 sigma=0.0268  Rmin=1.3758  Rmax=1.4460     4
 O  C  Rav=1.2397 sigma=0.0003  Rmin=1.2394  Rmax=1.2400     2
 S  C  Rav=1.8244 sigma=0.0056  Rmin=1.8199  Rmax=1.8354     6
 Fe C  Rav=2.0062 sigma=0.0000  Rmin=2.0062  Rmax=2.0062     1
 Fe N  Rav=1.9529 sigma=0.0000  Rmin=1.9529  Rmax=1.9529     1
 Fe S  Rav=2.2320 sigma=0.0626  Rmin=2.1471  Rmax=2.4277    19
 Fe Fe Rav=2.6438 sigma=0.1499  Rmin=2.5139  Rmax=2.9646     7

 selected bond angles (degree)
 --------------------
H4-C1-C2=111.37                H5-C1-C2=110.18                H5-C1-H4=108.62                H6-C1-C2=109.93                
H6-C1-H4=108.43                H6-C1-H5=108.24                S3-C2-C1=112.66                H7-C2-C1=109.20                
H7-C2-S3=111.95                H8-C2-C1=108.86                H8-C2-S3=107.13                H8-C2-H7=106.80                
Fe57-S3-C2=117.32              H12-C9-C10=112.02              H13-C9-C10=109.68              H13-C9-H12=108.56              
H14-C9-C10=109.90              H14-C9-H12=108.75              H14-C9-H13=107.84              S11-C10-C9=108.23              
H15-C10-C9=108.75              H15-C10-S11=110.00             H16-C10-C9=109.21              H16-C10-S11=112.97             
H16-C10-H15=107.62             

 selected dihedral angles (degree)
 ---------------------------------
S3-C2-C1-H4=177.65            S3-C2-C1-H5=298.25            S3-C2-C1-H6= 57.45            H7-C2-C1-H4=302.70            
H7-C2-C1-H5= 63.31            H7-C2-C1-H6=182.51            H8-C2-C1-H4= 58.97            H8-C2-C1-H5=179.57            
H8-C2-C1-H6=298.77            Fe57-S3-C2-C1= 56.81          Fe57-S3-C2-H7=293.28          Fe57-S3-C2-H8=176.50          
S11-C10-C9-H12=178.92         S11-C10-C9-H13=299.53         S11-C10-C9-H14= 57.92         H15-C10-C9-H12=298.39         
H15-C10-C9-H13= 59.01         H15-C10-C9-H14=177.39         H16-C10-C9-H12= 55.57         H16-C10-C9-H13=176.18         
H16-C10-C9-H14=294.57         

 CMA Distance (Angstroems)
 ---------------------------
R(CMA):  4.7216
           -------------------------------------------------
          |                Final Singlepoint                |
           -------------------------------------------------

          ...................................................
          :                      SETUP                      :
          :.................................................:
          :  # basis functions                 286          :
          :  # atomic orbitals                 272          :
          :  # shells                          148          :
          :  # electrons                       217          :
          :  # halogen bonds                     0          :
          :  max. iterations                   250          :
          :  Hamiltonian                  GFN1-xTB          :
          :  restarted?                      false          :
          :  GBSA solvation                   true          :
          :  PC potential                    false          :
          :  electronic temp.          300.0000000     K    :
          :  accuracy                    1.0000000          :
          :  -> integral cutoff          0.2500000E+02      :
          :  -> integral neglect         0.1000000E-07      :
          :  -> SCF convergence          0.1000000E-05 Eh   :
          :  -> wf. convergence          0.2000000E-04 e    :
          :  Broyden damping             0.4000000          :
          ...................................................

 iter      E             dE          RMSdq      gap      omega  full diag
   1   -118.0492777 -0.118049E+03  0.335E-05    0.19       0.0  T
   2   -118.0492772  0.513731E-06  0.135E-03    0.19       9.0  T
   3   -118.0492777 -0.511249E-06  0.989E-05    0.19     123.5  T
   4   -118.0492777 -0.246024E-08  0.344E-05    0.19     355.0  T

   *** convergence criteria satisfied after 4 iterations ***

         #    Occupation            Energy/Eh            Energy/eV
      -------------------------------------------------------------
         1        2.0000           -0.7595782             -20.6692
       ...           ...                  ...                  ...
       103        2.0000           -0.2243262              -6.1042
       104        1.9999           -0.2222810              -6.0486
       105        1.9991           -0.2205589              -6.0017
       106        1.9755           -0.2173454              -5.9143
       107        1.9479           -0.2166004              -5.8940
       108        1.8466           -0.2154700              -5.8632
       109        1.2033           -0.2126822              -5.7874 (HOMO)
       110        0.0276           -0.2058271              -5.6008 (LUMO)
       111        0.0000           -0.1996281              -5.4322
       112        0.0000           -0.1974385              -5.3726
       113        0.0000           -0.1941508              -5.2831
       114                         -0.1902034              -5.1757
       ...                                ...                  ...
       272                         13.2164837             359.6388
      -------------------------------------------------------------
                  HL-Gap            0.0068551 Eh            0.1865 eV
             Fermi-level           -0.2115276 Eh           -5.7560 eV

 SCC (total)                   0 d,  0 h,  0 min,  0.731 sec
 SCC setup                      ...        0 min,  0.002 sec (  0.267%)
 Dispersion                     ...        0 min,  0.001 sec (  0.194%)
 classical contributions        ...        0 min,  0.000 sec (  0.022%)
 integral evaluation            ...        0 min,  0.029 sec (  3.910%)
 iterations                     ...        0 min,  0.479 sec ( 65.600%)
 molecular gradient             ...        0 min,  0.103 sec ( 14.062%)
 printout                       ...        0 min,  0.116 sec ( 15.936%)

         :::::::::::::::::::::::::::::::::::::::::::::::::::::
         ::                     SUMMARY                     ::
         :::::::::::::::::::::::::::::::::::::::::::::::::::::
         :: total energy            -117.205172423440 Eh    ::
         :: total w/o Gsasa/hb      -117.202469419355 Eh    ::
         :: gradient norm              0.002752489970 Eh/a0 ::
         :: HOMO-LUMO gap              0.186536354117 eV    ::
         ::.................................................::
         :: SCC energy              -118.049277668180 Eh    ::
         :: -> electrostatic           1.062759301926 Eh    ::
         :: -> Gsolv                  -0.648006412692 Eh    ::
         ::    -> Gelec               -0.645303408607 Eh    ::
         ::    -> Gsasa               -0.004397026436 Eh    ::
         ::    -> Ghb                 -0.002551584320 Eh    ::
         ::    -> Gshift               0.004245606671 Eh    ::
         :: repulsion energy           0.909083460020 Eh    ::
         :: dispersion energy         -0.064978215280 Eh    ::
         :: halogen bond corr.         0.000000000000 Eh    ::
         :: add. restraining           0.000000000000 Eh    ::
         :: total charge              -4.000000000000 e     ::
         :::::::::::::::::::::::::::::::::::::::::::::::::::::

           -------------------------------------------------
          |                Property Printout                |
           -------------------------------------------------

    * Orbital Energies and Occupations

         #    Occupation            Energy/Eh            Energy/eV
      -------------------------------------------------------------
         1        2.0000           -0.7595782             -20.6692
       ...           ...                  ...                  ...
        97        2.0000           -0.2362516              -6.4287
        98        2.0000           -0.2325967              -6.3293
        99        2.0000           -0.2304937              -6.2721
       100        2.0000           -0.2290056              -6.2316
       101        2.0000           -0.2267824              -6.1711
       102        2.0000           -0.2264220              -6.1613
       103        2.0000           -0.2243262              -6.1042
       104        1.9999           -0.2222810              -6.0486
       105        1.9991           -0.2205589              -6.0017
       106        1.9755           -0.2173454              -5.9143
       107        1.9479           -0.2166004              -5.8940
       108        1.8466           -0.2154700              -5.8632
       109        1.2033           -0.2126822              -5.7874 (HOMO)
       110        0.0276           -0.2058271              -5.6008 (LUMO)
       111        0.0000           -0.1996281              -5.4322
       112        0.0000           -0.1974385              -5.3726
       113        0.0000           -0.1941508              -5.2831
       114                         -0.1902034              -5.1757
       115                         -0.1871082              -5.0915
       116                         -0.1750174              -4.7625
       117                         -0.1731778              -4.7124
       118                         -0.1693851              -4.6092
       119                         -0.1515112              -4.1228
       120                         -0.1177057              -3.2029
       ...                                ...                  ...
       272                         13.2164837             359.6388
      -------------------------------------------------------------
                  HL-Gap            0.0068551 Eh            0.1865 eV
             Fermi-level           -0.2115276 Eh           -5.7560 eV

  Mulliken/CM5 charges         n(s)   n(p)   n(d)
     1C    -0.05896 -0.20724   1.003  3.056  0.000
     2C     0.01175 -0.08218   1.027  2.962  0.000
     3S    -0.32687 -0.41312   1.899  4.434 -0.006
     4H    -0.01330  0.03732   1.013  0.000  0.000
     5H     0.00335  0.05599   0.997  0.000  0.000
     6H    -0.00548  0.04654   1.005  0.000  0.000
     7H    -0.02719  0.02985   1.027  0.000  0.000
     8H    -0.03871  0.01656   1.039  0.000  0.000
     9C    -0.06650 -0.21444   1.004  3.063  0.000
    10C     0.01763 -0.07649   1.024  2.958  0.000
    11S    -0.33804 -0.42425   1.898  4.449 -0.010
    12H    -0.01210  0.03849   1.012  0.000  0.000
    13H    -0.01245  0.03981   1.012  0.000  0.000
    14H    -0.00793  0.04439   1.008  0.000  0.000
    15H    -0.03843  0.01617   1.038  0.000  0.000
    16H    -0.01916  0.03553   1.019  0.000  0.000
    17C    -0.06095 -0.20865   1.003  3.058  0.000
    18C     0.02113 -0.07261   1.023  2.956  0.000
    19S    -0.35677 -0.43744   1.899  4.469 -0.011
    20H    -0.01946  0.03110   1.019  0.000  0.000
    21H    -0.01630  0.03574   1.016  0.000  0.000
    22H    -0.00159  0.05291   1.002  0.000  0.000
    23H    -0.04638  0.00869   1.046  0.000  0.000
    24H    -0.02785  0.02652   1.028  0.000  0.000
    25C    -0.06113 -0.20876   1.003  3.058  0.000
    26C     0.02334 -0.07029   1.022  2.954  0.000
    27S    -0.36203 -0.44214   1.899  4.474 -0.011
    28H    -0.01564  0.03635   1.016  0.000  0.000
    29H    -0.01996  0.03056   1.020  0.000  0.000
    30H    -0.00085  0.05394   1.001  0.000  0.000
    31H    -0.02837  0.02601   1.028  0.000  0.000
    32H    -0.04582  0.00932   1.046  0.000  0.000
    33C    -0.05834 -0.20656   1.002  3.056  0.000
    34C     0.02071 -0.07400   1.026  2.953  0.000
    35S    -0.17962 -0.30502   1.889  4.296 -0.005
    36H     0.00617  0.05995   0.994  0.000  0.000
    37H    -0.00996  0.04246   1.010  0.000  0.000
    38H    -0.01233  0.03833   1.012  0.000  0.000
    39H    -0.00968  0.04558   1.010  0.000  0.000
    40H    -0.03121  0.02386   1.031  0.000  0.000
    41C    -0.06240 -0.21190   1.003  3.060  0.000
    42C    -0.03821 -0.13910   1.020  3.018  0.000
    43C     0.03750  0.09190   1.040  2.922  0.000
    44N    -0.38130 -0.72619   1.457  3.924  0.000
    45C     0.15061  0.18142   1.020  2.829  0.000
    46N    -0.38527 -0.66258   1.556  3.829  0.000
    47C     0.05817  0.07885   1.009  2.933  0.000
    48H     0.01606  0.06918   0.984  0.000  0.000
    49H     0.01469  0.06720   0.985  0.000  0.000
    50H     0.00603  0.05721   0.994  0.000  0.000
    51H     0.00131  0.05794   0.999  0.000  0.000
    52H     0.00066  0.05603   0.999  0.000  0.000
    53H     0.18484  0.37872   0.815  0.000  0.000
    54H    -0.05241  0.01984   1.052  0.000  0.000
    55H    -0.04145  0.02270   1.041  0.000  0.000
    56Fe   -0.03744  0.22493   0.146  0.941  6.950
    57Fe   -0.04828  0.28855   0.159  0.905  6.985
    58Fe   -0.03348  0.23741   0.151  0.955  6.927
    59Fe   -0.03561  0.23559   0.150  0.965  6.920
    60S    -0.12901 -0.36047   1.868  4.279 -0.018
    61S    -0.15203 -0.37993   1.864  4.306 -0.018
    62S     0.02299 -0.23226   1.853  4.139 -0.015
    63S    -0.00724 -0.19829   1.864  4.143  0.000
    64Fe   -0.02435  0.24106   0.125  0.925  6.974
    65C     0.59616  0.67292   0.968  2.436  0.000
    66O    -0.71727 -0.75433   1.752  4.965  0.000
    67O    -0.71796 -0.75518   1.753  4.965  0.000

Wiberg/Mayer (AO) data.
largest (>0.10) Wiberg bond orders for each atom

 ---------------------------------------------------------------------------
     #   Z sym  total        # sym  WBO       # sym  WBO       # sym  WBO
 ---------------------------------------------------------------------------
     1   6 C    3.993 --     2 C    1.015     6 H    0.988     4 H    0.986
                             5 H    0.983
     2   6 C    3.986 --     1 C    1.015     8 H    0.986     7 H    0.975
                             3 S    0.960
     3  16 S    1.933 --     2 C    0.960    57 Fe   0.778
     4   1 H    1.010 --     1 C    0.986
     5   1 H    1.028 --     1 C    0.983
     6   1 H    1.026 --     1 C    0.988
     7   1 H    1.027 --     2 C    0.975
     8   1 H    1.034 --     2 C    0.986
     9   6 C    3.991 --    10 C    1.016    13 H    0.988    14 H    0.987
                            12 H    0.985
    10   6 C    3.985 --     9 C    1.016    15 H    0.987    16 H    0.983
                            11 S    0.962
    11  16 S    1.955 --    10 C    0.962    56 Fe   0.722
    12   1 H    1.009 --     9 C    0.985
    13   1 H    1.032 --     9 C    0.988
    14   1 H    1.036 --     9 C    0.987
    15   1 H    1.031 --    10 C    0.987
    16   1 H    1.022 --    10 C    0.983
    17   6 C    3.989 --    18 C    1.016    21 H    0.988    20 H    0.986
                            22 H    0.972
    18   6 C    3.986 --    17 C    1.016    23 H    0.986    24 H    0.985
                            19 S    0.968
    19  16 S    1.922 --    18 C    0.968    58 Fe   0.692
    20   1 H    1.010 --    17 C    0.986
    21   1 H    1.030 --    17 C    0.988
    22   1 H    1.057 --    17 C    0.972
    23   1 H    1.033 --    18 C    0.986
    24   1 H    1.022 --    18 C    0.985
    25   6 C    3.988 --    26 C    1.016    28 H    0.989    29 H    0.986
                            30 H    0.971
    26   6 C    3.984 --    25 C    1.016    32 H    0.986    31 H    0.985
                            27 S    0.968
    27  16 S    1.918 --    26 C    0.968    59 Fe   0.686
    28   1 H    1.028 --    25 C    0.989
    29   1 H    1.010 --    25 C    0.986
    30   1 H    1.058 --    25 C    0.971
    31   1 H    1.022 --    26 C    0.985
    32   1 H    1.033 --    26 C    0.986
    33   6 C    3.993 --    34 C    1.021    37 H    0.988    38 H    0.985
                            36 H    0.981
    34   6 C    3.982 --    33 C    1.021    40 H    0.988    39 H    0.985
                            35 S    0.934
    35  16 S    2.266 --    34 C    0.934    64 Fe   0.642    57 Fe   0.460
    36   1 H    1.035 --    33 C    0.981
    37   1 H    1.027 --    33 C    0.988
    38   1 H    1.008 --    33 C    0.985
    39   1 H    1.016 --    34 C    0.985
    40   1 H    1.028 --    34 C    0.988
    41   6 C    3.996 --    42 C    0.999    50 H    0.989    49 H    0.987
                            48 H    0.986
    42   6 C    3.996 --    43 C    1.009    41 C    0.999    52 H    0.980
                            51 H    0.977
    43   6 C    3.908 --    47 C    1.598    44 N    1.087    42 C    1.009
    44   7 N    3.233 --    43 C    1.087    45 C    0.966    53 H    0.930
    45   6 C    3.809 --    46 N    1.186    44 N    0.966    54 H    0.955
                            57 Fe   0.576
    46   7 N    3.108 --    47 C    1.212    45 C    1.186    57 Fe   0.544
    47   6 C    3.969 --    43 C    1.598    46 N    1.212    55 H    0.973
    48   1 H    1.013 --    41 C    0.986
    49   1 H    1.019 --    41 C    0.987
    50   1 H    1.007 --    41 C    0.989
    51   1 H    1.011 --    42 C    0.977
    52   1 H    1.011 --    42 C    0.980
    53   1 H    0.980 --    44 N    0.930
    54   1 H    1.039 --    45 C    0.955
    55   1 H    1.013 --    47 C    0.973
    56  26 Fe   5.302 --    61 S    0.838    58 Fe   0.767    59 Fe   0.744
                            11 S    0.722    62 S    0.640    63 S    0.533
                            64 Fe   0.435    57 Fe   0.372
    57  26 Fe   4.509 --     3 S    0.778    62 S    0.751    45 C    0.576
                            46 N    0.544    35 S    0.460    64 Fe   0.411
                            56 Fe   0.372    59 Fe   0.242
    58  26 Fe   5.326 --    61 S    0.839    60 S    0.781    56 Fe   0.767
                            59 Fe   0.705    19 S    0.692    64 Fe   0.683
                            63 S    0.611
    59  26 Fe   5.603 --    61 S    0.826    60 S    0.804    64 Fe   0.750
                            56 Fe   0.744    58 Fe   0.705    27 S    0.686
                            62 S    0.631    57 Fe   0.242
    60  16 S    2.666 --    64 Fe   0.853    59 Fe   0.804    58 Fe   0.781
    61  16 S    2.615 --    58 Fe   0.839    56 Fe   0.838    59 Fe   0.826
    62  16 S    2.793 --    57 Fe   0.751    64 Fe   0.652    56 Fe   0.640
                            59 Fe   0.631
    63  16 S    2.687 --    65 C    0.780    58 Fe   0.611    64 Fe   0.536
                            56 Fe   0.533
    64  26 Fe   5.245 --    60 S    0.853    59 Fe   0.750    58 Fe   0.683
                            62 S    0.652    35 S    0.642    63 S    0.536
                            56 Fe   0.435    57 Fe   0.411
    65   6 C    3.851 --    66 O    1.490    67 O    1.489    63 S    0.780
    66   8 O    1.763 --    65 C    1.490    67 O    0.162
    67   8 O    1.763 --    65 C    1.489    66 O    0.162
 ---------------------------------------------------------------------------

Topologies differ in total number of bonds
Writing topology from bond orders to xtbtopo.mol

 dipole moment from electron density (au)
     X       Y       Z   
-402.9961 -87.3488-364.8318  total (Debye): 1399.434

           -------------------------------------------------
          |                Geometry Summary                 |
           -------------------------------------------------

      molecular mass/u    :      853.2548442
   center of mass at/Å    :       53.3999917      11.8824795      49.0799133
  moments of inertia/u·Å² :        0.5703042E+04   0.1023625E+05   0.1086826E+05
rotational constants/cm⁻¹ :        0.2955902E-02   0.1646857E-02   0.1551088E-02

 * 64 selected distances

     #   Z          #   Z                                           value/Å
     1   6 C        2   6 C                                       1.5271422
     1   6 C        4   1 H                                       1.0949554
     1   6 C        5   1 H                                       1.0942251
     1   6 C        6   1 H                                       1.0933414
     2   6 C        7   1 H                                       1.0995998
     2   6 C        8   1 H                                       1.0981061
     9   6 C       10   6 C                                       1.5279460
     9   6 C       12   1 H                                       1.0944974
     9   6 C       13   1 H                                       1.0927296
     9   6 C       14   1 H                                       1.0928202
    10   6 C       15   1 H                                       1.0993736
    10   6 C       16   1 H                                       1.0976355
    17   6 C       18   6 C                                       1.5284807
    17   6 C       20   1 H                                       1.0954321
    17   6 C       21   1 H                                       1.0938146
    17   6 C       22   1 H                                       1.0972660
    18   6 C       23   1 H                                       1.0993743
    18   6 C       24   1 H                                       1.0997538
    25   6 C       26   6 C                                       1.5287507
    25   6 C       28   1 H                                       1.0935877
    25   6 C       29   1 H                                       1.0958268
    25   6 C       30   1 H                                       1.0974898
    26   6 C       31   1 H                                       1.0999111
    26   6 C       32   1 H                                       1.0991241
    33   6 C       34   6 C                                       1.5250052
    34   6 C       35  16 S                                       1.8274718
    33   6 C       36   1 H                                       1.0940821
    33   6 C       37   1 H                                       1.0927565
    33   6 C       38   1 H                                       1.0948275
    34   6 C       39   1 H                                       1.0981938
    34   6 C       40   1 H                                       1.0979664
    41   6 C       42   6 C                                       1.5363481
    43   6 C       44   7 N                                       1.3990130
    44   7 N       45   6 C                                       1.4459630
    45   6 C       46   7 N                                       1.3863342
    43   6 C       47   6 C                                       1.3576792
    46   7 N       47   6 C                                       1.3758322
    41   6 C       48   1 H                                       1.0916772
    41   6 C       49   1 H                                       1.0931454
    41   6 C       50   1 H                                       1.0908731
    42   6 C       51   1 H                                       1.0972269
    42   6 C       52   1 H                                       1.0969756
    44   7 N       53   1 H                                       1.0111715 (min)
    45   6 C       54   1 H                                       1.0983178
    47   6 C       55   1 H                                       1.0860762
    11  16 S       56  26 Fe                                      2.2420215
    45   6 C       57  26 Fe                                      2.0061754
    58  26 Fe      60  16 S                                       2.1871227
    59  26 Fe      60  16 S                                       2.1762289
    56  26 Fe      61  16 S                                       2.1577904
    58  26 Fe      61  16 S                                       2.1680270
    59  26 Fe      61  16 S                                       2.1660246
    56  26 Fe      62  16 S                                       2.2593550
    57  26 Fe      62  16 S                                       2.1868147
    59  26 Fe      62  16 S                                       2.2362825
    56  26 Fe      63  16 S                                       2.2575465
    58  26 Fe      63  16 S                                       2.2350197
    35  16 S       64  26 Fe                                      2.2394845
    59  26 Fe      64  26 Fe                                      2.5139375 (max)
    60  16 S       64  26 Fe                                      2.1470820
    62  16 S       64  26 Fe                                      2.2573363
    63  16 S       64  26 Fe                                      2.2556583
    65   6 C       66   8 O                                       1.2393965
    65   6 C       67   8 O                                       1.2400090

 * 9 distinct bonds (by element types)

   Z      Z             #   av. dist./Å        max./Å        min./Å
   1 H    6 C          32     1.0956557     1.0999111     1.0860762
   6 C    6 C           7     1.5044789     1.5363481     1.3576792
   1 H    7 N           1     1.0111715     1.0111715     1.0111715
   6 C    7 N           4     1.4017856     1.4459630     1.3758322
   6 C    8 O           2     1.2397027     1.2400090     1.2393965
   6 C   16 S           1     1.8274718     1.8274718     1.8274718
   6 C   26 Fe          1     2.0061754     2.0061754     2.0061754
  16 S   26 Fe         15     2.2114530     2.2593550     2.1470820
  26 Fe  26 Fe          1     2.5139375     2.5139375     2.5139375


optimized geometry written to: xtbopt.xyz
Note: The following floating-point exceptions are signalling: IEEE_UNDERFLOW_FLAG IEEE_DENORMAL
normal termination of xtb


           -------------------------------------------------
          | TOTAL ENERGY             -117.205172423440 Eh   |
          | GRADIENT NORM               0.002752489970 Eh/α |
          | HOMO-LUMO GAP               0.186536354117 eV   |
           -------------------------------------------------

------------------------------------------------------------------------
 * finished run on 2026/09/12 at 19:16:07.554     
------------------------------------------------------------------------
 total:
 * wall-time:     0 d,  0 h,  3 min,  7.543 sec
 *  cpu-time:     0 d,  0 h,  4 min, 24.091 sec
 * ratio c/w:     1.408 speedup
 SCF:
 * wall-time:     0 d,  0 h,  0 min,  5.716 sec
 *  cpu-time:     0 d,  0 h,  0 min,  7.064 sec
 * ratio c/w:     1.236 speedup
 ANC optimizer:
 * wall-time:     0 d,  0 h,  3 min,  1.767 sec
 *  cpu-time:     0 d,  0 h,  4 min, 16.625 sec
 * ratio c/w:     1.412 speedup

