      -----------------------------------------------------------      
     |                   =====================                   |     
     |                           x T B                           |     
     |                   =====================                   |     
     |                         S. Grimme                         |     
     |          Mulliken Center for Theoretical Chemistry        |     
     |                    University of Bonn                     |     
      -----------------------------------------------------------      

   * xtb version 6.6.1 (unknown) compiled by 'builduser@buildhost' on 2023-08-07

   xtb is free software: you can redistribute it and/or modify it under
   the terms of the GNU Lesser General Public License as published by
   the Free Software Foundation, either version 3 of the License, or
   (at your option) any later version.
   
   xtb is distributed in the hope that it will be useful,
   but WITHOUT ANY WARRANTY; without even the implied warranty of
   MERCHANTABILITY or FITNESS FOR A PARTICULAR PURPOSE.  See the
   GNU Lesser General Public License for more details.
   
   Cite this work as:
   * C. Bannwarth, E. Caldeweyher, S. Ehlert, A. Hansen, P. Pracht,
     J. Seibert, S. Spicher, S. Grimme, WIREs Comput. Mol. Sci., 2020, 11,
     e01493. DOI: 10.1002/wcms.1493
   
   for GFN2-xTB:
   * C. Bannwarth, S. Ehlert and S. Grimme., J. Chem. Theory Comput., 2019,
     15, 1652-1671. DOI: 10.1021/acs.jctc.8b01176
   for GFN1-xTB:
   * S. Grimme, C. Bannwarth, P. Shushkov, J. Chem. Theory Comput., 2017,
     13, 1989-2009. DOI: 10.1021/acs.jctc.7b00118
   for GFN0-xTB:
   * P. Pracht, E. Caldeweyher, S. Ehlert, S. Grimme, ChemRxiv, 2019, preprint.
     DOI: 10.26434/chemrxiv.8326202.v1
   for GFN-FF:
   * S. Spicher and S. Grimme, Angew. Chem. Int. Ed., 2020, 59, 15665-15673.
     DOI: 10.1002/anie.202004239
   
   for ALPB and GBSA implicit solvation:
   * S. Ehlert, M. Stahn, S. Spicher, S. Grimme, J. Chem. Theory Comput.,
     2021, 17, 4250-4261. DOI: 10.1021/acs.jctc.1c00471
   
   for DFT-D4:
   * E. Caldeweyher, C. Bannwarth and S. Grimme, J. Chem. Phys., 2017,
     147, 034112. DOI: 10.1063/1.4993215
   * E. Caldeweyher, S. Ehlert, A. Hansen, H. Neugebauer, S. Spicher,
     C. Bannwarth and S. Grimme, J. Chem. Phys., 2019, 150, 154122.
     DOI: 10.1063/1.5090222
   * E. Caldeweyher, J.-M. Mewes, S. Ehlert and S. Grimme, Phys. Chem. Chem. Phys.
     2020, 22, 8499-8512. DOI: 10.1039/D0CP00502A
   
   for sTDA-xTB:
   * S. Grimme and C. Bannwarth, J. Chem. Phys., 2016, 145, 054103.
     DOI: 10.1063/1.4959605
   
   in the mass-spec context:
   * V. Asgeirsson, C. Bauer and S. Grimme, Chem. Sci., 2017, 8, 4879.
     DOI: 10.1039/c7sc00601b
   * J. Koopman and S. Grimme, ACS Omega 2019, 4, 12, 15120-15133.
     DOI: 10.1021/acsomega.9b02011
   
   for metadynamics refer to:
   * S. Grimme, J. Chem. Theory Comput., 2019, 155, 2847-2862
     DOI: 10.1021/acs.jctc.9b00143
   
   for SPH calculations refer to:
   * S. Spicher and S. Grimme, J. Chem. Theory Comput., 2021, 17, 1701-1714
     DOI: 10.1021/acs.jctc.0c01306
   
   with help from (in alphabetical order)
   P. Atkinson, C. Bannwarth, F. Bohle, G. Brandenburg, E. Caldeweyher
   M. Checinski, S. Dohm, S. Ehlert, S. Ehrlich, I. Gerasimov, C. Hölzer
   A. Katbashev, J. Koopman, C. Lavigne, S. Lehtola, F. März, M. Müller,
   F. Musil, H. Neugebauer, J. Pisarek, C. Plett, P. Pracht, F. Pultar,
   J. Seibert, P. Shushkov, S. Spicher, M. Stahn, M. Steiner, T. Strunk,
   J. Stückrath, T. Rose, and J. Unsleber
   
 * started run on 2026/09/12 at 19:21:06.820     

           -------------------------------------------------
          |                Calculation Setup                |
           -------------------------------------------------

          program call               : xtb start.xyz --gfn 1 --chrg -3 --uhf 0 --alpb water --opt loose
          coordinate file            : start.xyz
          omp threads                :                     8

   ID    Z sym.   atoms
    1    6 C      1, 2, 9, 10, 17, 18, 25, 26, 33, 34, 41-43, 45, 47
    2   16 S      3, 11, 19, 27, 35, 60-63
    3    1 H      4-8, 12-16, 20-24, 28-32, 36-40, 48-55
    4    7 N      44, 46
    5   26 Fe     56-59
    6   28 Ni     64

           -------------------------------------------------
          |                 G F N 1 - x T B                 |
           -------------------------------------------------

        Reference                      10.1021/acs.jctc.7b00118
      * Hamiltonian:
        H0-scaling (s, p, d)           1.850000    2.250000    2.000000
        zeta-weighting                 0.000000
      * Dispersion:
        s8                             2.400000
        a1                             0.630000
        a2                             5.000000
        s9                             0.000000
      * Repulsion:
        kExp                           1.500000
        rExp                           1.000000
      * Coulomb:
        alpha                          2.000000
        third order                    atomic
        anisotropic                    false
      * Halogen bond correction:
        rad-scale                      1.300000
        damping                        0.440000

      * Solvation model:               ALPB
        Solvent                        water
        Parameter file                 internal GFN1-xTB/ALPB
        Dielectric constant                8.0200E+01
        Reference state                gsolv [1 M gas/solution]
        Free energy shift                  4.2456E-03 Eh       2.6642E+00 kcal/mol
        Temperature                        2.9815E+02 K
        Density                            1.0000E+00 kg/L
        Solvent mass                       1.8000E+01 g/mol
        Interaction kernel             P16
        Born radius scaling (c1)           1.9452E+00
        Born radii integrator          GBOBC
        Born offset                        0.0000E+00 a0       0.0000E+00 AA
        H-bond correction              true
        Ion screening                  false
        Surface tension                    1.0000E-05 Eh       1.5569E+01 dyn/cm
        Grid points                               230 per atom

          ...................................................
          :                      SETUP                      :
          :.................................................:
          :  # basis functions                 274          :
          :  # atomic orbitals                 260          :
          :  # shells                          142          :
          :  # electrons                       202          :
          :  # halogen bonds                     0          :
          :  max. iterations                   250          :
          :  Hamiltonian                  GFN1-xTB          :
          :  restarted?                      false          :
          :  GBSA solvation                   true          :
          :  PC potential                    false          :
          :  electronic temp.          300.0000000     K    :
          :  accuracy                    1.0000000          :
          :  -> integral cutoff          0.2500000E+02      :
          :  -> integral neglect         0.1000000E-07      :
          :  -> SCF convergence          0.1000000E-05 Eh   :
          :  -> wf. convergence          0.2000000E-04 e    :
          :  Broyden damping             0.4000000          :
          ...................................................

 iter      E             dE          RMSdq      gap      omega  full diag
   1    -78.9539424 -0.789539E+02  0.151E+01    0.12       0.0  T
   2     29.9256636  0.108880E+03  0.246E+01    0.15       1.0  T
   3    -64.8748859 -0.948005E+02  0.124E+01    0.22       1.0  T
   4    -27.2522825  0.376226E+02  0.153E+01    0.04       1.0  T
   5    -43.0574935 -0.158052E+02  0.150E+01    0.35       1.0  T
   6    -61.8789613 -0.188215E+02  0.116E+01    0.14       1.0  T
   7    -68.7465804 -0.686762E+01  0.115E+01    0.23       1.0  T
   8    -68.1486141  0.597966E+00  0.130E+01    0.04       1.0  T
   9    -86.7392171 -0.185906E+02  0.867E+00    0.07       1.0  T
  10    -70.1269672  0.166122E+02  0.108E+01    0.18       1.0  T
  11    -93.0232194 -0.228963E+02  0.706E+00    0.15       1.0  T
  12    -87.6870125  0.533621E+01  0.820E+00    0.21       1.0  T
  13    -88.4142502 -0.727238E+00  0.801E+00    0.21       1.0  T
  14    -95.0367738 -0.662252E+01  0.706E+00    0.06       1.0  T
  15    -96.2698739 -0.123310E+01  0.682E+00    0.05       1.0  T
  16    -96.9715956 -0.701722E+00  0.661E+00    0.04       1.0  T
  17    -83.3914165  0.135802E+02  0.947E+00    0.08       1.0  T
  18    -91.3920559 -0.800064E+01  0.755E+00    0.19       1.0  T
  19    -95.6209147 -0.422886E+01  0.670E+00    0.06       1.0  T
  20    -91.0741614  0.454675E+01  0.755E+00    0.14       1.0  T
  21    -97.2713325 -0.619717E+01  0.606E+00    0.14       1.0  T
  22   -102.1740954 -0.490276E+01  0.446E+00    0.03       1.0  T
  23   -102.6202414 -0.446146E+00  0.419E+00    0.10       1.0  T
  24   -102.1953599  0.424881E+00  0.436E+00    0.11       1.0  T
  25   -103.0525422 -0.857182E+00  0.401E+00    0.07       1.0  T
  26   -105.0398651 -0.198732E+01  0.298E+00    0.06       1.0  T
  27    -97.8238627  0.721600E+01  0.580E+00    0.07       1.0  T
  28   -105.7502641 -0.792640E+01  0.245E+00    0.06       1.0  T
  29   -106.2837156 -0.533451E+00  0.193E+00    0.05       1.0  T
  30   -106.4241318 -0.140416E+00  0.177E+00    0.02       1.0  T
  31   -106.9643528 -0.540221E+00  0.966E-01    0.09       1.0  T
  32   -107.1113030 -0.146950E+00  0.558E-01    0.11       1.0  T
  33   -107.1567659 -0.454629E-01  0.391E-01    0.09       1.0  T
  34   -107.1561332  0.632693E-03  0.396E-01    0.07       1.0  T
  35   -107.1872096 -0.310764E-01  0.153E-01    0.07       1.0  T
  36   -107.1900439 -0.283429E-02  0.939E-02    0.08       1.0  T
  37   -107.1875419  0.250199E-02  0.134E-01    0.07       1.0  T
  38   -107.1913582 -0.381629E-02  0.477E-02    0.08       1.0  T
  39   -107.1917818 -0.423625E-03  0.280E-02    0.07       1.0  T
  40   -107.1919329 -0.151031E-03  0.118E-02    0.08       1.1  T
  41   -107.1919427 -0.978895E-05  0.927E-03    0.07       1.3  T
  42   -107.1919563 -0.136680E-04  0.567E-03    0.07       2.2  T
  43   -107.1919644 -0.804702E-05  0.821E-04    0.07      15.2  T
  44   -107.1919645 -0.100290E-06  0.539E-04    0.07      23.2  T
  45   -107.1919645 -0.800257E-08  0.497E-04    0.07      25.2  T
  46   -107.1919645 -0.468949E-07  0.254E-04    0.07      49.1  T
  47   -107.1919645 -0.161954E-07  0.448E-05    0.07     278.9  T
  48   -107.1919645 -0.254474E-09  0.288E-05    0.07     434.4  T

   *** convergence criteria satisfied after 48 iterations ***

         #    Occupation            Energy/Eh            Energy/eV
      -------------------------------------------------------------
         1        2.0000           -0.7759734             -21.1153
       ...           ...                  ...                  ...
        95        2.0000           -0.2312613              -6.2929
        96        2.0000           -0.2311796              -6.2907
        97        2.0000           -0.2297450              -6.2517
        98        1.9997           -0.2269537              -6.1757
        99        1.9997           -0.2267766              -6.1709
       100        1.9989           -0.2255751              -6.1382
       101        1.6165           -0.2198124              -5.9814 (HOMO)
       102        0.3790           -0.2170647              -5.9066 (LUMO)
       103        0.0062           -0.2129557              -5.7948
       104        0.0000           -0.2070388              -5.6338
       105                         -0.2024721              -5.5095
       106                         -0.2012527              -5.4764
       ...                                ...                  ...
       260                         11.8832623             323.3600
      -------------------------------------------------------------
                  HL-Gap            0.0027476 Eh            0.0748 eV
             Fermi-level           -0.2184455 Eh           -5.9442 eV

 SCC (total)                   0 d,  0 h,  0 min,  5.425 sec
 SCC setup                      ...        0 min,  0.010 sec (  0.187%)
 Dispersion                     ...        0 min,  0.003 sec (  0.054%)
 classical contributions        ...        0 min,  0.001 sec (  0.013%)
 integral evaluation            ...        0 min,  0.038 sec (  0.696%)
 iterations                     ...        0 min,  5.240 sec ( 96.590%)
 molecular gradient             ...        0 min,  0.097 sec (  1.792%)
 printout                       ...        0 min,  0.036 sec (  0.667%)

         :::::::::::::::::::::::::::::::::::::::::::::::::::::
         ::                     SUMMARY                     ::
         :::::::::::::::::::::::::::::::::::::::::::::::::::::
         :: total energy            -106.416125160299 Eh    ::
         :: total w/o Gsasa/hb      -106.412120707202 Eh    ::
         :: gradient norm              0.113999957495 Eh/a0 ::
         :: HOMO-LUMO gap              0.074766614084 eV    ::
         ::.................................................::
         :: SCC energy              -107.191964540465 Eh    ::
         :: -> electrostatic           0.602771503158 Eh    ::
         :: -> Gsolv                  -0.363545539353 Eh    ::
         ::    -> Gelec               -0.359541086256 Eh    ::
         ::    -> Gsasa               -0.006954181923 Eh    ::
         ::    -> Ghb                 -0.001295877845 Eh    ::
         ::    -> Gshift               0.004245606671 Eh    ::
         :: repulsion energy           0.837785993294 Eh    ::
         :: dispersion energy         -0.061946613127 Eh    ::
         :: halogen bond corr.         0.000000000000 Eh    ::
         :: add. restraining           0.000000000000 Eh    ::
         :: total charge              -3.000000000000 e     ::
         :::::::::::::::::::::::::::::::::::::::::::::::::::::

      ----------------------------------------------------------- 
     |                   =====================                   |
     |                        A N C O P T                        |
     |                   =====================                   |
     |               Approximate Normal Coordinate               |
     |                Rational Function Optimizer                |
      ----------------------------------------------------------- 

          ...................................................
          :                      SETUP                      :
          :.................................................:
          :   optimization level             loose          :
          :   max. optcycles                   200          :
          :   ANC micro-cycles                  20          :
          :   degrees of freedom               186          :
          :.................................................:
          :   RF solver                   davidson          :
          :   write xtbopt.log                true          :
          :   linear?                        false          :
          :   energy convergence         0.5000000E-04 Eh   :
          :   grad. convergence          0.4000000E-02 Eh/α :
          :   maxmium RF displ.          1.0000000          :
          :   Hlow (freq-cutoff)         0.1000000E-01      :
          :   Hmax (freq-cutoff)         5.0000000          :
          :   S6 in model hess.         20.0000000          :
          ...................................................

generating ANC from model Hessian ...
Using Lindh-Hessian (1995)
 Shifting diagonal of input Hessian by    1.1714157698586330E-002
 Lowest  eigenvalues of input Hessian
    0.010000    0.010968    0.011595    0.011623    0.011643    0.011683
    0.011699    0.000000    0.000000    0.000000    0.000000    0.000000
    0.000000    0.011722    0.011860    0.011904    0.011951    0.012019
 Highest eigenvalues
    1.227873    1.565747    1.895984    1.970895    2.128913    2.226242


........................................................................
.............................. CYCLE    1 ..............................
........................................................................

 iter      E             dE          RMSdq      gap      omega  full diag
   1   -107.1919645 -0.107192E+03  0.912E-06    0.07       0.0  T
   2   -107.1919645  0.484957E-07  0.416E-04    0.07      30.1  T
   3   -107.1919645 -0.479630E-07  0.456E-05    0.07     274.0  T
   4   -107.1919645 -0.348223E-09  0.272E-05    0.07     460.0  T
     SCC iter.                  ...        0 min,  0.440 sec
     gradient                   ...        0 min,  0.091 sec
 * total energy  :  -106.4161252 Eh     change        0.8952838E-11 Eh
   gradient norm :     0.1139996 Eh/α   predicted     0.0000000E+00 (-100.00%)
   displ. norm   :     0.5201481 α      lambda       -0.3597270E-01
   maximum displ.:     0.1748089 α      in ANC's #36, #127, #92, ...

........................................................................
.............................. CYCLE    2 ..............................
........................................................................

 iter      E             dE          RMSdq      gap      omega  full diag
   1   -107.1976742 -0.107198E+03  0.435E-01    0.14       0.0  T
   2    -87.1104589  0.200872E+02  0.793E+00    0.07       1.0  T
   3   -102.9132620 -0.158028E+02  0.431E+00    0.12       1.0  T
   4   -102.9554648 -0.422028E-01  0.380E+00    0.06       1.0  T
   5   -106.9989097 -0.404344E+01  0.936E-01    0.16       1.0  T
   6   -105.0924917  0.190642E+01  0.282E+00    0.11       1.0  T
   7   -107.0640749 -0.197158E+01  0.787E-01    0.16       1.0  T
   8   -107.1373011 -0.732262E-01  0.591E-01    0.15       1.0  T
   9   -107.2166731 -0.793719E-01  0.275E-01    0.13       1.0  T
  10   -107.2321438 -0.154707E-01  0.144E-01    0.12       1.0  T
  11   -107.2365227 -0.437891E-02  0.684E-02    0.11       1.0  T
  12   -107.2368018 -0.279059E-03  0.571E-02    0.11       1.0  T
  13   -107.2373007 -0.498900E-03  0.367E-02    0.11       1.0  T
  14   -107.2372995  0.115518E-05  0.350E-02    0.11       1.0  T
  15   -107.2376086 -0.309088E-03  0.948E-03    0.11       1.3  T
  16   -107.2376112 -0.259402E-05  0.837E-03    0.11       1.5  T
  17   -107.2376189 -0.775538E-05  0.620E-03    0.11       2.0  T
  18   -107.2376276 -0.867764E-05  0.224E-03    0.11       5.6  T
  19   -107.2376283 -0.652127E-06  0.160E-03    0.11       7.8  T
  20   -107.2376287 -0.384156E-06  0.940E-04    0.11      13.3  T
  21   -107.2376288 -0.149175E-06  0.518E-04    0.11      24.1  T
  22   -107.2376289 -0.666360E-07  0.410E-05    0.11     305.1  T
  23   -107.2376289  0.305022E-09  0.525E-05    0.11     238.0  T
     SCC iter.                  ...        0 min,  2.478 sec
     gradient                   ...        0 min,  0.094 sec
 * total energy  :  -106.4418401 Eh     change       -0.2571496E-01 Eh
   gradient norm :     0.0448251 Eh/α   predicted    -0.2285266E-01 ( -11.13%)
   displ. norm   :     0.5914247 α      lambda       -0.1582756E-01
   maximum displ.:     0.1950767 α      in ANC's #42, #2, #37, ...

........................................................................
.............................. CYCLE    3 ..............................
........................................................................

 iter      E             dE          RMSdq      gap      omega  full diag
   1   -107.2340418 -0.107234E+03  0.423E-01    0.19       0.0  T
   2    -98.0806667  0.915338E+01  0.629E+00    0.02       1.0  T
   3   -105.0938521 -0.701319E+01  0.291E+00    0.19       1.0  T
   4   -107.2396251 -0.214577E+01  0.330E-01    0.17       1.0  T
   5   -106.0460387  0.119359E+01  0.206E+00    0.17       1.0  T
   6   -107.2304805 -0.118444E+01  0.343E-01    0.21       1.0  T
   7   -107.2092771  0.212035E-01  0.442E-01    0.20       1.0  T
   8   -107.2018365  0.744050E-02  0.481E-01    0.19       1.0  T
   9   -107.2445673 -0.427308E-01  0.246E-01    0.20       1.0  T
  10   -107.2556035 -0.110362E-01  0.144E-01    0.18       1.0  T
  11   -107.2576237 -0.202020E-02  0.108E-01    0.18       1.0  T
  12   -107.2591781 -0.155433E-02  0.738E-02    0.18       1.0  T
  13   -107.2600675 -0.889410E-03  0.437E-02    0.18       1.0  T
  14   -107.2603510 -0.283490E-03  0.283E-02    0.18       1.0  T
  15   -107.2605394 -0.188458E-03  0.871E-03    0.18       1.4  T
  16   -107.2605503 -0.108162E-04  0.550E-03    0.18       2.3  T
  17   -107.2605504 -0.197027E-06  0.505E-03    0.18       2.5  T
  18   -107.2605552 -0.479519E-05  0.200E-03    0.18       6.2  T
  19   -107.2605561 -0.832162E-06  0.916E-04    0.18      13.6  T
  20   -107.2605563 -0.193505E-06  0.279E-04    0.18      44.8  T
  21   -107.2605563 -0.301731E-08  0.213E-04    0.18      58.8  T
  22   -107.2605563 -0.958143E-08  0.646E-05    0.18     193.6  T
  23   -107.2605563 -0.832330E-09  0.246E-05    0.18     508.1  T
     SCC iter.                  ...        0 min,  2.477 sec
     gradient                   ...        0 min,  0.097 sec
 * total energy  :  -106.4507646 Eh     change       -0.8924502E-02 Eh
   gradient norm :     0.0221952 Eh/α   predicted    -0.1068200E-01 (  19.69%)
   displ. norm   :     0.5852620 α      lambda       -0.7292207E-02
   maximum displ.:     0.1923671 α      in ANC's #36, #26, #1, ...

........................................................................
.............................. CYCLE    4 ..............................
........................................................................

 iter      E             dE          RMSdq      gap      omega  full diag
   1   -107.2404604 -0.107240E+03  0.303E-01    0.20       0.0  T
   2    -89.4651872  0.177753E+02  0.774E+00    0.13       1.0  T
   3   -106.5371379 -0.170720E+02  0.162E+00    0.12       1.0  T
   4   -105.7365036  0.800634E+00  0.233E+00    0.13       1.0  T
   5   -106.8619742 -0.112547E+01  0.122E+00    0.19       1.0  T
   6   -107.2234809 -0.361507E+00  0.339E-01    0.22       1.0  T
   7   -107.1924140  0.310669E-01  0.535E-01    0.19       1.0  T
   8   -107.2499166 -0.575026E-01  0.157E-01    0.20       1.0  T
   9   -107.2527463 -0.282966E-02  0.119E-01    0.19       1.0  T
  10   -107.2551027 -0.235644E-02  0.715E-02    0.19       1.0  T
  11   -107.2558626 -0.759935E-03  0.456E-02    0.19       1.0  T
  12   -107.2562030 -0.340315E-03  0.270E-02    0.19       1.0  T
  13   -107.2563879 -0.184993E-03  0.791E-03    0.19       1.6  T
  14   -107.2564008 -0.128644E-04  0.385E-03    0.19       3.2  T
  15   -107.2564032 -0.235682E-05  0.216E-03    0.19       5.8  T
  16   -107.2564039 -0.735512E-06  0.127E-03    0.19       9.8  T
  17   -107.2564042 -0.308263E-06  0.708E-04    0.19      17.7  T
  18   -107.2564043 -0.670418E-07  0.496E-04    0.19      25.2  T
  19   -107.2564043 -0.542387E-07  0.202E-04    0.19      62.0  T
  20   -107.2564043 -0.932756E-08  0.627E-05    0.19     199.4  T
  21   -107.2564043 -0.766661E-09  0.274E-05    0.19     456.9  T
     SCC iter.                  ...        0 min,  2.335 sec
     gradient                   ...        0 min,  0.100 sec
 * total energy  :  -106.4550780 Eh     change       -0.4313360E-02 Eh
   gradient norm :     0.0189013 Eh/α   predicted    -0.4895052E-02 (  13.49%)
   displ. norm   :     0.5695687 α      lambda       -0.4902116E-02
   maximum displ.:     0.2190921 α      in ANC's #1, #26, #27, ...

........................................................................
.............................. CYCLE    5 ..............................
........................................................................

 iter      E             dE          RMSdq      gap      omega  full diag
   1   -107.2424780 -0.107242E+03  0.214E-01    0.16       0.0  T
   2    -95.3659837  0.118765E+02  0.628E+00    0.02       1.0  T
   3   -103.8332485 -0.846726E+01  0.353E+00    0.11       1.0  T
   4   -107.2000175 -0.336677E+01  0.489E-01    0.20       1.0  T
   5   -107.0944707  0.105547E+00  0.779E-01    0.14       1.0  T
   6   -106.7432275  0.351243E+00  0.137E+00    0.16       1.0  T
   7   -107.2329213 -0.489694E+00  0.277E-01    0.16       1.0  T
   8   -107.2486491 -0.157278E-01  0.132E-01    0.16       1.0  T
   9   -107.2493899 -0.740794E-03  0.122E-01    0.17       1.0  T
  10   -107.2505357 -0.114582E-02  0.102E-01    0.17       1.0  T
  11   -107.2522944 -0.175876E-02  0.612E-02    0.17       1.0  T
  12   -107.2527125 -0.418089E-03  0.460E-02    0.17       1.0  T
  13   -107.2529078 -0.195255E-03  0.374E-02    0.17       1.0  T
  14   -107.2530423 -0.134568E-03  0.297E-02    0.17       1.0  T
  15   -107.2531732 -0.130811E-03  0.198E-02    0.17       1.0  T
  16   -107.2532615 -0.882941E-04  0.758E-03    0.17       1.6  T
  17   -107.2532741 -0.126592E-04  0.318E-03    0.17       3.9  T
  18   -107.2532765 -0.241637E-05  0.116E-03    0.17      10.8  T
  19   -107.2532769 -0.333334E-06  0.373E-04    0.17      33.5  T
  20   -107.2532769 -0.291406E-07  0.170E-04    0.17      73.6  T
  21   -107.2532769 -0.536870E-08  0.934E-05    0.17     133.8  T
     SCC iter.                  ...        0 min,  2.236 sec
     gradient                   ...        0 min,  0.088 sec
 * total energy  :  -106.4589152 Eh     change       -0.3837192E-02 Eh
   gradient norm :     0.0146663 Eh/α   predicted    -0.3246203E-02 ( -15.40%)
   displ. norm   :     0.6738260 α      lambda       -0.4415238E-02
   maximum displ.:     0.2676098 α      in ANC's #1, #2, #21, ...

........................................................................
.............................. CYCLE    6 ..............................
........................................................................

 iter      E             dE          RMSdq      gap      omega  full diag
   1   -107.2457380 -0.107246E+03  0.228E-01    0.19       0.0  T
   2    -93.3911154  0.138546E+02  0.674E+00    0.08       1.0  T
   3   -106.4653254 -0.130742E+02  0.168E+00    0.20       1.0  T
   4   -106.8311244 -0.365799E+00  0.124E+00    0.14       1.0  T
   5   -107.0256435 -0.194519E+00  0.931E-01    0.14       1.0  T
   6   -107.2123608 -0.186717E+00  0.409E-01    0.21       1.0  T
   7   -107.2481290 -0.357682E-01  0.200E-01    0.19       1.0  T
   8   -107.2509411 -0.281210E-02  0.147E-01    0.19       1.0  T
   9   -107.2543154 -0.337434E-02  0.913E-02    0.19       1.0  T
  10   -107.2557323 -0.141690E-02  0.534E-02    0.19       1.0  T
  11   -107.2563089 -0.576628E-03  0.233E-02    0.19       1.0  T
  12   -107.2564302 -0.121238E-03  0.925E-03    0.19       1.4  T
  13   -107.2564237  0.648201E-05  0.104E-02    0.19       1.2  T
  14   -107.2564368 -0.131372E-04  0.764E-03    0.19       1.6  T
  15   -107.2564440 -0.715029E-05  0.538E-03    0.19       2.3  T
  16   -107.2564493 -0.529308E-05  0.284E-03    0.19       4.4  T
  17   -107.2564507 -0.145211E-05  0.155E-03    0.19       8.1  T
  18   -107.2564512 -0.506726E-06  0.719E-04    0.19      17.4  T
  19   -107.2564514 -0.133057E-06  0.182E-04    0.19      68.8  T
  20   -107.2564514 -0.869390E-08  0.465E-05    0.19     269.0  T
     SCC iter.                  ...        0 min,  2.187 sec
     gradient                   ...        0 min,  0.078 sec
 * total energy  :  -106.4621608 Eh     change       -0.3245664E-02 Eh
   gradient norm :     0.0143891 Eh/α   predicted    -0.3209970E-02 (  -1.10%)
   displ. norm   :     0.6859500 α      lambda       -0.3485669E-02
   maximum displ.:     0.2861594 α      in ANC's #1, #22, #21, ...

........................................................................
.............................. CYCLE    7 ..............................
........................................................................

 iter      E             dE          RMSdq      gap      omega  full diag
   1   -107.2525761 -0.107253E+03  0.216E-01    0.21       0.0  T
   2    -92.3989170  0.148537E+02  0.698E+00    0.14       1.0  T
   3   -106.9213783 -0.145225E+02  0.114E+00    0.18       1.0  T
   4   -106.9082957  0.130826E-01  0.113E+00    0.20       1.0  T
   5   -107.1838455 -0.275550E+00  0.613E-01    0.19       1.0  T
   6   -107.1011425  0.827030E-01  0.775E-01    0.22       1.0  T
   7   -107.2526723 -0.151530E+00  0.198E-01    0.20       1.0  T
   8   -107.2616972 -0.902485E-02  0.693E-02    0.21       1.0  T
   9   -107.2624521 -0.754869E-03  0.390E-02    0.21       1.0  T
  10   -107.2624743 -0.221968E-04  0.368E-02    0.21       1.0  T
  11   -107.2627279 -0.253678E-03  0.139E-02    0.20       1.0  T
  12   -107.2627683 -0.403605E-04  0.375E-03    0.20       3.3  T
  13   -107.2627679  0.421998E-06  0.352E-03    0.20       3.5  T
  14   -107.2627702 -0.238043E-05  0.170E-03    0.20       7.3  T
  15   -107.2627704 -0.135078E-06  0.152E-03    0.20       8.2  T
  16   -107.2627707 -0.291524E-06  0.111E-03    0.20      11.3  T
  17   -107.2627709 -0.216667E-06  0.618E-04    0.20      20.2  T
  18   -107.2627710 -0.716857E-07  0.321E-04    0.20      39.0  T
  19   -107.2627710 -0.243722E-07  0.767E-05    0.20     162.9  T
  20   -107.2627710 -0.140653E-08  0.163E-05    0.20     765.7  T
     SCC iter.                  ...        0 min,  2.175 sec
     gradient                   ...        0 min,  0.093 sec
 * total energy  :  -106.4651490 Eh     change       -0.2988178E-02 Eh
   gradient norm :     0.0153647 Eh/α   predicted    -0.2562885E-02 ( -14.23%)
   displ. norm   :     0.7723505 α      lambda       -0.3805751E-02
   maximum displ.:     0.3256390 α      in ANC's #1, #22, #21, ...

........................................................................
.............................. CYCLE    8 ..............................
........................................................................

 iter      E             dE          RMSdq      gap      omega  full diag
   1   -107.2533870 -0.107253E+03  0.275E-01    0.23       0.0  T
   2    -88.3761816  0.188772E+02  0.798E+00    0.09       1.0  T
   3   -102.5934017 -0.142172E+02  0.399E+00    0.10       1.0  T
   4   -107.0475103 -0.445411E+01  0.875E-01    0.23       1.0  T
   5   -106.4650991  0.582411E+00  0.172E+00    0.19       1.0  T
   6   -106.8923885 -0.427289E+00  0.125E+00    0.18       1.0  T
   7   -107.2669212 -0.374533E+00  0.122E-01    0.22       1.0  T
   8   -107.2702062 -0.328493E-02  0.346E-02    0.21       1.0  T
   9   -107.2701151  0.910977E-04  0.361E-02    0.21       1.0  T
  10   -107.2700960  0.190904E-04  0.363E-02    0.22       1.0  T
  11   -107.2703213 -0.225304E-03  0.156E-02    0.21       1.0  T
  12   -107.2703532 -0.319033E-04  0.796E-03    0.21       1.6  T
  13   -107.2703296  0.235558E-04  0.115E-02    0.21       1.1  T
  14   -107.2703508 -0.211732E-04  0.699E-03    0.21       1.8  T
  15   -107.2703612 -0.104200E-04  0.317E-03    0.21       3.9  T
  16   -107.2703632 -0.198693E-05  0.170E-03    0.21       7.4  T
  17   -107.2703637 -0.517770E-06  0.104E-03    0.21      12.0  T
  18   -107.2703640 -0.233805E-06  0.502E-04    0.21      24.9  T
  19   -107.2703640 -0.645365E-07  0.124E-04    0.21     100.8  T
  20   -107.2703640 -0.220683E-08  0.872E-05    0.21     143.3  T
     SCC iter.                  ...        0 min,  2.188 sec
     gradient                   ...        0 min,  0.101 sec
 * total energy  :  -106.4686359 Eh     change       -0.3486857E-02 Eh
   gradient norm :     0.0149285 Eh/α   predicted    -0.3037995E-02 ( -12.87%)
   displ. norm   :     0.8526206 α      lambda       -0.4448647E-02
   maximum displ.:     0.3530548 α      in ANC's #1, #22, #19, ...

........................................................................
.............................. CYCLE    9 ..............................
........................................................................

 iter      E             dE          RMSdq      gap      omega  full diag
   1   -107.2404765 -0.107240E+03  0.374E-01    0.24       0.0  T
   2    -86.9799288  0.202605E+02  0.798E+00    0.07       1.0  T
   3   -101.1196921 -0.141398E+02  0.465E+00    0.08       1.0  T
   4   -107.1457686 -0.602608E+01  0.750E-01    0.27       1.0  T
   5   -106.2202757  0.925493E+00  0.201E+00    0.19       1.0  T
   6   -106.8417828 -0.621507E+00  0.126E+00    0.24       1.0  T
   7   -107.2649630 -0.423180E+00  0.207E-01    0.21       1.0  T
   8   -107.2712799 -0.631699E-02  0.126E-01    0.21       1.0  T
   9   -107.2727111 -0.143114E-02  0.104E-01    0.21       1.0  T
  10   -107.2739601 -0.124902E-02  0.755E-02    0.21       1.0  T
  11   -107.2737065  0.253645E-03  0.758E-02    0.21       1.0  T
  12   -107.2739104 -0.203949E-03  0.688E-02    0.21       1.0  T
  13   -107.2740450 -0.134635E-03  0.634E-02    0.21       1.0  T
  14   -107.2749630 -0.917965E-03  0.267E-02    0.21       1.0  T
  15   -107.2750721 -0.109080E-03  0.178E-02    0.21       1.0  T
  16   -107.2751190 -0.469058E-04  0.120E-02    0.21       1.0  T
  17   -107.2751438 -0.248094E-04  0.708E-03    0.21       1.8  T
  18   -107.2751563 -0.124467E-04  0.147E-03    0.21       8.5  T
  19   -107.2751567 -0.449816E-06  0.588E-04    0.21      21.3  T
  20   -107.2751567 -0.136019E-07  0.532E-04    0.21      23.5  T
  21   -107.2751568 -0.461440E-07  0.306E-04    0.21      40.8  T
  22   -107.2751568 -0.196362E-07  0.123E-04    0.21     101.7  T
  23   -107.2751568 -0.364045E-08  0.279E-05    0.21     447.6  T
     SCC iter.                  ...        0 min,  2.582 sec
     gradient                   ...        0 min,  0.097 sec
 * total energy  :  -106.4727899 Eh     change       -0.4154050E-02 Eh
   gradient norm :     0.0154220 Eh/α   predicted    -0.3841321E-02 (  -7.53%)
   displ. norm   :     0.8239016 α      lambda       -0.4618266E-02
   maximum displ.:     0.2974147 α      in ANC's #1, #22, #19, ...

........................................................................
.............................. CYCLE   10 ..............................
........................................................................

 iter      E             dE          RMSdq      gap      omega  full diag
   1   -107.2437837 -0.107244E+03  0.355E-01    0.24       0.0  T
   2    -80.6506675  0.265931E+02  0.921E+00    0.02       1.0  T
   3    -98.3624428 -0.177118E+02  0.555E+00    0.07       1.0  T
   4   -107.1088066 -0.874636E+01  0.859E-01    0.20       1.0  T
   5   -106.8233849  0.285422E+00  0.130E+00    0.26       1.0  T
   6   -105.8373268  0.986058E+00  0.232E+00    0.17       1.0  T
   7   -107.2612613 -0.142393E+01  0.256E-01    0.20       1.0  T
   8   -107.2702750 -0.901368E-02  0.158E-01    0.19       1.0  T
   9   -107.2725296 -0.225457E-02  0.133E-01    0.20       1.0  T
  10   -107.2727462 -0.216655E-03  0.126E-01    0.20       1.0  T
  11   -107.2756665 -0.292023E-02  0.680E-02    0.20       1.0  T
  12   -107.2756062  0.602912E-04  0.687E-02    0.21       1.0  T
  13   -107.2760140 -0.407821E-03  0.558E-02    0.21       1.0  T
  14   -107.2764474 -0.433396E-03  0.378E-02    0.21       1.0  T
  15   -107.2766056 -0.158156E-03  0.284E-02    0.21       1.0  T
  16   -107.2766748 -0.692903E-04  0.231E-02    0.21       1.0  T
  17   -107.2767384 -0.635978E-04  0.167E-02    0.21       1.0  T
  18   -107.2767931 -0.546381E-04  0.788E-03    0.21       1.6  T
  19   -107.2768082 -0.151328E-04  0.154E-03    0.21       8.1  T
  20   -107.2768086 -0.377419E-06  0.786E-04    0.21      15.9  T
  21   -107.2768087 -0.114094E-06  0.323E-04    0.21      38.7  T
  22   -107.2768087 -0.230234E-07  0.725E-05    0.21     172.3  T
  23   -107.2768087 -0.105659E-08  0.173E-05    0.21     722.2  T
     SCC iter.                  ...        0 min,  2.675 sec
     gradient                   ...        0 min,  0.085 sec
 * total energy  :  -106.4758619 Eh     change       -0.3071950E-02 Eh
   gradient norm :     0.0202371 Eh/α   predicted    -0.3876604E-02 (  26.19%)
   displ. norm   :     0.4684693 α      lambda       -0.2271191E-02
   maximum displ.:     0.1885081 α      in ANC's #1, #19, #22, ...

........................................................................
.............................. CYCLE   11 ..............................
........................................................................

 iter      E             dE          RMSdq      gap      omega  full diag
   1   -107.2593819 -0.107259E+03  0.196E-01    0.20       0.0  T
   2    -99.5014341  0.775795E+01  0.511E+00    0.07       1.0  T
   3   -104.9423833 -0.544095E+01  0.295E+00    0.06       1.0  T
   4   -107.2083288 -0.226595E+01  0.541E-01    0.26       1.0  T
   5   -107.2543568 -0.460281E-01  0.236E-01    0.19       1.0  T
   6   -106.7294801  0.524877E+00  0.141E+00    0.21       1.0  T
   7   -107.2632081 -0.533728E+00  0.157E-01    0.22       1.0  T
   8   -107.2681868 -0.497863E-02  0.801E-02    0.21       1.0  T
   9   -107.2678738  0.312971E-03  0.861E-02    0.21       1.0  T
  10   -107.2687074 -0.833589E-03  0.638E-02    0.21       1.0  T
  11   -107.2696049 -0.897513E-03  0.245E-02    0.21       1.0  T
  12   -107.2697006 -0.957076E-04  0.154E-02    0.21       1.0  T
  13   -107.2697276 -0.270249E-04  0.116E-02    0.21       1.1  T
  14   -107.2697502 -0.226222E-04  0.699E-03    0.21       1.8  T
  15   -107.2697555 -0.527928E-05  0.523E-03    0.21       2.4  T
  16   -107.2697594 -0.389880E-05  0.351E-03    0.21       3.6  T
  17   -107.2697617 -0.231064E-05  0.188E-03    0.21       6.6  T
  18   -107.2697626 -0.817726E-06  0.644E-04    0.21      19.4  T
  19   -107.2697627 -0.102898E-06  0.151E-04    0.21      82.5  T
  20   -107.2697627 -0.474026E-08  0.645E-05    0.21     193.8  T
     SCC iter.                  ...        0 min,  2.291 sec
     gradient                   ...        0 min,  0.108 sec
 * total energy  :  -106.4775313 Eh     change       -0.1669435E-02 Eh
   gradient norm :     0.0175586 Eh/α   predicted    -0.1384827E-02 ( -17.05%)
   displ. norm   :     0.5731202 α      lambda       -0.2618592E-02
   maximum displ.:     0.1701725 α      in ANC's #11, #19, #1, ...

........................................................................
.............................. CYCLE   12 ..............................
........................................................................

 iter      E             dE          RMSdq      gap      omega  full diag
   1   -107.2416335 -0.107242E+03  0.345E-01    0.20       0.0  T
   2    -96.5940823  0.106476E+02  0.606E+00    0.09       1.0  T
   3   -100.0699594 -0.347588E+01  0.513E+00    0.09       1.0  T
   4   -106.8480692 -0.677811E+01  0.139E+00    0.26       1.0  T
   5   -107.2391096 -0.391040E+00  0.367E-01    0.22       1.0  T
   6   -105.9444084  0.129470E+01  0.216E+00    0.10       1.0  T
   7   -107.2697607 -0.132535E+01  0.133E-01    0.22       1.0  T
   8   -107.2544335  0.153272E-01  0.271E-01    0.23       1.0  T
   9   -107.2629237 -0.849014E-02  0.202E-01    0.22       1.0  T
  10   -107.2729360 -0.100124E-01  0.549E-02    0.22       1.0  T
  11   -107.2733826 -0.446518E-03  0.416E-02    0.22       1.0  T
  12   -107.2733842 -0.162663E-05  0.405E-02    0.22       1.0  T
  13   -107.2737538 -0.369653E-03  0.125E-02    0.22       1.0  T
  14   -107.2736603  0.935207E-04  0.224E-02    0.22       1.0  T
  15   -107.2737794 -0.119111E-03  0.669E-03    0.22       1.9  T
  16   -107.2737899 -0.105063E-04  0.224E-03    0.22       5.6  T
  17   -107.2737907 -0.712018E-06  0.137E-03    0.22       9.1  T
  18   -107.2737909 -0.290704E-06  0.835E-04    0.22      15.0  T
  19   -107.2737911 -0.147029E-06  0.228E-04    0.22      54.7  T
  20   -107.2737911 -0.101778E-07  0.988E-05    0.22     126.5  T
  21   -107.2737911 -0.764800E-09  0.873E-05    0.22     143.1  T
     SCC iter.                  ...        0 min,  2.550 sec
     gradient                   ...        0 min,  0.114 sec
 * total energy  :  -106.4789406 Eh     change       -0.1409270E-02 Eh
   gradient norm :     0.0158860 Eh/α   predicted    -0.1739358E-02 (  23.42%)
   displ. norm   :     0.6110176 α      lambda       -0.2568549E-02
   maximum displ.:     0.2210063 α      in ANC's #21, #1, #19, ...

........................................................................
.............................. CYCLE   13 ..............................
........................................................................

 iter      E             dE          RMSdq      gap      omega  full diag
   1   -107.2342390 -0.107234E+03  0.371E-01    0.22       0.0  T
   2    -83.7219438  0.235123E+02  0.862E+00    0.22       1.0  T
   3   -106.4865887 -0.227646E+02  0.175E+00    0.28       1.0  T
   4   -105.8317781  0.654811E+00  0.225E+00    0.12       1.0  T
   5   -107.1948737 -0.136310E+01  0.543E-01    0.22       1.0  T
   6   -105.6362020  0.155867E+01  0.239E+00    0.09       1.0  T
   7   -107.2592146 -0.162301E+01  0.192E-01    0.23       1.0  T
   8   -107.2656169 -0.640231E-02  0.700E-02    0.22       1.0  T
   9   -107.2611965  0.442037E-02  0.145E-01    0.22       1.0  T
  10   -107.2650656 -0.386913E-02  0.829E-02    0.22       1.0  T
  11   -107.2655273 -0.461648E-03  0.707E-02    0.22       1.0  T
  12   -107.2664941 -0.966855E-03  0.367E-02    0.22       1.0  T
  13   -107.2668348 -0.340654E-03  0.713E-03    0.22       1.8  T
  14   -107.2668452 -0.104083E-04  0.310E-03    0.22       4.0  T
  15   -107.2668457 -0.525209E-06  0.255E-03    0.22       4.9  T
  16   -107.2668466 -0.920618E-06  0.173E-03    0.22       7.2  T
  17   -107.2668473 -0.690244E-06  0.698E-04    0.22      17.9  T
  18   -107.2668474 -0.963592E-07  0.375E-04    0.22      33.4  T
  19   -107.2668474 -0.243226E-07  0.225E-04    0.22      55.5  T
  20   -107.2668475 -0.913073E-08  0.131E-04    0.22      95.2  T
  21   -107.2668475 -0.366620E-08  0.584E-05    0.22     213.9  T
     SCC iter.                  ...        0 min,  2.488 sec
     gradient                   ...        0 min,  0.097 sec
 * total energy  :  -106.4802943 Eh     change       -0.1353734E-02 Eh
   gradient norm :     0.0150636 Eh/α   predicted    -0.1763754E-02 (  30.29%)
   displ. norm   :     0.4262376 α      lambda       -0.1333197E-02
   maximum displ.:     0.1572675 α      in ANC's #11, #21, #3, ...

........................................................................
.............................. CYCLE   14 ..............................
........................................................................

 iter      E             dE          RMSdq      gap      omega  full diag
   1   -107.2627617 -0.107263E+03  0.163E-01    0.22       0.0  T
   2    -97.2233167  0.100394E+02  0.593E+00    0.13       1.0  T
   3   -105.9628693 -0.873955E+01  0.212E+00    0.22       1.0  T
   4   -107.2549755 -0.129211E+01  0.247E-01    0.21       1.0  T
   5   -107.1284801  0.126495E+00  0.741E-01    0.19       1.0  T
   6   -107.1133913  0.150888E-01  0.789E-01    0.21       1.0  T
   7   -107.2674085 -0.154017E+00  0.109E-01    0.23       1.0  T
   8   -107.2676976 -0.289041E-03  0.956E-02    0.22       1.0  T
   9   -107.2689100 -0.121238E-02  0.660E-02    0.22       1.0  T
  10   -107.2697137 -0.803775E-03  0.361E-02    0.22       1.0  T
  11   -107.2699305 -0.216781E-03  0.216E-02    0.22       1.0  T
  12   -107.2699827 -0.522051E-04  0.165E-02    0.22       1.0  T
  13   -107.2700054 -0.227072E-04  0.135E-02    0.22       1.0  T
  14   -107.2700396 -0.341878E-04  0.746E-03    0.22       1.7  T
  15   -107.2700464 -0.677891E-05  0.544E-03    0.22       2.3  T
  16   -107.2700520 -0.564308E-05  0.301E-03    0.22       4.1  T
  17   -107.2700529 -0.851596E-06  0.241E-03    0.22       5.2  T
  18   -107.2700543 -0.141221E-05  0.751E-04    0.22      16.6  T
  19   -107.2700545 -0.150936E-06  0.885E-05    0.22     141.3  T
  20   -107.2700545 -0.164103E-08  0.361E-05    0.22     346.7  T
     SCC iter.                  ...        0 min,  2.311 sec
     gradient                   ...        0 min,  0.095 sec
 * total energy  :  -106.4812461 Eh     change       -0.9517706E-03 Eh
   gradient norm :     0.0115497 Eh/α   predicted    -0.7877074E-03 ( -17.24%)
   displ. norm   :     0.4971245 α      lambda       -0.1239208E-02
   maximum displ.:     0.1921557 α      in ANC's #11, #21, #3, ...

........................................................................
.............................. CYCLE   15 ..............................
........................................................................

 iter      E             dE          RMSdq      gap      omega  full diag
   1   -107.2702410 -0.107270E+03  0.155E-01    0.21       0.0  T
   2   -103.7809251  0.348932E+01  0.356E+00    0.21       1.0  T
   3   -107.1557324 -0.337481E+01  0.697E-01    0.19       1.0  T
   4   -107.2275867 -0.718543E-01  0.425E-01    0.25       1.0  T
   5   -107.2721874 -0.446008E-01  0.148E-01    0.21       1.0  T
   6   -107.2550936  0.170938E-01  0.284E-01    0.20       1.0  T
   7   -107.2742923 -0.191987E-01  0.103E-01    0.23       1.0  T
   8   -107.2742119  0.804044E-04  0.103E-01    0.22       1.0  T
   9   -107.2754222 -0.121034E-02  0.767E-02    0.22       1.0  T
  10   -107.2768476 -0.142541E-02  0.244E-02    0.22       1.0  T
  11   -107.2767439  0.103732E-03  0.314E-02    0.22       1.0  T
  12   -107.2768758 -0.131901E-03  0.218E-02    0.22       1.0  T
  13   -107.2769916 -0.115771E-03  0.594E-03    0.22       2.1  T
  14   -107.2769974 -0.586289E-05  0.349E-03    0.22       3.6  T
  15   -107.2769997 -0.226924E-05  0.178E-03    0.22       7.0  T
  16   -107.2770004 -0.728939E-06  0.487E-04    0.22      25.6  T
  17   -107.2770005 -0.412992E-07  0.296E-04    0.22      42.2  T
  18   -107.2770005 -0.194116E-07  0.943E-05    0.22     132.5  T
  19   -107.2770005 -0.187663E-08  0.335E-05    0.22     372.9  T
     SCC iter.                  ...        0 min,  2.128 sec
     gradient                   ...        0 min,  0.109 sec
 * total energy  :  -106.4821046 Eh     change       -0.8584984E-03 Eh
   gradient norm :     0.0088500 Eh/α   predicted    -0.7727288E-03 (  -9.99%)
   displ. norm   :     0.5295116 α      lambda       -0.9307122E-03
   maximum displ.:     0.2223464 α      in ANC's #11, #21, #3, ...

........................................................................
.............................. CYCLE   16 ..............................
........................................................................

 iter      E             dE          RMSdq      gap      omega  full diag
   1   -107.2753867 -0.107275E+03  0.898E-02    0.22       0.0  T
   2   -105.6637394  0.161165E+01  0.246E+00    0.14       1.0  T
   3   -107.2339674 -0.157023E+01  0.407E-01    0.25       1.0  T
   4   -107.1893708  0.445965E-01  0.554E-01    0.16       1.0  T
   5   -107.2615440 -0.721732E-01  0.249E-01    0.21       1.0  T
   6   -107.2376386  0.239054E-01  0.393E-01    0.22       1.0  T
   7   -107.2768628 -0.392241E-01  0.496E-02    0.22       1.0  T
   8   -107.2769580 -0.951924E-04  0.425E-02    0.22       1.0  T
   9   -107.2773349 -0.376976E-03  0.193E-02    0.22       1.0  T
  10   -107.2773756 -0.406957E-04  0.145E-02    0.22       1.0  T
  11   -107.2773697  0.595759E-05  0.151E-02    0.22       1.0  T
  12   -107.2773857 -0.159783E-04  0.130E-02    0.22       1.0  T
  13   -107.2774221 -0.364504E-04  0.592E-03    0.22       2.1  T
  14   -107.2774317 -0.955536E-05  0.906E-04    0.22      13.8  T
  15   -107.2774318 -0.108768E-06  0.631E-04    0.22      19.8  T
  16   -107.2774318 -0.633221E-07  0.387E-04    0.22      32.3  T
  17   -107.2774319 -0.382488E-07  0.953E-05    0.22     131.1  T
  18   -107.2774319 -0.206241E-08  0.392E-05    0.22     318.5  T
     SCC iter.                  ...        0 min,  2.062 sec
     gradient                   ...        0 min,  0.130 sec
 * total energy  :  -106.4827608 Eh     change       -0.6562289E-03 Eh
   gradient norm :     0.0093927 Eh/α   predicted    -0.5958385E-03 (  -9.20%)
   displ. norm   :     0.5625203 α      lambda       -0.8962895E-03
   maximum displ.:     0.2486389 α      in ANC's #21, #11, #3, ...

........................................................................
.............................. CYCLE   17 ..............................
........................................................................

 iter      E             dE          RMSdq      gap      omega  full diag
   1   -107.2723656 -0.107272E+03  0.119E-01    0.21       0.0  T
   2   -101.8530915  0.541927E+01  0.436E+00    0.09       1.0  T
   3   -106.9851600 -0.513207E+01  0.103E+00    0.27       1.0  T
   4   -107.1929333 -0.207773E+00  0.550E-01    0.17       1.0  T
   5   -107.2613070 -0.683737E-01  0.250E-01    0.20       1.0  T
   6   -107.1253424  0.135965E+00  0.751E-01    0.23       1.0  T
   7   -107.2740425 -0.148700E+00  0.907E-02    0.22       1.0  T
   8   -107.2754363 -0.139383E-02  0.532E-02    0.22       1.0  T
   9   -107.2757885 -0.352211E-03  0.381E-02    0.22       1.0  T
  10   -107.2759983 -0.209756E-03  0.255E-02    0.21       1.0  T
  11   -107.2761254 -0.127080E-03  0.132E-02    0.21       1.0  T
  12   -107.2761390 -0.136727E-04  0.109E-02    0.21       1.2  T
  13   -107.2761411 -0.206127E-05  0.104E-02    0.21       1.2  T
  14   -107.2761638 -0.226565E-04  0.490E-03    0.21       2.6  T
  15   -107.2761691 -0.533472E-05  0.198E-03    0.21       6.3  T
  16   -107.2761698 -0.727515E-06  0.108E-03    0.21      11.6  T
  17   -107.2761700 -0.184927E-06  0.657E-04    0.21      19.0  T
  18   -107.2761701 -0.979546E-07  0.222E-04    0.21      56.3  T
  19   -107.2761701 -0.127092E-07  0.171E-05    0.21     729.8  T
  20   -107.2761701 -0.556781E-10  0.930E-06    0.21    1344.7  T
     SCC iter.                  ...        0 min,  2.212 sec
     gradient                   ...        0 min,  0.115 sec
 * total energy  :  -106.4834190 Eh     change       -0.6581633E-03 Eh
   gradient norm :     0.0093957 Eh/α   predicted    -0.5899522E-03 ( -10.36%)
   displ. norm   :     0.5214342 α      lambda       -0.8883715E-03
   maximum displ.:     0.2321550 α      in ANC's #11, #21, #3, ...

........................................................................
.............................. CYCLE   18 ..............................
........................................................................

 iter      E             dE          RMSdq      gap      omega  full diag
   1   -107.2773419 -0.107277E+03  0.833E-02    0.21       0.0  T
   2   -105.0600312  0.221731E+01  0.284E+00    0.14       1.0  T
   3   -107.1876524 -0.212762E+01  0.570E-01    0.24       1.0  T
   4   -107.2571792 -0.695268E-01  0.277E-01    0.18       1.0  T
   5   -107.1559123  0.101267E+00  0.670E-01    0.23       1.0  T
   6   -107.2732217 -0.117309E+00  0.155E-01    0.20       1.0  T
   7   -107.2783592 -0.513747E-02  0.690E-02    0.21       1.0  T
   8   -107.2789857 -0.626519E-03  0.224E-02    0.21       1.0  T
   9   -107.2789376  0.481195E-04  0.244E-02    0.21       1.0  T
  10   -107.2790697 -0.132115E-03  0.108E-02    0.21       1.2  T
  11   -107.2790920 -0.222918E-04  0.592E-03    0.21       2.1  T
  12   -107.2790987 -0.665082E-05  0.293E-03    0.21       4.3  T
  13   -107.2790998 -0.113015E-05  0.206E-03    0.21       6.1  T
  14   -107.2791005 -0.669203E-06  0.129E-03    0.21       9.7  T
  15   -107.2791008 -0.319838E-06  0.651E-04    0.21      19.2  T
  16   -107.2791009 -0.648444E-07  0.418E-04    0.21      29.9  T
  17   -107.2791009 -0.398091E-07  0.153E-04    0.21      81.9  T
  18   -107.2791009 -0.573149E-08  0.515E-05    0.21     242.6  T
     SCC iter.                  ...        0 min,  1.981 sec
     gradient                   ...        0 min,  0.094 sec
 * total energy  :  -106.4840916 Eh     change       -0.6726713E-03 Eh
   gradient norm :     0.0096704 Eh/α   predicted    -0.5649583E-03 ( -16.01%)
   displ. norm   :     0.5932762 α      lambda       -0.8813505E-03
   maximum displ.:     0.2669217 α      in ANC's #11, #21, #16, ...

........................................................................
.............................. CYCLE   19 ..............................
........................................................................

 iter      E             dE          RMSdq      gap      omega  full diag
   1   -107.2693058 -0.107269E+03  0.159E-01    0.20       0.0  T
   2    -98.4935416  0.877576E+01  0.552E+00    0.08       1.0  T
   3   -106.7779781 -0.828444E+01  0.134E+00    0.24       1.0  T
   4   -107.1758546 -0.397877E+00  0.605E-01    0.15       1.0  T
   5   -107.1099308  0.659238E-01  0.779E-01    0.22       1.0  T
   6   -107.1930492 -0.831184E-01  0.567E-01    0.17       1.0  T
   7   -107.2740748 -0.810256E-01  0.890E-02    0.20       1.0  T
   8   -107.2758444 -0.176954E-02  0.302E-02    0.20       1.0  T
   9   -107.2758608 -0.164145E-04  0.262E-02    0.20       1.0  T
  10   -107.2759934 -0.132585E-03  0.144E-02    0.20       1.0  T
  11   -107.2760147 -0.213653E-04  0.106E-02    0.20       1.2  T
  12   -107.2760401 -0.253653E-04  0.336E-03    0.20       3.7  T
  13   -107.2760416 -0.155379E-05  0.225E-03    0.20       5.6  T
  14   -107.2760419 -0.272860E-06  0.199E-03    0.20       6.3  T
  15   -107.2760423 -0.424004E-06  0.152E-03    0.20       8.2  T
  16   -107.2760428 -0.429376E-06  0.787E-04    0.20      15.9  T
  17   -107.2760429 -0.103630E-06  0.444E-04    0.20      28.2  T
  18   -107.2760429 -0.288784E-07  0.299E-04    0.20      41.9  T
  19   -107.2760429 -0.240953E-07  0.578E-05    0.20     216.4  T
  20   -107.2760429 -0.621526E-09  0.331E-05    0.20     377.9  T
     SCC iter.                  ...        0 min,  2.253 sec
     gradient                   ...        0 min,  0.092 sec
 * total energy  :  -106.4847595 Eh     change       -0.6678636E-03 Eh
   gradient norm :     0.0110840 Eh/α   predicted    -0.5957875E-03 ( -10.79%)
   displ. norm   :     0.5487453 α      lambda       -0.9202207E-03
   maximum displ.:     0.2341962 α      in ANC's #11, #21, #13, ...

........................................................................
.............................. CYCLE   20 ..............................
........................................................................

 iter      E             dE          RMSdq      gap      omega  full diag
   1   -107.2777520 -0.107278E+03  0.105E-01    0.19       0.0  T
   2   -102.9688601  0.430889E+01  0.389E+00    0.11       1.0  T
   3   -107.0290438 -0.406018E+01  0.943E-01    0.23       1.0  T
   4   -107.2360699 -0.207026E+00  0.394E-01    0.16       1.0  T
   5   -107.0437324  0.192338E+00  0.935E-01    0.20       1.0  T
   6   -107.2783265 -0.234594E+00  0.103E-01    0.20       1.0  T
   7   -107.2743054  0.402105E-02  0.164E-01    0.19       1.0  T
   8   -107.2798347 -0.552926E-02  0.456E-02    0.19       1.0  T
   9   -107.2798274  0.729549E-05  0.448E-02    0.19       1.0  T
  10   -107.2802576 -0.430230E-03  0.212E-02    0.20       1.0  T
  11   -107.2803630 -0.105368E-03  0.673E-03    0.20       1.9  T
  12   -107.2803668 -0.382628E-05  0.526E-03    0.20       2.4  T
  13   -107.2803696 -0.282885E-05  0.407E-03    0.20       3.1  T
  14   -107.2803738 -0.412492E-05  0.120E-03    0.20      10.4  T
  15   -107.2803740 -0.237134E-06  0.750E-04    0.20      16.7  T
  16   -107.2803741 -0.105911E-06  0.434E-04    0.20      28.8  T
  17   -107.2803742 -0.382934E-07  0.228E-04    0.20      54.9  T
  18   -107.2803742 -0.116541E-07  0.956E-05    0.20     130.7  T
  19   -107.2803742 -0.226096E-08  0.266E-05    0.20     469.4  T
     SCC iter.                  ...        0 min,  2.156 sec
     gradient                   ...        0 min,  0.090 sec
 * total energy  :  -106.4854425 Eh     change       -0.6830243E-03 Eh
   gradient norm :     0.0099698 Eh/α   predicted    -0.5986617E-03 ( -12.35%)
   displ. norm   :     0.6498387 α      lambda       -0.8883518E-03
   maximum displ.:     0.2777710 α      in ANC's #11, #21, #16, ...
 * RMSD in coord.:     1.0479290 α      energy gain  -0.6931738E-01 Eh

generating ANC from model Hessian ...
Using Lindh-Hessian (1995)
 Shifting diagonal of input Hessian by    1.5296667404110292E-002
 Lowest  eigenvalues of input Hessian
    0.010000    0.014569    0.015016    0.015251    0.015259    0.015276
    0.000000    0.000000    0.000000    0.000000    0.000000    0.000000
    0.015345    0.015362    0.015407    0.015525    0.015549    0.015650
 Highest eigenvalues
    1.216937    1.559539    1.853049    1.933838    2.040000    2.139474


........................................................................
.............................. CYCLE   21 ..............................
........................................................................

 iter      E             dE          RMSdq      gap      omega  full diag
   1   -107.2716729 -0.107272E+03  0.118E-01    0.18       0.0  T
   2   -102.5478140  0.472386E+01  0.411E+00    0.14       1.0  T
   3   -107.1900809 -0.464227E+01  0.552E-01    0.16       1.0  T
   4   -107.2485431 -0.584621E-01  0.313E-01    0.21       1.0  T
   5   -106.9711091  0.277434E+00  0.105E+00    0.15       1.0  T
   6   -107.2541453 -0.283036E+00  0.289E-01    0.18       1.0  T
   7   -107.2742656 -0.201203E-01  0.723E-02    0.19       1.0  T
   8   -107.2747864 -0.520785E-03  0.404E-02    0.19       1.0  T
   9   -107.2749123 -0.125873E-03  0.327E-02    0.19       1.0  T
  10   -107.2751134 -0.201151E-03  0.191E-02    0.19       1.0  T
  11   -107.2751850 -0.715730E-04  0.830E-03    0.19       1.5  T
  12   -107.2751915 -0.654477E-05  0.643E-03    0.19       1.9  T
  13   -107.2751957 -0.419879E-05  0.494E-03    0.19       2.5  T
  14   -107.2751996 -0.389875E-05  0.262E-03    0.19       4.8  T
  15   -107.2752010 -0.136461E-05  0.119E-03    0.19      10.5  T
  16   -107.2752012 -0.229023E-06  0.710E-04    0.19      17.6  T
  17   -107.2752013 -0.975451E-07  0.375E-04    0.19      33.3  T
  18   -107.2752013 -0.296180E-07  0.172E-04    0.19      72.5  T
  19   -107.2752014 -0.714752E-08  0.511E-05    0.19     244.8  T
     SCC iter.                  ...        0 min,  2.098 sec
     gradient                   ...        0 min,  0.081 sec
 * total energy  :  -106.4859815 Eh     change       -0.5389737E-03 Eh
   gradient norm :     0.0154717 Eh/α   predicted     0.0000000E+00 (-100.00%)
   displ. norm   :     0.1209903 α      lambda       -0.7584154E-03
   maximum displ.:     0.0441558 α      in ANC's #38, #30, #18, ...

........................................................................
.............................. CYCLE   22 ..............................
........................................................................

 iter      E             dE          RMSdq      gap      omega  full diag
   1   -107.2810710 -0.107281E+03  0.493E-02    0.20       0.0  T
   2   -106.2159361  0.106513E+01  0.196E+00    0.14       1.0  T
   3   -107.2341079 -0.101817E+01  0.413E-01    0.22       1.0  T
   4   -107.2697722 -0.356643E-01  0.208E-01    0.18       1.0  T
   5   -107.2771176 -0.734544E-02  0.144E-01    0.20       1.0  T
   6   -107.2450341  0.320836E-01  0.369E-01    0.17       1.0  T
   7   -107.2814016 -0.363675E-01  0.309E-02    0.20       1.0  T
   8   -107.2815647 -0.163100E-03  0.158E-02    0.20       1.0  T
   9   -107.2815618  0.285627E-05  0.157E-02    0.20       1.0  T
  10   -107.2816104 -0.485996E-04  0.760E-03    0.20       1.6  T
  11   -107.2816243 -0.138568E-04  0.225E-03    0.19       5.6  T
  12   -107.2816237  0.596734E-06  0.260E-03    0.19       4.8  T
  13   -107.2816247 -0.102506E-05  0.172E-03    0.19       7.2  T
  14   -107.2816252 -0.555411E-06  0.932E-04    0.19      13.4  T
  15   -107.2816254 -0.150961E-06  0.557E-04    0.19      22.5  T
  16   -107.2816254 -0.522933E-07  0.334E-04    0.19      37.4  T
  17   -107.2816255 -0.265902E-07  0.114E-04    0.19     109.7  T
  18   -107.2816255 -0.312922E-08  0.352E-05    0.19     355.5  T
     SCC iter.                  ...        0 min,  2.063 sec
     gradient                   ...        0 min,  0.098 sec
 * total energy  :  -106.4865225 Eh     change       -0.5409589E-03 Eh
   gradient norm :     0.0057494 Eh/α   predicted    -0.3847598E-03 ( -28.87%)
   displ. norm   :     0.2349891 α      lambda       -0.6288256E-03
   maximum displ.:     0.0917677 α      in ANC's #38, #18, #28, ...

........................................................................
.............................. CYCLE   23 ..............................
........................................................................

 iter      E             dE          RMSdq      gap      omega  full diag
   1   -107.2863374 -0.107286E+03  0.427E-02    0.19       0.0  T
   2   -106.8383257  0.448012E+00  0.127E+00    0.21       1.0  T
   3   -107.2836026 -0.445277E+00  0.112E-01    0.19       1.0  T
   4   -107.2286884  0.549142E-01  0.458E-01    0.20       1.0  T
   5   -107.2858459 -0.571576E-01  0.639E-02    0.19       1.0  T
   6   -107.2853855  0.460449E-03  0.741E-02    0.19       1.0  T
   7   -107.2760988  0.928672E-02  0.196E-01    0.18       1.0  T
   8   -107.2864307 -0.103319E-01  0.297E-02    0.19       1.0  T
   9   -107.2866073 -0.176605E-03  0.149E-02    0.19       1.0  T
  10   -107.2866464 -0.390962E-04  0.835E-03    0.19       1.5  T
  11   -107.2866616 -0.152255E-04  0.329E-03    0.19       3.8  T
  12   -107.2866635 -0.190892E-05  0.184E-03    0.19       6.8  T
  13   -107.2866640 -0.492773E-06  0.125E-03    0.19      10.0  T
  14   -107.2866643 -0.294724E-06  0.673E-04    0.19      18.6  T
  15   -107.2866644 -0.102512E-06  0.272E-04    0.19      46.0  T
  16   -107.2866644 -0.153547E-07  0.116E-04    0.19     108.2  T
  17   -107.2866644 -0.322282E-08  0.331E-05    0.19     377.5  T
     SCC iter.                  ...        0 min,  1.857 sec
     gradient                   ...        0 min,  0.092 sec
 * total energy  :  -106.4869054 Eh     change       -0.3829076E-03 Eh
   gradient norm :     0.0073233 Eh/α   predicted    -0.3317749E-03 ( -13.35%)
   displ. norm   :     0.5135152 α      lambda       -0.1167824E-02
   maximum displ.:     0.2269958 α      in ANC's #38, #18, #30, ...

........................................................................
.............................. CYCLE   24 ..............................
........................................................................

 iter      E             dE          RMSdq      gap      omega  full diag
   1   -107.2839942 -0.107284E+03  0.157E-01    0.20       0.0  T
   2    -94.2575905  0.130264E+02  0.651E+00    0.17       1.0  T
   3   -107.0317121 -0.127741E+02  0.953E-01    0.25       1.0  T
   4   -107.1419688 -0.110257E+00  0.726E-01    0.15       1.0  T
   5   -107.2816359 -0.139667E+00  0.192E-01    0.20       1.0  T
   6   -107.2669411  0.146948E-01  0.301E-01    0.17       1.0  T
   7   -107.2340064  0.329346E-01  0.464E-01    0.22       1.0  T
   8   -107.2889900 -0.549836E-01  0.527E-02    0.20       1.0  T
   9   -107.2890592 -0.691597E-04  0.493E-02    0.20       1.0  T
  10   -107.2895622 -0.502996E-03  0.242E-02    0.19       1.0  T
  11   -107.2895492  0.129495E-04  0.246E-02    0.19       1.0  T
  12   -107.2896752 -0.125975E-03  0.120E-02    0.19       1.0  T
  13   -107.2897045 -0.292632E-04  0.543E-03    0.19       2.3  T
  14   -107.2897086 -0.411261E-05  0.359E-03    0.19       3.5  T
  15   -107.2897102 -0.156854E-05  0.259E-03    0.19       4.8  T
  16   -107.2897114 -0.123441E-05  0.129E-03    0.19       9.7  T
  17   -107.2897118 -0.363469E-06  0.498E-04    0.19      25.1  T
  18   -107.2897118 -0.577650E-07  0.131E-04    0.19      95.1  T
  19   -107.2897118 -0.410503E-08  0.332E-05    0.19     376.7  T
     SCC iter.                  ...        0 min,  2.267 sec
     gradient                   ...        0 min,  0.113 sec
 * total energy  :  -106.4875604 Eh     change       -0.6550481E-03 Eh
   gradient norm :     0.0136541 Eh/α   predicted    -0.7378903E-03 (  12.65%)
   displ. norm   :     0.5159109 α      lambda       -0.1056952E-02
   maximum displ.:     0.2663925 α      in ANC's #38, #18, #28, ...

........................................................................
.............................. CYCLE   25 ..............................
........................................................................

 iter      E             dE          RMSdq      gap      omega  full diag
   1   -107.2826677 -0.107283E+03  0.515E-02    0.19       0.0  T
   2   -106.3549763  0.927691E+00  0.184E+00    0.19       1.0  T
   3   -107.2786940 -0.923718E+00  0.131E-01    0.19       1.0  T
   4   -107.2570399  0.216541E-01  0.311E-01    0.21       1.0  T
   5   -107.2734675 -0.164276E-01  0.203E-01    0.18       1.0  T
   6   -107.2600444  0.134231E-01  0.286E-01    0.22       1.0  T
   7   -107.2829319 -0.228875E-01  0.391E-02    0.19       1.0  T
   8   -107.2831720 -0.240067E-03  0.186E-02    0.19       1.0  T
   9   -107.2832026 -0.306408E-04  0.146E-02    0.19       1.0  T
  10   -107.2832451 -0.424526E-04  0.726E-03    0.19       1.7  T
  11   -107.2832575 -0.124382E-04  0.239E-03    0.19       5.2  T
  12   -107.2832583 -0.751192E-06  0.175E-03    0.19       7.2  T
  13   -107.2832588 -0.522370E-06  0.999E-04    0.19      12.5  T
  14   -107.2832590 -0.217129E-06  0.426E-04    0.19      29.3  T
  15   -107.2832590 -0.293236E-07  0.258E-04    0.19      48.4  T
  16   -107.2832590 -0.138508E-07  0.120E-04    0.19     104.1  T
  17   -107.2832590 -0.255559E-08  0.673E-05    0.19     185.9  T
     SCC iter.                  ...        0 min,  2.037 sec
     gradient                   ...        0 min,  0.071 sec
 * total energy  :  -106.4882156 Eh     change       -0.6551588E-03 Eh
   gradient norm :     0.0176322 Eh/α   predicted    -0.6692151E-03 (   2.15%)
   displ. norm   :     0.2019413 α      lambda       -0.8405941E-03
   maximum displ.:     0.0820843 α      in ANC's #18, #38, #19, ...

........................................................................
.............................. CYCLE   26 ..............................
........................................................................

 iter      E             dE          RMSdq      gap      omega  full diag
   1   -107.2801312 -0.107280E+03  0.607E-02    0.19       0.0  T
   2   -106.5598761  0.720255E+00  0.164E+00    0.18       1.0  T
   3   -107.2731495 -0.713273E+00  0.177E-01    0.20       1.0  T
   4   -107.2077407  0.654088E-01  0.509E-01    0.16       1.0  T
   5   -107.2707580 -0.630172E-01  0.205E-01    0.20       1.0  T
   6   -107.2563410  0.144169E-01  0.300E-01    0.17       1.0  T
   7   -107.2805714 -0.242303E-01  0.383E-02    0.19       1.0  T
   8   -107.2809110 -0.339632E-03  0.100E-02    0.19       1.2  T
   9   -107.2809021  0.886609E-05  0.105E-02    0.19       1.2  T
  10   -107.2809170 -0.149069E-04  0.725E-03    0.19       1.7  T
  11   -107.2809274 -0.103576E-04  0.379E-03    0.19       3.3  T
  12   -107.2809304 -0.302674E-05  0.188E-03    0.19       6.7  T
  13   -107.2809313 -0.882336E-06  0.570E-04    0.19      21.9  T
  14   -107.2809314 -0.694780E-07  0.262E-04    0.19      47.7  T
  15   -107.2809314 -0.753769E-08  0.205E-04    0.19      61.0  T
  16   -107.2809314 -0.634256E-08  0.134E-04    0.19      93.3  T
  17   -107.2809314 -0.473851E-08  0.249E-05    0.19     501.7  T
     SCC iter.                  ...        0 min,  1.972 sec
     gradient                   ...        0 min,  0.103 sec
 * total energy  :  -106.4888270 Eh     change       -0.6113999E-03 Eh
   gradient norm :     0.0129137 Eh/α   predicted    -0.4374385E-03 ( -28.45%)
   displ. norm   :     0.3362021 α      lambda       -0.7705595E-03
   maximum displ.:     0.1595324 α      in ANC's #18, #38, #19, ...

........................................................................
.............................. CYCLE   27 ..............................
........................................................................

 iter      E             dE          RMSdq      gap      omega  full diag
   1   -107.2795417 -0.107280E+03  0.494E-02    0.20       0.0  T
   2   -105.8598017  0.141974E+01  0.223E+00    0.07       1.0  T
   3   -107.2697652 -0.140996E+01  0.197E-01    0.20       1.0  T
   4   -107.1954486  0.743165E-01  0.555E-01    0.17       1.0  T
   5   -107.2677998 -0.723511E-01  0.216E-01    0.20       1.0  T
   6   -107.2736899 -0.589010E-02  0.157E-01    0.18       1.0  T
   7   -107.2788161 -0.512624E-02  0.779E-02    0.19       1.0  T
   8   -107.2800284 -0.121231E-02  0.124E-02    0.19       1.0  T
   9   -107.2800023  0.260749E-04  0.152E-02    0.19       1.0  T
  10   -107.2800534 -0.510847E-04  0.551E-03    0.19       2.3  T
  11   -107.2800579 -0.442939E-05  0.289E-03    0.19       4.3  T
  12   -107.2800594 -0.155818E-05  0.158E-03    0.19       7.9  T
  13   -107.2800597 -0.341407E-06  0.109E-03    0.19      11.5  T
  14   -107.2800599 -0.179623E-06  0.696E-04    0.19      18.0  T
  15   -107.2800600 -0.788338E-07  0.426E-04    0.19      29.3  T
  16   -107.2800600 -0.234383E-07  0.299E-04    0.19      41.8  T
  17   -107.2800601 -0.184249E-07  0.135E-04    0.19      92.3  T
  18   -107.2800601 -0.452539E-08  0.292E-05    0.19     428.3  T
     SCC iter.                  ...        0 min,  2.153 sec
     gradient                   ...        0 min,  0.079 sec
 * total energy  :  -106.4894049 Eh     change       -0.5779476E-03 Eh
   gradient norm :     0.0107567 Eh/α   predicted    -0.4288338E-03 ( -25.80%)
   displ. norm   :     0.4669686 α      lambda       -0.7412860E-03
   maximum displ.:     0.2252387 α      in ANC's #18, #38, #19, ...

........................................................................
.............................. CYCLE   28 ..............................
........................................................................

 iter      E             dE          RMSdq      gap      omega  full diag
   1   -107.2794529 -0.107279E+03  0.353E-02    0.20       0.0  T
   2   -106.3313656  0.948087E+00  0.182E+00    0.08       1.0  T
   3   -107.2792306 -0.947865E+00  0.520E-02    0.19       1.0  T
   4   -107.2543919  0.248388E-01  0.311E-01    0.18       1.0  T
   5   -107.2742416 -0.198497E-01  0.154E-01    0.19       1.0  T
   6   -107.2791400 -0.489846E-02  0.494E-02    0.19       1.0  T
   7   -107.2752214  0.391864E-02  0.130E-01    0.19       1.0  T
   8   -107.2797510 -0.452959E-02  0.125E-02    0.19       1.0  T
   9   -107.2797568 -0.588135E-05  0.107E-02    0.19       1.2  T
  10   -107.2797801 -0.232203E-04  0.564E-03    0.19       2.2  T
  11   -107.2797873 -0.723429E-05  0.203E-03    0.19       6.1  T
  12   -107.2797881 -0.821901E-06  0.105E-03    0.19      12.0  T
  13   -107.2797883 -0.180640E-06  0.666E-04    0.19      18.8  T
  14   -107.2797884 -0.749512E-07  0.391E-04    0.19      32.0  T
  15   -107.2797884 -0.316316E-07  0.188E-04    0.19      66.5  T
  16   -107.2797884 -0.540570E-08  0.113E-04    0.19     110.2  T
     SCC iter.                  ...        0 min,  1.757 sec
     gradient                   ...        0 min,  0.089 sec
 * total energy  :  -106.4900049 Eh     change       -0.5999858E-03 Eh
   gradient norm :     0.0114430 Eh/α   predicted    -0.4514654E-03 ( -24.75%)
   displ. norm   :     0.4779750 α      lambda       -0.9974753E-03
   maximum displ.:     0.2414300 α      in ANC's #18, #19, #5, ...

........................................................................
.............................. CYCLE   29 ..............................
........................................................................

 iter      E             dE          RMSdq      gap      omega  full diag
   1   -107.2878476 -0.107288E+03  0.690E-02    0.20       0.0  T
   2   -103.9894313  0.329842E+01  0.338E+00    0.06       1.0  T
   3   -107.2734909 -0.328406E+01  0.241E-01    0.19       1.0  T
   4   -107.2421230  0.313679E-01  0.420E-01    0.19       1.0  T
   5   -107.2760472 -0.339243E-01  0.238E-01    0.18       1.0  T
   6   -107.2655291  0.105181E-01  0.291E-01    0.21       1.0  T
   7   -107.2872980 -0.217689E-01  0.840E-02    0.19       1.0  T
   8   -107.2888705 -0.157249E-02  0.282E-02    0.19       1.0  T
   9   -107.2889644 -0.938913E-04  0.196E-02    0.19       1.0  T
  10   -107.2890552 -0.907620E-04  0.733E-03    0.19       1.7  T
  11   -107.2890577 -0.252803E-05  0.639E-03    0.19       2.0  T
  12   -107.2890668 -0.911597E-05  0.265E-03    0.19       4.7  T
  13   -107.2890674 -0.590599E-06  0.218E-03    0.19       5.7  T
  14   -107.2890682 -0.762919E-06  0.130E-03    0.19       9.6  T
  15   -107.2890685 -0.298231E-06  0.727E-04    0.19      17.2  T
  16   -107.2890686 -0.850693E-07  0.419E-04    0.19      29.9  T
  17   -107.2890686 -0.403717E-07  0.118E-04    0.19     106.2  T
  18   -107.2890686 -0.318002E-08  0.377E-05    0.19     331.8  T
     SCC iter.                  ...        0 min,  2.096 sec
     gradient                   ...        0 min,  0.096 sec
 * total energy  :  -106.4904398 Eh     change       -0.4348407E-03 Eh
   gradient norm :     0.0134024 Eh/α   predicted    -0.6127059E-03 (  40.90%)
   displ. norm   :     0.6443623 α      lambda       -0.1254686E-02
   maximum displ.:     0.2943376 α      in ANC's #18, #38, #19, ...

........................................................................
.............................. CYCLE   30 ..............................
........................................................................

 iter      E             dE          RMSdq      gap      omega  full diag
   1   -107.2793023 -0.107279E+03  0.816E-02    0.20       0.0  T
   2   -102.4303303  0.484897E+01  0.407E+00    0.13       1.0  T
   3   -107.2575895 -0.482726E+01  0.300E-01    0.22       1.0  T
   4   -107.1742943  0.832952E-01  0.622E-01    0.14       1.0  T
   5   -107.2531683 -0.788740E-01  0.339E-01    0.21       1.0  T
   6   -107.0785515  0.174617E+00  0.854E-01    0.15       1.0  T
   7   -107.2799873 -0.201436E+00  0.614E-02    0.20       1.0  T
   8   -107.2807005 -0.713219E-03  0.225E-02    0.19       1.0  T
   9   -107.2807578 -0.572411E-04  0.164E-02    0.19       1.0  T
  10   -107.2808183 -0.604989E-04  0.451E-03    0.19       2.8  T
  11   -107.2808100  0.823091E-05  0.658E-03    0.19       1.9  T
  12   -107.2808184 -0.832509E-05  0.331E-03    0.19       3.8  T
  13   -107.2808195 -0.114671E-05  0.249E-03    0.19       5.0  T
  14   -107.2808202 -0.709861E-06  0.184E-03    0.19       6.8  T
  15   -107.2808207 -0.518762E-06  0.116E-03    0.19      10.7  T
  16   -107.2808209 -0.125165E-06  0.921E-04    0.19      13.6  T
  17   -107.2808210 -0.151441E-06  0.515E-04    0.19      24.3  T
  18   -107.2808211 -0.598895E-07  0.170E-04    0.19      73.3  T
  19   -107.2808211 -0.730583E-08  0.239E-05    0.19     523.1  T
     SCC iter.                  ...        0 min,  2.220 sec
     gradient                   ...        0 min,  0.104 sec
 * total energy  :  -106.4909703 Eh     change       -0.5305923E-03 Eh
   gradient norm :     0.0145789 Eh/α   predicted    -0.8878170E-03 (  67.33%)
   displ. norm   :     0.1053255 α      lambda       -0.4525094E-03
   maximum displ.:     0.0422402 α      in ANC's #18, #5, #13, ...

........................................................................
.............................. CYCLE   31 ..............................
........................................................................

 iter      E             dE          RMSdq      gap      omega  full diag
   1   -107.2848336 -0.107285E+03  0.124E-02    0.19       0.0  T
   2   -107.2751297  0.970393E-02  0.187E-01    0.18       1.0  T
   3   -107.2841477 -0.901799E-02  0.517E-02    0.20       1.0  T
   4   -107.2816370  0.251065E-02  0.107E-01    0.19       1.0  T
   5   -107.2845115 -0.287451E-02  0.397E-02    0.20       1.0  T
   6   -107.2842540  0.257504E-03  0.467E-02    0.19       1.0  T
   7   -107.2844561 -0.202087E-03  0.379E-02    0.20       1.0  T
   8   -107.2848430 -0.386848E-03  0.280E-03    0.19       4.5  T
   9   -107.2848424  0.616445E-06  0.310E-03    0.19       4.0  T
  10   -107.2848442 -0.183670E-05  0.879E-04    0.19      14.2  T
  11   -107.2848444 -0.154426E-06  0.432E-04    0.19      28.9  T
  12   -107.2848444 -0.444870E-07  0.135E-04    0.19      92.4  T
  13   -107.2848444  0.812989E-09  0.133E-04    0.19      93.8  T
     SCC iter.                  ...        0 min,  1.388 sec
     gradient                   ...        0 min,  0.087 sec
 * total energy  :  -106.4912817 Eh     change       -0.3113782E-03 Eh
   gradient norm :     0.0072638 Eh/α   predicted    -0.2287670E-03 ( -26.53%)
   displ. norm   :     0.4073266 α      lambda       -0.4457075E-03
   maximum displ.:     0.1923991 α      in ANC's #18, #5, #13, ...

........................................................................
.............................. CYCLE   32 ..............................
........................................................................

 iter      E             dE          RMSdq      gap      omega  full diag
   1   -107.2874373 -0.107287E+03  0.417E-02    0.20       0.0  T
   2   -105.9937910  0.129365E+01  0.213E+00    0.07       1.0  T
   3   -107.2831422 -0.128935E+01  0.142E-01    0.20       1.0  T
   4   -107.2690813  0.140609E-01  0.264E-01    0.18       1.0  T
   5   -107.2845267 -0.154453E-01  0.125E-01    0.20       1.0  T
   6   -107.2826989  0.182774E-02  0.138E-01    0.20       1.0  T
   7   -107.2878220 -0.512312E-02  0.185E-02    0.19       1.0  T
   8   -107.2878946 -0.725310E-04  0.826E-03    0.19       1.5  T
   9   -107.2879117 -0.170861E-04  0.237E-03    0.19       5.3  T
  10   -107.2879115  0.178664E-06  0.245E-03    0.19       5.1  T
  11   -107.2879127 -0.121411E-05  0.839E-04    0.19      14.9  T
  12   -107.2879129 -0.183860E-06  0.230E-04    0.19      54.2  T
  13   -107.2879129 -0.621418E-08  0.153E-04    0.19      81.6  T
  14   -107.2879129 -0.304645E-08  0.112E-04    0.19     112.0  T
     SCC iter.                  ...        0 min,  1.496 sec
     gradient                   ...        0 min,  0.095 sec
 * total energy  :  -106.4916337 Eh     change       -0.3519317E-03 Eh
   gradient norm :     0.0045298 Eh/α   predicted    -0.2598295E-03 ( -26.17%)
   displ. norm   :     0.5852676 α      lambda       -0.4599442E-03
   maximum displ.:     0.2665872 α      in ANC's #18, #5, #13, ...

........................................................................
.............................. CYCLE   33 ..............................
........................................................................

 iter      E             dE          RMSdq      gap      omega  full diag
   1   -107.2854646 -0.107285E+03  0.672E-02    0.20       0.0  T
   2   -104.4328026  0.285266E+01  0.316E+00    0.03       1.0  T
   3   -107.2753839 -0.284258E+01  0.226E-01    0.19       1.0  T
   4   -107.2432073  0.321766E-01  0.401E-01    0.21       1.0  T
   5   -107.2772162 -0.340089E-01  0.198E-01    0.19       1.0  T
   6   -107.2856399 -0.842377E-02  0.642E-02    0.19       1.0  T
   7   -107.2847642  0.875685E-03  0.850E-02    0.20       1.0  T
   8   -107.2866985 -0.193424E-02  0.599E-03    0.20       2.1  T
   9   -107.2866981  0.375356E-06  0.602E-03    0.20       2.1  T
  10   -107.2867034 -0.528646E-05  0.352E-03    0.20       3.5  T
  11   -107.2867063 -0.288632E-05  0.996E-04    0.20      12.5  T
  12   -107.2867064 -0.158435E-06  0.494E-04    0.20      25.3  T
  13   -107.2867065 -0.391753E-07  0.301E-04    0.20      41.5  T
  14   -107.2867065 -0.177899E-07  0.133E-04    0.20      94.3  T
  15   -107.2867065 -0.212258E-08  0.917E-05    0.20     136.3  T
     SCC iter.                  ...        0 min,  1.584 sec
     gradient                   ...        0 min,  0.127 sec
 * total energy  :  -106.4919881 Eh     change       -0.3544203E-03 Eh
   gradient norm :     0.0053030 Eh/α   predicted    -0.3087555E-03 ( -12.88%)
   displ. norm   :     0.4969079 α      lambda       -0.4686481E-03
   maximum displ.:     0.1843813 α      in ANC's #5, #18, #13, ...

........................................................................
.............................. CYCLE   34 ..............................
........................................................................

 iter      E             dE          RMSdq      gap      omega  full diag
   1   -107.2899203 -0.107290E+03  0.914E-02    0.21       0.0  T
   2   -103.3313831  0.395854E+01  0.372E+00    0.06       1.0  T
   3   -107.2674832 -0.393610E+01  0.336E-01    0.18       1.0  T
   4   -107.2426978  0.247854E-01  0.429E-01    0.22       1.0  T
   5   -107.2804411 -0.377433E-01  0.218E-01    0.19       1.0  T
   6   -107.2142359  0.662052E-01  0.537E-01    0.18       1.0  T
   7   -107.2921922 -0.779564E-01  0.150E-02    0.20       1.0  T
   8   -107.2921681  0.240700E-04  0.171E-02    0.20       1.0  T
   9   -107.2922305 -0.623326E-04  0.749E-03    0.20       1.7  T
  10   -107.2922394 -0.894794E-05  0.486E-03    0.20       2.6  T
  11   -107.2922450 -0.553974E-05  0.121E-03    0.20      10.3  T
  12   -107.2922448  0.126990E-06  0.134E-03    0.20       9.3  T
  13   -107.2922449 -0.885799E-07  0.122E-03    0.20      10.2  T
  14   -107.2922452 -0.234326E-06  0.745E-04    0.20      16.8  T
  15   -107.2922453 -0.125612E-06  0.241E-04    0.20      51.9  T
  16   -107.2922453 -0.155374E-07  0.268E-05    0.20     466.7  T
  17   -107.2922453  0.255369E-10  0.292E-05    0.20     428.7  T
     SCC iter.                  ...        0 min,  1.769 sec
     gradient                   ...        0 min,  0.096 sec
 * total energy  :  -106.4922223 Eh     change       -0.2342182E-03 Eh
   gradient norm :     0.0086880 Eh/α   predicted    -0.2921839E-03 (  24.75%)
   displ. norm   :     0.5521183 α      lambda       -0.4116843E-03
   maximum displ.:     0.2428519 α      in ANC's #18, #5, #13, ...

........................................................................
.............................. CYCLE   35 ..............................
........................................................................

 iter      E             dE          RMSdq      gap      omega  full diag
   1   -107.2827065 -0.107283E+03  0.801E-02    0.21       0.0  T
   2   -104.1081344  0.317457E+01  0.334E+00    0.04       1.0  T
   3   -107.2603704 -0.315224E+01  0.325E-01    0.19       1.0  T
   4   -107.2381113  0.222590E-01  0.416E-01    0.22       1.0  T
   5   -107.2767669 -0.386555E-01  0.181E-01    0.19       1.0  T
   6   -107.2372325  0.395344E-01  0.419E-01    0.20       1.0  T
   7   -107.2838774 -0.466449E-01  0.498E-02    0.20       1.0  T
   8   -107.2844719 -0.594453E-03  0.583E-03    0.20       2.1  T
   9   -107.2844508  0.211210E-04  0.106E-02    0.20       1.2  T
  10   -107.2844757 -0.249614E-04  0.332E-03    0.20       3.8  T
  11   -107.2844773 -0.152894E-05  0.184E-03    0.20       6.8  T
  12   -107.2844780 -0.700020E-06  0.720E-04    0.20      17.4  T
  13   -107.2844780 -0.271207E-07  0.564E-04    0.20      22.2  T
  14   -107.2844780 -0.176549E-07  0.490E-04    0.20      25.5  T
  15   -107.2844780 -0.306382E-07  0.332E-04    0.20      37.7  T
  16   -107.2844781 -0.268814E-07  0.665E-05    0.20     187.9  T
  17   -107.2844781 -0.120765E-08  0.970E-06    0.20    1289.3  T
     SCC iter.                  ...        0 min,  1.910 sec
     gradient                   ...        0 min,  0.095 sec
 * total energy  :  -106.4924248 Eh     change       -0.2025010E-03 Eh
   gradient norm :     0.0093260 Eh/α   predicted    -0.2685921E-03 (  32.64%)
   displ. norm   :     0.1477093 α      lambda       -0.3140712E-03
   maximum displ.:     0.0526166 α      in ANC's #5, #4, #9, ...

........................................................................
.............................. CYCLE   36 ..............................
........................................................................

 iter      E             dE          RMSdq      gap      omega  full diag
   1   -107.2875157 -0.107288E+03  0.562E-02    0.21       0.0  T
   2   -105.5670722  0.172044E+01  0.248E+00    0.03       1.0  T
   3   -107.2645519 -0.169748E+01  0.302E-01    0.21       1.0  T
   4   -107.2614139  0.313802E-02  0.316E-01    0.20       1.0  T
   5   -107.2808975 -0.194836E-01  0.183E-01    0.20       1.0  T
   6   -107.2403618  0.405357E-01  0.422E-01    0.19       1.0  T
   7   -107.2876654 -0.473036E-01  0.507E-02    0.21       1.0  T
   8   -107.2883301 -0.664728E-03  0.744E-03    0.20       1.7  T
   9   -107.2883346 -0.443048E-05  0.620E-03    0.20       2.0  T
  10   -107.2883424 -0.784925E-05  0.233E-03    0.20       5.4  T
  11   -107.2883428 -0.372519E-06  0.164E-03    0.20       7.6  T
  12   -107.2883434 -0.658419E-06  0.361E-04    0.20      34.6  T
  13   -107.2883435 -0.244082E-07  0.180E-04    0.20      69.6  T
  14   -107.2883435 -0.536942E-08  0.994E-05    0.20     125.8  T
     SCC iter.                  ...        0 min,  1.591 sec
     gradient                   ...        0 min,  0.075 sec
 * total energy  :  -106.4926022 Eh     change       -0.1774427E-03 Eh
   gradient norm :     0.0074645 Eh/α   predicted    -0.1604625E-03 (  -9.57%)
   displ. norm   :     0.3520228 α      lambda       -0.3101453E-03
   maximum displ.:     0.1493598 α      in ANC's #5, #13, #18, ...

........................................................................
.............................. CYCLE   37 ..............................
........................................................................

 iter      E             dE          RMSdq      gap      omega  full diag
   1   -107.2873094 -0.107287E+03  0.882E-02    0.22       0.0  T
   2   -103.7964100  0.349090E+01  0.350E+00    0.04       1.0  T
   3   -107.2433072 -0.344690E+01  0.421E-01    0.19       1.0  T
   4   -107.2615131 -0.182059E-01  0.323E-01    0.21       1.0  T
   5   -107.2756961 -0.141830E-01  0.251E-01    0.21       1.0  T
   6   -107.2561502  0.195459E-01  0.352E-01    0.21       1.0  T
   7   -107.2883119 -0.321617E-01  0.684E-02    0.21       1.0  T
   8   -107.2895076 -0.119575E-02  0.101E-02    0.21       1.2  T
   9   -107.2895203 -0.126502E-04  0.753E-03    0.21       1.7  T
  10   -107.2895278 -0.752676E-05  0.538E-03    0.21       2.3  T
  11   -107.2895340 -0.619182E-05  0.237E-03    0.21       5.3  T
  12   -107.2895352 -0.120034E-05  0.869E-04    0.21      14.4  T
  13   -107.2895351  0.124792E-06  0.101E-03    0.21      12.3  T
  14   -107.2895353 -0.175881E-06  0.595E-04    0.21      21.0  T
  15   -107.2895353 -0.814386E-07  0.180E-04    0.21      69.3  T
  16   -107.2895354 -0.862767E-08  0.332E-05    0.21     376.9  T
     SCC iter.                  ...        0 min,  1.791 sec
     gradient                   ...        0 min,  0.083 sec
 * total energy  :  -106.4928324 Eh     change       -0.2301388E-03 Eh
   gradient norm :     0.0051487 Eh/α   predicted    -0.1742890E-03 ( -24.27%)
   displ. norm   :     0.5081457 α      lambda       -0.3749297E-03
   maximum displ.:     0.2168990 α      in ANC's #5, #9, #13, ...

........................................................................
.............................. CYCLE   38 ..............................
........................................................................

 iter      E             dE          RMSdq      gap      omega  full diag
   1   -107.2833848 -0.107283E+03  0.149E-01    0.24       0.0  T
   2    -98.9820981  0.830129E+01  0.530E+00    0.04       1.0  T
   3   -106.6765992 -0.769450E+01  0.151E+00    0.10       1.0  T
   4   -107.2412690 -0.564670E+00  0.437E-01    0.23       1.0  T
   5   -107.2633581 -0.220891E-01  0.327E-01    0.22       1.0  T
   6   -107.0691880  0.194170E+00  0.910E-01    0.21       1.0  T
   7   -107.2886685 -0.219481E+00  0.664E-02    0.22       1.0  T
   8   -107.2895966 -0.928140E-03  0.273E-02    0.22       1.0  T
   9   -107.2897269 -0.130252E-03  0.153E-02    0.22       1.0  T
  10   -107.2897602 -0.332987E-04  0.106E-02    0.22       1.2  T
  11   -107.2897750 -0.148048E-04  0.727E-03    0.22       1.7  T
  12   -107.2897876 -0.126253E-04  0.265E-03    0.22       4.7  T
  13   -107.2897895 -0.189915E-05  0.381E-04    0.22      32.8  T
  14   -107.2897894  0.103340E-06  0.750E-04    0.22      16.7  T
  15   -107.2897894 -0.331272E-07  0.630E-04    0.22      19.9  T
  16   -107.2897895 -0.887850E-07  0.205E-04    0.22      61.1  T
  17   -107.2897895 -0.975835E-08  0.853E-05    0.22     146.6  T
  18   -107.2897895 -0.151294E-08  0.391E-05    0.22     319.8  T
     SCC iter.                  ...        0 min,  1.874 sec
     gradient                   ...        0 min,  0.149 sec
 * total energy  :  -106.4930771 Eh     change       -0.2446940E-03 Eh
   gradient norm :     0.0065314 Eh/α   predicted    -0.2358705E-03 (  -3.61%)
   displ. norm   :     0.5304361 α      lambda       -0.3029573E-03
   maximum displ.:     0.2310311 α      in ANC's #5, #9, #13, ...

........................................................................
.............................. CYCLE   39 ..............................
........................................................................

 iter      E             dE          RMSdq      gap      omega  full diag
   1   -107.2804548 -0.107280E+03  0.139E-01    0.25       0.0  T
   2   -100.0115571  0.726890E+01  0.497E+00    0.04       1.0  T
   3   -106.8174029 -0.680585E+01  0.132E+00    0.13       1.0  T
   4   -107.2443172 -0.426914E+00  0.404E-01    0.24       1.0  T
   5   -107.2659951 -0.216778E-01  0.288E-01    0.24       1.0  T
   6   -107.0544953  0.211500E+00  0.931E-01    0.23       1.0  T
   7   -107.2847507 -0.230255E+00  0.686E-02    0.24       1.0  T
   8   -107.2858855 -0.113480E-02  0.220E-02    0.23       1.0  T
   9   -107.2859896 -0.104085E-03  0.895E-03    0.23       1.4  T
  10   -107.2859823  0.735071E-05  0.101E-02    0.23       1.2  T
  11   -107.2859949 -0.126804E-04  0.689E-03    0.23       1.8  T
  12   -107.2860046 -0.969740E-05  0.338E-03    0.23       3.7  T
  13   -107.2860070 -0.239161E-05  0.153E-03    0.23       8.2  T
  14   -107.2860076 -0.546865E-06  0.488E-04    0.23      25.6  T
  15   -107.2860076 -0.510936E-07  0.227E-04    0.23      55.0  T
  16   -107.2860076 -0.111128E-07  0.102E-04    0.23     123.1  T
  17   -107.2860076 -0.241525E-08  0.338E-05    0.23     370.0  T
     SCC iter.                  ...        0 min,  1.936 sec
     gradient                   ...        0 min,  0.094 sec
 * total energy  :  -106.4932733 Eh     change       -0.1962662E-03 Eh
   gradient norm :     0.0062347 Eh/α   predicted    -0.1941037E-03 (  -1.10%)
   displ. norm   :     0.3999166 α      lambda       -0.3869558E-03
   maximum displ.:     0.1489095 α      in ANC's #5, #9, #4, ...

........................................................................
.............................. CYCLE   40 ..............................
........................................................................

 iter      E             dE          RMSdq      gap      omega  full diag
   1   -107.2865779 -0.107287E+03  0.116E-01    0.26       0.0  T
   2   -102.1018496  0.518473E+01  0.424E+00    0.03       1.0  T
   3   -107.0720162 -0.497017E+01  0.902E-01    0.20       1.0  T
   4   -107.2714288 -0.199413E+00  0.267E-01    0.26       1.0  T
   5   -107.2715052 -0.764344E-04  0.299E-01    0.26       1.0  T
   6   -107.2587998  0.127055E-01  0.340E-01    0.26       1.0  T
   7   -107.2880734 -0.292736E-01  0.939E-02    0.25       1.0  T
   8   -107.2900709 -0.199751E-02  0.286E-02    0.25       1.0  T
   9   -107.2902393 -0.168363E-03  0.132E-02    0.25       1.0  T
  10   -107.2902208  0.184419E-04  0.151E-02    0.25       1.0  T
  11   -107.2902710 -0.501609E-04  0.635E-03    0.25       2.0  T
  12   -107.2902756 -0.466638E-05  0.470E-03    0.25       2.7  T
  13   -107.2902784 -0.279386E-05  0.334E-03    0.25       3.7  T
  14   -107.2902806 -0.212209E-05  0.163E-03    0.25       7.7  T
  15   -107.2902811 -0.561236E-06  0.663E-04    0.25      18.8  T
  16   -107.2902812 -0.106101E-06  0.174E-04    0.25      71.8  T
  17   -107.2902812 -0.670856E-08  0.736E-05    0.25     169.9  T
     SCC iter.                  ...        0 min,  1.788 sec
     gradient                   ...        0 min,  0.073 sec
 * total energy  :  -106.4934940 Eh     change       -0.2206893E-03 Eh
   gradient norm :     0.0085930 Eh/α   predicted    -0.2244269E-03 (   1.69%)
   displ. norm   :     0.3992207 α      lambda       -0.3201966E-03
   maximum displ.:     0.1752876 α      in ANC's #5, #9, #16, ...

........................................................................
.............................. CYCLE   41 ..............................
........................................................................

 iter      E             dE          RMSdq      gap      omega  full diag
   1   -107.2841157 -0.107284E+03  0.102E-01    0.27       0.0  T
   2   -103.2455812  0.403853E+01  0.376E+00    0.01       1.0  T
   3   -107.1642320 -0.391865E+01  0.689E-01    0.24       1.0  T
   4   -107.2561624 -0.919304E-01  0.344E-01    0.27       1.0  T
   5   -107.2818644 -0.257020E-01  0.156E-01    0.27       1.0  T
   6   -107.2417516  0.401128E-01  0.410E-01    0.27       1.0  T
   7   -107.2866203 -0.448687E-01  0.394E-02    0.26       1.0  T
   8   -107.2869025 -0.282264E-03  0.189E-02    0.26       1.0  T
   9   -107.2869457 -0.431648E-04  0.135E-02    0.26       1.0  T
  10   -107.2869477 -0.203336E-05  0.130E-02    0.26       1.0  T
  11   -107.2869824 -0.347071E-04  0.620E-03    0.26       2.0  T
  12   -107.2869891 -0.663576E-05  0.362E-03    0.26       3.5  T
  13   -107.2869907 -0.162632E-05  0.252E-03    0.26       5.0  T
  14   -107.2869921 -0.138092E-05  0.949E-04    0.26      13.2  T
  15   -107.2869923 -0.218958E-06  0.131E-04    0.26      95.1  T
  16   -107.2869923 -0.251111E-08  0.821E-05    0.26     152.3  T
     SCC iter.                  ...        0 min,  1.740 sec
     gradient                   ...        0 min,  0.092 sec
 * total energy  :  -106.4936756 Eh     change       -0.1815754E-03 Eh
   gradient norm :     0.0070572 Eh/α   predicted    -0.1856148E-03 (   2.22%)
   displ. norm   :     0.2242329 α      lambda       -0.2729583E-03
   maximum displ.:     0.0829490 α      in ANC's #17, #16, #5, ...

........................................................................
.............................. CYCLE   42 ..............................
........................................................................

 iter      E             dE          RMSdq      gap      omega  full diag
   1   -107.2860918 -0.107286E+03  0.696E-02    0.27       0.0  T
   2   -105.2546369  0.203145E+01  0.267E+00    0.05       1.0  T
   3   -107.2430972 -0.198846E+01  0.423E-01    0.27       1.0  T
   4   -107.2521968 -0.909964E-02  0.363E-01    0.29       1.0  T
   5   -107.2823608 -0.301640E-01  0.145E-01    0.27       1.0  T
   6   -107.2842503 -0.188951E-02  0.107E-01    0.27       1.0  T
   7   -107.2815012  0.274909E-02  0.146E-01    0.26       1.0  T
   8   -107.2871500 -0.564881E-02  0.222E-02    0.27       1.0  T
   9   -107.2871270  0.230037E-04  0.234E-02    0.27       1.0  T
  10   -107.2872121 -0.850312E-04  0.158E-02    0.27       1.0  T
  11   -107.2872560 -0.439197E-04  0.959E-03    0.27       1.3  T
  12   -107.2872710 -0.150418E-04  0.601E-03    0.27       2.1  T
  13   -107.2872763 -0.530300E-05  0.404E-03    0.27       3.1  T
  14   -107.2872796 -0.331273E-05  0.189E-03    0.27       6.6  T
  15   -107.2872805 -0.867311E-06  0.506E-04    0.27      24.7  T
  16   -107.2872806 -0.601633E-07  0.160E-04    0.27      78.3  T
  17   -107.2872806 -0.627043E-08  0.366E-05    0.27     341.9  T
     SCC iter.                  ...        0 min,  1.794 sec
     gradient                   ...        0 min,  0.097 sec
 * total energy  :  -106.4938519 Eh     change       -0.1762905E-03 Eh
   gradient norm :     0.0050593 Eh/α   predicted    -0.1433427E-03 ( -18.69%)
   displ. norm   :     0.2543259 α      lambda       -0.2059819E-03
   maximum displ.:     0.0908434 α      in ANC's #5, #16, #17, ...
 * RMSD in coord.:     0.8640670 α      energy gain  -0.8409360E-02 Eh

generating ANC from model Hessian ...
Using Lindh-Hessian (1995)
 Shifting diagonal of input Hessian by    1.7657465319951781E-002
 Lowest  eigenvalues of input Hessian
    0.010000    0.015938    0.016850    0.017194    0.017433    0.017630
    0.017646    0.000000    0.000000    0.000000    0.000000    0.000000
    0.000000    0.017671    0.017716    0.017740    0.017747    0.017829
 Highest eigenvalues
    1.217091    1.578453    1.855553    1.951981    2.041292    2.133363


........................................................................
.............................. CYCLE   43 ..............................
........................................................................

 iter      E             dE          RMSdq      gap      omega  full diag
   1   -107.2857633 -0.107286E+03  0.729E-02    0.28       0.0  T
   2   -104.9785195  0.230724E+01  0.286E+00    0.04       1.0  T
   3   -107.2197848 -0.224127E+01  0.510E-01    0.27       1.0  T
   4   -107.2660777 -0.462929E-01  0.286E-01    0.27       1.0  T
   5   -107.2822262 -0.161485E-01  0.148E-01    0.27       1.0  T
   6   -107.2060376  0.761886E-01  0.541E-01    0.23       1.0  T
   7   -107.2868171 -0.807795E-01  0.381E-02    0.27       1.0  T
   8   -107.2871052 -0.288092E-03  0.153E-02    0.27       1.0  T
   9   -107.2870876  0.175583E-04  0.164E-02    0.27       1.0  T
  10   -107.2871432 -0.555203E-04  0.875E-03    0.27       1.4  T
  11   -107.2871562 -0.130490E-04  0.538E-03    0.27       2.3  T
  12   -107.2871610 -0.483422E-05  0.338E-03    0.27       3.7  T
  13   -107.2871626 -0.154218E-05  0.239E-03    0.27       5.2  T
  14   -107.2871636 -0.106192E-05  0.126E-03    0.27       9.9  T
  15   -107.2871640 -0.331913E-06  0.583E-04    0.27      21.4  T
  16   -107.2871641 -0.765133E-07  0.218E-04    0.27      57.3  T
  17   -107.2871641 -0.919815E-08  0.112E-04    0.27     111.4  T
  18   -107.2871641 -0.285533E-08  0.420E-05    0.27     297.4  T
     SCC iter.                  ...        0 min,  2.000 sec
     gradient                   ...        0 min,  0.080 sec
 * total energy  :  -106.4939962 Eh     change       -0.1443133E-03 Eh
   gradient norm :     0.0046963 Eh/α   predicted     0.0000000E+00 (-100.00%)
   displ. norm   :     0.0512803 α      lambda       -0.9107697E-04
   maximum displ.:     0.0172520 α      in ANC's #1, #20, #47, ...

........................................................................
.............................. CYCLE   44 ..............................
........................................................................

 iter      E             dE          RMSdq      gap      omega  full diag
   1   -107.2878549 -0.107288E+03  0.207E-02    0.27       0.0  T
   2   -107.2107616  0.770934E-01  0.538E-01    0.27       1.0  T
   3   -107.2875160 -0.767544E-01  0.420E-02    0.27       1.0  T
   4   -107.2866914  0.824587E-03  0.673E-02    0.28       1.0  T
   5   -107.2874256 -0.734269E-03  0.430E-02    0.26       1.0  T
   6   -107.2878924 -0.466808E-03  0.155E-02    0.27       1.0  T
   7   -107.2878661  0.263525E-04  0.158E-02    0.27       1.0  T
   8   -107.2878483  0.178351E-04  0.179E-02    0.27       1.0  T
   9   -107.2879285 -0.802216E-04  0.496E-03    0.27       2.5  T
  10   -107.2879327 -0.418016E-05  0.294E-03    0.27       4.3  T
  11   -107.2879347 -0.203426E-05  0.996E-04    0.27      12.6  T
  12   -107.2879350 -0.261425E-06  0.174E-04    0.27      71.8  T
  13   -107.2879350 -0.441314E-08  0.992E-05    0.27     125.9  T
     SCC iter.                  ...        0 min,  1.428 sec
     gradient                   ...        0 min,  0.100 sec
 * total energy  :  -106.4940611 Eh     change       -0.6490000E-04 Eh
   gradient norm :     0.0027556 Eh/α   predicted    -0.4570668E-04 ( -29.57%)
   displ. norm   :     0.1681480 α      lambda       -0.2089136E-03
   maximum displ.:     0.0638000 α      in ANC's #1, #6, #5, ...

........................................................................
.............................. CYCLE   45 ..............................
........................................................................

 iter      E             dE          RMSdq      gap      omega  full diag
   1   -107.2879658 -0.107288E+03  0.751E-02    0.27       0.0  T
   2   -105.8884606  0.139951E+01  0.227E+00    0.27       1.0  T
   3   -107.2551219 -0.136666E+01  0.366E-01    0.29       1.0  T
   4   -107.2654588 -0.103369E-01  0.298E-01    0.25       1.0  T
   5   -107.2861583 -0.206995E-01  0.115E-01    0.26       1.0  T
   6   -107.2364781  0.496802E-01  0.431E-01    0.32       1.0  T
   7   -107.2892354 -0.527573E-01  0.240E-02    0.27       1.0  T
   8   -107.2893135 -0.781412E-04  0.145E-02    0.27       1.0  T
   9   -107.2893553 -0.417767E-04  0.712E-03    0.27       1.8  T
  10   -107.2893539  0.144560E-05  0.713E-03    0.27       1.8  T
  11   -107.2893662 -0.122897E-04  0.170E-03    0.27       7.3  T
  12   -107.2893666 -0.464498E-06  0.760E-04    0.27      16.4  T
  13   -107.2893666 -0.253839E-07  0.650E-04    0.27      19.2  T
  14   -107.2893667 -0.460350E-07  0.491E-04    0.27      25.5  T
  15   -107.2893667 -0.400518E-07  0.302E-04    0.27      41.4  T
  16   -107.2893667 -0.189660E-07  0.133E-04    0.27      94.0  T
  17   -107.2893667 -0.423671E-08  0.408E-05    0.27     306.3  T
     SCC iter.                  ...        0 min,  2.005 sec
     gradient                   ...        0 min,  0.101 sec
 * total energy  :  -106.4940714 Eh     change       -0.1032177E-04 Eh
   gradient norm :     0.0061044 Eh/α   predicted    -0.1074107E-03 ( 940.62%)
   displ. norm   :     0.0638830 α      lambda       -0.1835102E-03
   maximum displ.:     0.0474844 α      in ANC's #1, #5, #20, ...

........................................................................
.............................. CYCLE   46 ..............................
........................................................................

 iter      E             dE          RMSdq      gap      omega  full diag
   1   -107.2882773 -0.107288E+03  0.524E-02    0.27       0.0  T
   2   -106.2669341  0.102134E+01  0.191E+00    0.16       1.0  T
   3   -107.2795905 -0.101266E+01  0.182E-01    0.29       1.0  T
   4   -107.2564909  0.230996E-01  0.342E-01    0.23       1.0  T
   5   -107.2877377 -0.312467E-01  0.674E-02    0.27       1.0  T
   6   -107.2795537  0.818393E-02  0.184E-01    0.28       1.0  T
   7   -107.2878056 -0.825183E-02  0.683E-02    0.27       1.0  T
   8   -107.2888085 -0.100291E-02  0.118E-02    0.27       1.1  T
   9   -107.2888232 -0.147838E-04  0.849E-03    0.27       1.5  T
  10   -107.2888396 -0.163109E-04  0.365E-03    0.27       3.4  T
  11   -107.2888414 -0.184251E-05  0.240E-03    0.27       5.2  T
  12   -107.2888428 -0.144912E-05  0.716E-04    0.27      17.5  T
  13   -107.2888430 -0.124209E-06  0.209E-04    0.27      59.9  T
  14   -107.2888430 -0.512118E-08  0.150E-04    0.27      83.4  T
  15   -107.2888430 -0.449023E-08  0.722E-05    0.27     173.0  T
     SCC iter.                  ...        0 min,  1.715 sec
     gradient                   ...        0 min,  0.112 sec
 * total energy  :  -106.4941722 Eh     change       -0.1007228E-03 Eh
   gradient norm :     0.0033224 Eh/α   predicted    -0.9213550E-04 (  -8.53%)
   displ. norm   :     0.0543676 α      lambda       -0.5223048E-04
   maximum displ.:     0.0192063 α      in ANC's #6, #20, #5, ...

........................................................................
.............................. CYCLE   47 ..............................
........................................................................

 iter      E             dE          RMSdq      gap      omega  full diag
   1   -107.2884549 -0.107288E+03  0.965E-03    0.27       0.0  T
   2   -107.2794689  0.898607E-02  0.180E-01    0.25       1.0  T
   3   -107.2881486 -0.867976E-02  0.352E-02    0.27       1.0  T
   4   -107.2870383  0.111030E-02  0.733E-02    0.27       1.0  T
   5   -107.2881384 -0.110001E-02  0.372E-02    0.27       1.0  T
   6   -107.2884405 -0.302135E-03  0.104E-02    0.27       1.2  T
   7   -107.2881952  0.245246E-03  0.313E-02    0.27       1.0  T
   8   -107.2884602 -0.264919E-03  0.563E-03    0.27       2.2  T
   9   -107.2884663 -0.610385E-05  0.320E-03    0.27       3.9  T
  10   -107.2884685 -0.226608E-05  0.141E-03    0.27       8.8  T
  11   -107.2884689 -0.401011E-06  0.701E-04    0.27      17.8  T
  12   -107.2884691 -0.135415E-06  0.139E-04    0.27      90.2  T
  13   -107.2884691 -0.383986E-08  0.652E-05    0.27     191.8  T
     SCC iter.                  ...        0 min,  1.395 sec
     gradient                   ...        0 min,  0.078 sec
 * total energy  :  -106.4942116 Eh     change       -0.3943808E-04 Eh
   gradient norm :     0.0016470 Eh/α   predicted    -0.2619834E-04 ( -33.57%)
   displ. norm   :     0.2868134 α      lambda       -0.1032663E-03
   maximum displ.:     0.1067402 α      in ANC's #6, #5, #20, ...

   *** GEOMETRY OPTIMIZATION CONVERGED AFTER 47 ITERATIONS ***

------------------------------------------------------------------------
 total energy gain   :        -0.0780864 Eh      -49.0000 kcal/mol
 total RMSD          :         1.5724811 a0        0.8321 Å
 total power (kW/mol):        -4.3620404 (step)   -2.0030 (real)
------------------------------------------------------------------------

 ANCopt (total)                0 d,  0 h,  1 min, 42.357 sec
 optimizer setup                ...        0 min,  0.000 sec (  0.000%)
 model hessian                  ...        0 min,  0.067 sec (  0.065%)
 ANC generation                 ...        0 min,  0.074 sec (  0.072%)
 coordinate transformation      ...        0 min,  0.007 sec (  0.007%)
 single point calculation       ...        1 min, 42.062 sec ( 99.712%)
 optimization log               ...        0 min,  0.039 sec (  0.038%)
 hessian update                 ...        0 min,  0.026 sec (  0.025%)
 rational function              ...        0 min,  0.054 sec (  0.053%)

================
 final structure:
================
64
 xtb: 6.6.1 (unknown)
C           53.68491339253495       14.76955785334538       52.87482554306979
C           53.53191416745563       15.73057949029121       51.69820276690101
S           54.32073966293304       15.06749307317636       50.19135972600850
H           53.25156839953529       15.18654437781764       53.79050999152885
H           53.18868355414882       13.81691154265437       52.65179097845406
H           54.74490328062951       14.56590550133437       53.05212998392629
H           52.46707431762401       15.96071857972824       51.54979508725483
H           54.03681504064622       16.67600209489264       51.93810049450197
C           47.74412721477458        9.20738693704957       49.67004778369070
C           49.11300979038197        9.57917054582311       50.23600407391179
S           49.89236944141333       10.75177270587847       49.07633449759363
H           47.21428371213432        8.49716214772432       50.31288621389460
H           47.13361027039961       10.10675118858523       49.56500568922792
H           47.86212327906129        8.76507907878303       48.67832030645592
H           48.97754329471802       10.03234828375370       51.22829412850846
H           49.70902978719429        8.66507605448421       50.36401235872432
C           56.72310951684253        7.17864955278649       47.34298421307043
C           55.36781364822382        7.19320137656537       46.63660978418387
S           54.88064878892624        8.87695115562978       46.14479113149404
H           57.05211165454487        6.15621523571626       47.56049379994548
H           57.47406671577032        7.65679379392385       46.70880571088149
H           56.66653235160313        7.73521647333477       48.28296976503239
H           55.44337908445082        6.59427224112340       45.71796485052479
H           54.61686043512346        6.71232293213749       47.27988925024496
C           58.01858385010777       10.12041641798741       51.54340975555294
C           57.04412056518054        9.08273081455887       52.10041896431311
S           55.41051364389374        9.78988730644877       52.48733148415624
H           58.09534973762306       10.96426261849474       52.23512733695587
H           59.01778996792237        9.69285881115406       51.40273810160722
H           57.65858744900248       10.49870120715942       50.57782472487985
H           56.97440669803483        8.23652832307952       51.40136762296981
H           57.45027914638921        8.68965104097040       53.04331309982424
C           57.27903928005369       16.27385546964472       47.80230392045050
C           55.90640467578389       15.92879036596831       47.22790667395251
S           55.91905869619773       14.25069024697013       46.51457172203417
H           57.50597518672328       15.62770724666155       48.65395669229018
H           58.04870130007686       16.11782432500607       47.04209349034470
H           57.32327899279601       17.31722710233701       48.13173081617368
H           55.14542046833525       16.06332925161378       48.01218273001015
H           55.67704090429574       16.63340579233675       46.41647044732309
C           49.44508653490267       18.10136073822106       50.88999135653716
C           49.47204093356079       17.58815912342656       49.44401482066571
C           50.05888178002875       16.21576149147908       49.37840415092199
N           49.32123793296086       15.09194613737300       49.66398060570022
C           50.16189971377434       14.01940894632307       49.62596559414736
N           51.39058756941784       14.41204852842650       49.33769989991666
C           51.33322921739274       15.77591553593878       49.17697017680150
H           48.84860714422359       17.43603837959665       51.51536134063191
H           50.45720889093879       18.14657344401715       51.29672911683360
H           49.00773085969441       19.09842708056157       50.92763431730789
H           48.45171986982728       17.58215361210476       49.04897234047387
H           50.06730650307635       18.27106915573121       48.82986122871546
H           48.33684658237434       15.07686593541113       49.85133902745842
H           49.82605068253753       12.98908248968692       49.75286323305062
H           52.21275880409407       16.35162058647138       48.92637736384622
Fe          52.20819938770467       10.68595248463101       49.33373691950928
Fe          53.11107487977818       13.35604164390941       49.35428214221576
Fe          54.20837701166217        9.93346208772151       48.04861936321741
Fe          54.32231344287290       10.29681954830443       50.52888828856448
S           55.76121144111315       11.09706395432752       49.06846752212526
S           53.15991700783308        8.76108524599450       49.49437047121813
S           52.92264655199142       11.88737355998056       50.95855779898089
S           53.02953332879469       11.81691220897968       47.61965372682761
Ni          55.06944244586236       12.71281377441097       47.87724049247445

 Bond Distances (Angstroems)
 ---------------------------
C1-C2=1.5269         C1-H4=1.0955         C1-H5=1.0971         C1-H6=1.0938         C2-C1=1.5269         C2-S3=1.8255         
C2-H7=1.0995         C2-H8=1.0983         S3-C2=1.8255         S3-Fe57=2.2568       H4-C1=1.0955         H5-C1=1.0971         
H6-C1=1.0938         H7-C2=1.0995         H8-C2=1.0983         C9-C10=1.5272        C9-H12=1.0947        C9-H13=1.0921        
C9-H14=1.0923        C10-C9=1.5272        C10-S11=1.8241       C10-H15=1.0993       C10-H16=1.0987       S11-C10=1.8241       
S11-Fe56=2.3310      H12-C9=1.0947        H13-C9=1.0921        H14-C9=1.0923        H15-C10=1.0993       H16-C10=1.0987       
C17-C18=1.5284       C17-H20=1.0959       C17-H21=1.0930       C17-H22=1.0939       C18-C17=1.5284       C18-S19=1.8205       
C18-H23=1.0992       C18-H24=1.0995       S19-C18=1.8205       S19-Fe58=2.2788      H20-C17=1.0959       H21-C17=1.0930       
H22-C17=1.0939       H23-C18=1.0992       H24-C18=1.0995       C25-C26=1.5286       C25-H28=1.0938       C25-H29=1.0959       
C25-H30=1.0977       C26-C25=1.5286       C26-S27=1.8217       C26-H31=1.0998       C26-H32=1.0993       S27-C26=1.8217       
S27-Fe59=2.2971      H28-C25=1.0938       H29-C25=1.0959       H30-C25=1.0977       H31-C26=1.0998       H32-C26=1.0993       
C33-C34=1.5275       C33-H36=1.0928       C33-H37=1.0930       C33-H38=1.0950       C34-C33=1.5275       C34-S35=1.8235       
C34-H39=1.1010       C34-H40=1.0989       S35-C34=1.8235       S35-Ni64=2.2235      H36-C33=1.0928       H37-C33=1.0930       
H38-C33=1.0950       H39-C34=1.1010       H40-C34=1.0989       C41-C42=1.5346       C41-H48=1.0907       C41-H49=1.0917       
C41-H50=1.0894       C42-C41=1.5346       C42-C43=1.4940       C42-H51=1.0941       C42-H52=1.0945       C43-C42=1.4940       
C43-N44=1.3743       C43-C47=1.3631       N44-C43=1.3743       N44-C45=1.3633       N44-H53=1.0022       C45-N44=1.3633       
C45-N46=1.3217       C45-H54=1.0911       N46-C45=1.3217       N46-C47=1.3745       N46-Fe57=2.0188      C47-C43=1.3631       
C47-N46=1.3745       C47-H55=1.0807       H48-C41=1.0907       H49-C41=1.0917       H50-C41=1.0894       H51-C42=1.0941       
H52-C42=1.0945       H53-N44=1.0022       H54-C45=1.0911       H55-C47=1.0807       Fe56-S11=2.3310      Fe56-Fe57=2.8187     
Fe56-Fe58=2.4937     Fe56-Fe59=2.4595     Fe56-S61=2.1533      Fe56-S62=2.1433      Fe56-S63=2.2117      Fe57-S3=2.2568       
Fe57-N46=2.0188      Fe57-Fe56=2.8187     Fe57-S62=2.1832      Fe57-S63=2.3205      Fe57-Ni64=2.5359     Fe58-S19=2.2788      
Fe58-Fe56=2.4937     Fe58-Fe59=2.5093     Fe58-S60=2.1921      Fe58-S61=2.1363      Fe58-S63=2.2630      Fe58-Ni64=2.9147     
Fe59-S27=2.2971      Fe59-Fe56=2.4595     Fe59-Fe58=2.5093     Fe59-S60=2.2008      Fe59-S61=2.1863      Fe59-S62=2.1618      
S60-Fe58=2.1921      S60-Fe59=2.2008      S60-Ni64=2.1233      S61-Fe56=2.1533      S61-Fe58=2.1363      S61-Fe59=2.1863      
S62-Fe56=2.1433      S62-Fe57=2.1832      S62-Fe59=2.1618      S63-Fe56=2.2117      S63-Fe57=2.3205      S63-Fe58=2.2630      
S63-Ni64=2.2428      Ni64-S35=2.2235      Ni64-Fe57=2.5359     Ni64-Fe58=2.9147     Ni64-S60=2.1233      Ni64-S63=2.2428      
 C  H  Rav=1.0951 sigma=0.0040  Rmin=1.0807  Rmax=1.1010    32
 C  C  Rav=1.5038 sigma=0.0544  Rmin=1.3631  Rmax=1.5346     8
 N  H  Rav=1.0022 sigma=0.0000  Rmin=1.0022  Rmax=1.0022     1
 N  C  Rav=1.3584 sigma=0.0217  Rmin=1.3217  Rmax=1.3745     4
 S  C  Rav=1.8230 sigma=0.0018  Rmin=1.8205  Rmax=1.8255     5
 Fe N  Rav=2.0188 sigma=0.0000  Rmin=2.0188  Rmax=2.0188     1
 Fe S  Rav=2.2211 sigma=0.0629  Rmin=2.1363  Rmax=2.3310    15
 Fe Fe Rav=2.5703 sigma=0.1445  Rmin=2.4595  Rmax=2.8187     4
 Ni S  Rav=2.1965 sigma=0.0524  Rmin=2.1233  Rmax=2.2428     3
 Ni Fe Rav=2.7253 sigma=0.1894  Rmin=2.5359  Rmax=2.9147     2

 selected bond angles (degree)
 --------------------
H4-C1-C2=111.40                H5-C1-C2=110.15                H5-C1-H4=108.76                H6-C1-C2=109.83                
H6-C1-H4=108.58                H6-C1-H5=108.04                S3-C2-C1=111.36                H7-C2-C1=109.44                
H7-C2-S3=112.53                H8-C2-C1=109.11                H8-C2-S3=107.12                H8-C2-H7=107.13                
Fe57-S3-C2=110.49              H12-C9-C10=111.97              H13-C9-C10=109.65              H13-C9-H12=108.67              
H14-C9-C10=109.77              H14-C9-H12=108.83              H14-C9-H13=107.85              S11-C10-C9=107.69              
H15-C10-C9=108.93              H15-C10-S11=111.19             H16-C10-C9=109.08              H16-C10-S11=112.16             
H16-C10-H15=107.74             

 selected dihedral angles (degree)
 ---------------------------------
S3-C2-C1-H4=177.43            S3-C2-C1-H5=298.21            S3-C2-C1-H6= 57.08            H7-C2-C1-H4=302.47            
H7-C2-C1-H5= 63.25            H7-C2-C1-H6=182.13            H8-C2-C1-H4= 59.40            H8-C2-C1-H5=180.18            
H8-C2-C1-H6=299.05            Fe57-S3-C2-C1= 72.30          Fe57-S3-C2-H7=309.00          Fe57-S3-C2-H8=191.53          
S11-C10-C9-H12=179.68         S11-C10-C9-H13=300.39         S11-C10-C9-H14= 58.70         H15-C10-C9-H12=300.38         
H15-C10-C9-H13= 61.09         H15-C10-C9-H14=179.40         H16-C10-C9-H12= 57.73         H16-C10-C9-H13=178.44         
H16-C10-C9-H14=296.75         
           -------------------------------------------------
          |                Final Singlepoint                |
           -------------------------------------------------

          ...................................................
          :                      SETUP                      :
          :.................................................:
          :  # basis functions                 274          :
          :  # atomic orbitals                 260          :
          :  # shells                          142          :
          :  # electrons                       202          :
          :  # halogen bonds                     0          :
          :  max. iterations                   250          :
          :  Hamiltonian                  GFN1-xTB          :
          :  restarted?                      false          :
          :  GBSA solvation                   true          :
          :  PC potential                    false          :
          :  electronic temp.          300.0000000     K    :
          :  accuracy                    1.0000000          :
          :  -> integral cutoff          0.2500000E+02      :
          :  -> integral neglect         0.1000000E-07      :
          :  -> SCF convergence          0.1000000E-05 Eh   :
          :  -> wf. convergence          0.2000000E-04 e    :
          :  Broyden damping             0.4000000          :
          ...................................................

 iter      E             dE          RMSdq      gap      omega  full diag
   1   -107.2884691 -0.107288E+03  0.457E-05    0.27       0.0  T
   2   -107.2884684  0.655998E-06  0.155E-03    0.27       8.1  T
   3   -107.2884691 -0.656228E-06  0.394E-05    0.27     317.4  T
   4   -107.2884691  0.810545E-09  0.653E-05    0.27     191.4  T

   *** convergence criteria satisfied after 4 iterations ***

         #    Occupation            Energy/Eh            Energy/eV
      -------------------------------------------------------------
         1        2.0000           -0.7675725             -20.8867
       ...           ...                  ...                  ...
        95        2.0000           -0.2329127              -6.3379
        96        2.0000           -0.2311875              -6.2909
        97        2.0000           -0.2289003              -6.2287
        98        2.0000           -0.2282726              -6.2116
        99        1.9998           -0.2249763              -6.1219
       100        1.9988           -0.2232242              -6.0742
       101        1.9894           -0.2211557              -6.0180 (HOMO)
       102        0.0117           -0.2113010              -5.7498 (LUMO)
       103        0.0002           -0.2075637              -5.6481
       104        0.0000           -0.2046109              -5.5677
       105                         -0.2000413              -5.4434
       106                         -0.1939941              -5.2788
       ...                                ...                  ...
       260                         15.2084954             413.8442
      -------------------------------------------------------------
                  HL-Gap            0.0098548 Eh            0.2682 eV
             Fermi-level           -0.2161785 Eh           -5.8825 eV

 SCC (total)                   0 d,  0 h,  0 min,  0.610 sec
 SCC setup                      ...        0 min,  0.002 sec (  0.393%)
 Dispersion                     ...        0 min,  0.001 sec (  0.118%)
 classical contributions        ...        0 min,  0.000 sec (  0.027%)
 integral evaluation            ...        0 min,  0.032 sec (  5.321%)
 iterations                     ...        0 min,  0.444 sec ( 72.825%)
 molecular gradient             ...        0 min,  0.095 sec ( 15.573%)
 printout                       ...        0 min,  0.035 sec (  5.735%)

         :::::::::::::::::::::::::::::::::::::::::::::::::::::
         ::                     SUMMARY                     ::
         :::::::::::::::::::::::::::::::::::::::::::::::::::::
         :: total energy            -106.494211591418 Eh    ::
         :: total w/o Gsasa/hb      -106.490190300088 Eh    ::
         :: gradient norm              0.001647928705 Eh/a0 ::
         :: HOMO-LUMO gap              0.268161500675 eV    ::
         ::.................................................::
         :: SCC energy              -107.288469070562 Eh    ::
         :: -> electrostatic           0.589646670690 Eh    ::
         :: -> Gsolv                  -0.357093542444 Eh    ::
         ::    -> Gelec               -0.353072251114 Eh    ::
         ::    -> Gsasa               -0.006639078240 Eh    ::
         ::    -> Ghb                 -0.001627819760 Eh    ::
         ::    -> Gshift               0.004245606671 Eh    ::
         :: repulsion energy           0.855528917293 Eh    ::
         :: dispersion energy         -0.061271438149 Eh    ::
         :: halogen bond corr.         0.000000000000 Eh    ::
         :: add. restraining           0.000000000000 Eh    ::
         :: total charge              -3.000000000000 e     ::
         :::::::::::::::::::::::::::::::::::::::::::::::::::::

           -------------------------------------------------
          |                Property Printout                |
           -------------------------------------------------

    * Orbital Energies and Occupations

         #    Occupation            Energy/Eh            Energy/eV
      -------------------------------------------------------------
         1        2.0000           -0.7675725             -20.8867
       ...           ...                  ...                  ...
        89        2.0000           -0.2425674              -6.6006
        90        2.0000           -0.2416991              -6.5770
        91        2.0000           -0.2400490              -6.5321
        92        2.0000           -0.2371176              -6.4523
        93        2.0000           -0.2343483              -6.3769
        94        2.0000           -0.2336418              -6.3577
        95        2.0000           -0.2329127              -6.3379
        96        2.0000           -0.2311875              -6.2909
        97        2.0000           -0.2289003              -6.2287
        98        2.0000           -0.2282726              -6.2116
        99        1.9998           -0.2249763              -6.1219
       100        1.9988           -0.2232242              -6.0742
       101        1.9894           -0.2211557              -6.0180 (HOMO)
       102        0.0117           -0.2113010              -5.7498 (LUMO)
       103        0.0002           -0.2075637              -5.6481
       104        0.0000           -0.2046109              -5.5677
       105                         -0.2000413              -5.4434
       106                         -0.1939941              -5.2788
       107                         -0.1916514              -5.2151
       108                         -0.1905987              -5.1865
       109                         -0.1772908              -4.8243
       110                         -0.1766390              -4.8066
       111                         -0.1732470              -4.7143
       112                         -0.1614864              -4.3943
       ...                                ...                  ...
       260                         15.2084954             413.8442
      -------------------------------------------------------------
                  HL-Gap            0.0098548 Eh            0.2682 eV
             Fermi-level           -0.2161785 Eh           -5.8825 eV

  Mulliken/CM5 charges         n(s)   n(p)   n(d)
     1C    -0.05651 -0.20401   1.002  3.055  0.000
     2C     0.01563 -0.07833   1.026  2.958  0.000
     3S    -0.27666 -0.36770   1.900  4.385 -0.009
     4H    -0.01868  0.03190   1.019  0.000  0.000
     5H    -0.00203  0.05274   1.002  0.000  0.000
     6H    -0.00966  0.04249   1.010  0.000  0.000
     7H    -0.02888  0.02868   1.029  0.000  0.000
     8H    -0.03861  0.01660   1.039  0.000  0.000
     9C    -0.07002 -0.21803   1.005  3.065  0.000
    10C     0.02085 -0.07309   1.024  2.955  0.000
    11S    -0.34940 -0.42928   1.904  4.456 -0.011
    12H    -0.00900  0.04158   1.009  0.000  0.000
    13H    -0.00812  0.04431   1.008  0.000  0.000
    14H    -0.00679  0.04562   1.007  0.000  0.000
    15H    -0.03128  0.02319   1.031  0.000  0.000
    16H    -0.02037  0.03429   1.020  0.000  0.000
    17C    -0.05950 -0.20770   1.003  3.057  0.000
    18C     0.02339 -0.07061   1.023  2.954  0.000
    19S    -0.35785 -0.43887   1.900  4.469 -0.011
    20H    -0.01584  0.03462   1.016  0.000  0.000
    21H    -0.01292  0.03925   1.013  0.000  0.000
    22H     0.00928  0.06153   0.991  0.000  0.000
    23H    -0.04413  0.01092   1.044  0.000  0.000
    24H    -0.02524  0.02946   1.025  0.000  0.000
    25C    -0.05915 -0.20664   1.002  3.057  0.000
    26C     0.02442 -0.06927   1.022  2.953  0.000
    27S    -0.36728 -0.44535   1.899  4.479 -0.011
    28H    -0.01627  0.03580   1.016  0.000  0.000
    29H    -0.02029  0.03022   1.020  0.000  0.000
    30H    -0.00404  0.05097   1.004  0.000  0.000
    31H    -0.02773  0.02666   1.028  0.000  0.000
    32H    -0.04603  0.00908   1.046  0.000  0.000
    33C    -0.06006 -0.20807   1.002  3.058  0.000
    34C     0.02421 -0.06919   1.025  2.951  0.000
    35S    -0.34090 -0.41974   1.872  4.480 -0.012
    36H    -0.00142  0.05074   1.001  0.000  0.000
    37H    -0.01647  0.03581   1.016  0.000  0.000
    38H    -0.01334  0.03729   1.013  0.000  0.000
    39H    -0.01983  0.03767   1.020  0.000  0.000
    40H    -0.04598  0.00907   1.046  0.000  0.000
    41C    -0.07441 -0.22395   1.006  3.069  0.000
    42C    -0.04155 -0.14281   1.022  3.019  0.000
    43C     0.05297  0.11331   1.046  2.902  0.000
    44N    -0.29224 -0.64990   1.429  3.863  0.000
    45C     0.19717  0.29088   0.994  2.809  0.000
    46N    -0.26044 -0.53638   1.536  3.725  0.000
    47C     0.05790  0.08103   1.021  2.921  0.000
    48H     0.02282  0.07601   0.977  0.000  0.000
    49H     0.02499  0.07723   0.975  0.000  0.000
    50H     0.02605  0.07745   0.974  0.000  0.000
    51H     0.02275  0.08006   0.977  0.000  0.000
    52H     0.02525  0.08087   0.975  0.000  0.000
    53H     0.23203  0.42874   0.768  0.000  0.000
    54H     0.00815  0.08384   0.992  0.000  0.000
    55H     0.00117  0.06793   0.999  0.000  0.000
    56Fe   -0.03153  0.24715   0.154  0.968  6.909
    57Fe   -0.02527  0.26147   0.158  0.899  6.968
    58Fe   -0.02859  0.24210   0.153  0.943  6.933
    59Fe   -0.03099  0.24374   0.169  0.960  6.902
    60S    -0.07474 -0.29337   1.849  4.241 -0.016
    61S    -0.16295 -0.39348   1.865  4.317 -0.019
    62S    -0.09001 -0.32232   1.861  4.244 -0.015
    63S    -0.01733 -0.24849   1.860  4.173 -0.016
    64Ni   -0.17874  0.00425   0.599  0.697  8.883

Wiberg/Mayer (AO) data.
largest (>0.10) Wiberg bond orders for each atom

 ---------------------------------------------------------------------------
     #   Z sym  total        # sym  WBO       # sym  WBO       # sym  WBO
 ---------------------------------------------------------------------------
     1   6 C    3.989 --     2 C    1.018     6 H    0.988     4 H    0.985
                             5 H    0.974
     2   6 C    3.975 --     1 C    1.018     8 H    0.986     7 H    0.982
                             3 S    0.944
     3  16 S    2.049 --     2 C    0.944    57 Fe   0.772
     4   1 H    1.010 --     1 C    0.985
     5   1 H    1.055 --     1 C    0.974
     6   1 H    1.028 --     1 C    0.988
     7   1 H    1.025 --     2 C    0.982
     8   1 H    1.032 --     2 C    0.986
     9   6 C    3.991 --    10 C    1.018    13 H    0.988    14 H    0.988
                            12 H    0.985
    10   6 C    3.987 --     9 C    1.018    15 H    0.988    16 H    0.985
                            11 S    0.965
    11  16 S    1.941 --    10 C    0.965    56 Fe   0.604    54 H    0.104
    12   1 H    1.009 --     9 C    0.985
    13   1 H    1.030 --     9 C    0.988
    14   1 H    1.033 --     9 C    0.988
    15   1 H    1.027 --    10 C    0.988
    16   1 H    1.024 --    10 C    0.985
    17   6 C    3.993 --    18 C    1.016    21 H    0.988    20 H    0.986
                            22 H    0.982
    18   6 C    3.985 --    17 C    1.016    23 H    0.987    24 H    0.985
                            19 S    0.971
    19  16 S    1.923 --    18 C    0.971    58 Fe   0.698
    20   1 H    1.010 --    17 C    0.986
    21   1 H    1.032 --    17 C    0.988
    22   1 H    1.026 --    17 C    0.982
    23   1 H    1.034 --    18 C    0.987
    24   1 H    1.027 --    18 C    0.985
    25   6 C    3.988 --    26 C    1.016    28 H    0.988    29 H    0.985
                            30 H    0.971
    26   6 C    3.986 --    25 C    1.016    32 H    0.986    31 H    0.985
                            27 S    0.969
    27  16 S    1.901 --    26 C    0.969    59 Fe   0.683
    28   1 H    1.031 --    25 C    0.988
    29   1 H    1.010 --    25 C    0.985
    30   1 H    1.058 --    25 C    0.971
    31   1 H    1.022 --    26 C    0.985
    32   1 H    1.033 --    26 C    0.986
    33   6 C    3.992 --    34 C    1.016    37 H    0.988    36 H    0.987
                            38 H    0.986
    34   6 C    3.988 --    33 C    1.016    40 H    0.989    39 H    0.973
                            35 S    0.967
    35  16 S    1.916 --    34 C    0.967    64 Ni   0.737
    36   1 H    1.028 --    33 C    0.987
    37   1 H    1.033 --    33 C    0.988
    38   1 H    1.011 --    33 C    0.986
    39   1 H    1.055 --    34 C    0.973
    40   1 H    1.035 --    34 C    0.989
    41   6 C    3.997 --    42 C    1.000    48 H    0.989    49 H    0.988
                            50 H    0.988
    42   6 C    3.998 --    43 C    1.014    41 C    1.000    52 H    0.978
                            51 H    0.977
    43   6 C    3.916 --    47 C    1.578    44 N    1.144    42 C    1.014
                            45 C    0.102
    44   7 N    3.438 --    45 C    1.191    43 C    1.144    53 H    0.913
    45   6 C    3.894 --    46 N    1.472    44 N    1.191    54 H    0.937
                            43 C    0.102
    46   7 N    3.280 --    45 C    1.472    47 C    1.229    57 Fe   0.429
    47   6 C    3.963 --    43 C    1.578    46 N    1.229    55 H    0.973
    48   1 H    1.008 --    41 C    0.989
    49   1 H    1.010 --    41 C    0.988
    50   1 H    1.005 --    41 C    0.988
    51   1 H    1.007 --    42 C    0.977
    52   1 H    1.008 --    42 C    0.978
    53   1 H    0.950 --    44 N    0.913
    54   1 H    1.076 --    45 C    0.937    11 S    0.104
    55   1 H    1.044 --    47 C    0.973
    56  26 Fe   5.735 --    58 Fe   0.893    62 S    0.865    59 Fe   0.835
                            61 S    0.815    63 S    0.740    11 S    0.604
                            57 Fe   0.492    64 Ni   0.243
    57  26 Fe   4.557 --    62 S    0.818     3 S    0.772    63 S    0.516
                            56 Fe   0.492    64 Ni   0.435    46 N    0.429
                            59 Fe   0.400    58 Fe   0.288
    58  26 Fe   5.486 --    56 Fe   0.893    61 S    0.866    59 Fe   0.803
                            60 S    0.786    19 S    0.698    63 S    0.677
                            57 Fe   0.288    64 Ni   0.282
    59  26 Fe   5.622 --    62 S    0.844    56 Fe   0.835    58 Fe   0.803
                            60 S    0.782    61 S    0.766    27 S    0.683
                            57 Fe   0.400    64 Ni   0.262
    60  16 S    2.720 --    64 Ni   0.828    58 Fe   0.786    59 Fe   0.782
    61  16 S    2.633 --    58 Fe   0.866    56 Fe   0.815    59 Fe   0.766
    62  16 S    2.717 --    56 Fe   0.865    59 Fe   0.844    57 Fe   0.818
    63  16 S    2.752 --    56 Fe   0.740    58 Fe   0.677    64 Ni   0.651
                            57 Fe   0.516
    64  28 Ni   3.611 --    60 S    0.828    35 S    0.737    63 S    0.651
                            57 Fe   0.435    58 Fe   0.282    59 Fe   0.262
                            56 Fe   0.243
 ---------------------------------------------------------------------------

Topologies differ in total number of bonds
Writing topology from bond orders to xtbtopo.mol

 dipole moment from electron density (au)
     X       Y       Z   
-308.5745 -64.6526-277.9572  total (Debye): 1068.315

           -------------------------------------------------
          |                Geometry Summary                 |
           -------------------------------------------------

      molecular mass/u    :      812.0935012
   center of mass at/Å    :       53.5250350      11.9451389      49.2382548
  moments of inertia/u·Å² :        0.5729706E+04   0.8310746E+04   0.9924435E+04
rotational constants/cm⁻¹ :        0.2942146E-02   0.2028414E-02   0.1698599E-02

 * 60 selected distances

     #   Z          #   Z                                           value/Å
     1   6 C        2   6 C                                       1.5268965
     1   6 C        4   1 H                                       1.0955108
     1   6 C        5   1 H                                       1.0970523
     1   6 C        6   1 H                                       1.0938418
     2   6 C        7   1 H                                       1.0994876
     2   6 C        8   1 H                                       1.0983169
     9   6 C       10   6 C                                       1.5272097
     9   6 C       12   1 H                                       1.0947122
     9   6 C       13   1 H                                       1.0920719
     9   6 C       14   1 H                                       1.0922834
    10   6 C       15   1 H                                       1.0992548
    10   6 C       16   1 H                                       1.0987242
    17   6 C       18   6 C                                       1.5283991
    17   6 C       20   1 H                                       1.0958672
    17   6 C       21   1 H                                       1.0930422
    17   6 C       22   1 H                                       1.0938651
    18   6 C       23   1 H                                       1.0992429
    18   6 C       24   1 H                                       1.0995379
    25   6 C       26   6 C                                       1.5286039
    25   6 C       28   1 H                                       1.0938203
    25   6 C       29   1 H                                       1.0959047
    25   6 C       30   1 H                                       1.0977484
    26   6 C       31   1 H                                       1.0998144
    26   6 C       32   1 H                                       1.0993298
    33   6 C       34   6 C                                       1.5274581
    33   6 C       36   1 H                                       1.0928495
    33   6 C       37   1 H                                       1.0929984
    33   6 C       38   1 H                                       1.0950360
    34   6 C       39   1 H                                       1.1010390
    34   6 C       40   1 H                                       1.0988720
    41   6 C       42   6 C                                       1.5345850
Note: The following floating-point exceptions are signalling: IEEE_UNDERFLOW_FLAG IEEE_DENORMAL
normal termination of xtb
    42   6 C       43   6 C                                       1.4940424
    43   6 C       44   7 N                                       1.3742757
    44   7 N       45   6 C                                       1.3632658
    45   6 C       46   7 N                                       1.3217175
    43   6 C       47   6 C                                       1.3630854
    46   7 N       47   6 C                                       1.3745027
    41   6 C       48   1 H                                       1.0906555
    41   6 C       49   1 H                                       1.0917288
    41   6 C       50   1 H                                       1.0894212
    42   6 C       51   1 H                                       1.0941435
    42   6 C       52   1 H                                       1.0944826
    44   7 N       53   1 H                                       1.0021762 (min)
    45   6 C       54   1 H                                       1.0910868
    47   6 C       55   1 H                                       1.0806505
    56  26 Fe      58  26 Fe                                      2.4936882
    56  26 Fe      59  26 Fe                                      2.4595306
    58  26 Fe      59  26 Fe                                      2.5093316 (max)
    58  26 Fe      60  16 S                                       2.1921120
    59  26 Fe      60  16 S                                       2.2008290
    56  26 Fe      61  16 S                                       2.1532962
    58  26 Fe      61  16 S                                       2.1363363
    59  26 Fe      61  16 S                                       2.1862921
    56  26 Fe      62  16 S                                       2.1433364
    57  26 Fe      62  16 S                                       2.1831611
    59  26 Fe      62  16 S                                       2.1618386
    56  26 Fe      63  16 S                                       2.2117282
    57  26 Fe      63  16 S                                       2.3204537
    58  26 Fe      63  16 S                                       2.2629780
    60  16 S       64  28 Ni                                      2.1232556

 * 7 distinct bonds (by element types)

   Z      Z             #   av. dist./Å        max./Å        min./Å
   1 H    6 C          32     1.0950748     1.1010390     1.0806505
   6 C    6 C           8     1.5037850     1.5345850     1.3630854
   1 H    7 N           1     1.0021762     1.0021762     1.0021762
   6 C    7 N           4     1.3584404     1.3745027     1.3217175
  16 S   26 Fe         11     2.1956692     2.3204537     2.1363363
  26 Fe  26 Fe          3     2.4875168     2.5093316     2.4595306
  16 S   28 Ni          1     2.1232556     2.1232556     2.1232556


optimized geometry written to: xtbopt.xyz


           -------------------------------------------------
          | TOTAL ENERGY             -106.494211591418 Eh   |
          | GRADIENT NORM               0.001647928705 Eh/α |
          | HOMO-LUMO GAP               0.268161500675 eV   |
           -------------------------------------------------

------------------------------------------------------------------------
 * finished run on 2026/09/12 at 19:22:56.553     
------------------------------------------------------------------------
 total:
 * wall-time:     0 d,  0 h,  1 min, 48.462 sec
 *  cpu-time:     0 d,  0 h,  2 min, 39.457 sec
 * ratio c/w:     1.470 speedup
 SCF:
 * wall-time:     0 d,  0 h,  0 min,  5.426 sec
 *  cpu-time:     0 d,  0 h,  0 min,  6.603 sec
 * ratio c/w:     1.217 speedup
 ANC optimizer:
 * wall-time:     0 d,  0 h,  1 min, 42.971 sec
 *  cpu-time:     0 d,  0 h,  2 min, 32.428 sec
 * ratio c/w:     1.480 speedup

