64
3B52 CODH C-cluster first-shell model; major-occupancy coordinate selection; no optimization
C     53.65400000    15.46600000    52.98900000
C     53.30600000    15.90700000    51.57600000
S     54.40800000    15.20800000    50.34600000
H     53.14091800    16.11619875    53.71287046
H     53.33135298    14.42501389    53.13815370
H     54.74147558    15.53776370    53.13815370
H     52.27782448    15.58781922    51.35021530
H     53.40904170    17.00131908    51.53300970
C     47.99200000     9.74300000    49.34300000
C     49.41500000    10.23700000    49.55700000
S     50.13500000    10.74300000    48.00500000
H     47.51125352     9.57610698    50.31820743
H     47.42340686    10.49633687    48.77803505
H     48.01250752     8.79939307    48.77803505
H     49.40183620    11.09340287    50.24721797
H     50.01724608     9.42014245    49.98131520
C     56.66600000     7.22600000    47.92700000
C     55.37700000     6.78300000    47.18700000
S     54.79300000     7.98600000    45.93000000
H     56.50277298     7.16990258    49.01337471
H     57.49664118     6.56176575    47.64623659
H     56.91281413     8.26053115    47.64623659
H     55.57779309     5.82571321    46.68372658
H     54.58428252     6.70223514    47.94533768
C     58.20800000     9.85100000    51.88000000
C     56.99500000     8.95700000    51.56400000
S     55.46800000     9.78700000    52.09100000
H     58.32552829     9.93762019    52.97026788
H     59.11541429     9.40405536    51.44775031
H     58.04969413    10.85004928    51.44775031
H     56.95294280     8.76726867    50.48130281
H     57.09550428     8.00330598    52.10285676
C     57.05000000    16.49800000    47.53900000
C     55.96300000    15.53400000    47.12600000
S     56.24200000    13.87700000    47.83100000
H     57.10171191    16.54386042    48.63682635
H     58.01588271    16.15412930    47.14047330
H     56.82402815    17.49805659    47.14047330
H     54.99345122    15.91485811    47.47944343
H     55.97265509    15.45005683    46.02925011
C     49.43900000    17.61400000    51.59800000
C     49.32900000    17.40500000    50.09100000
C     49.92700000    16.11500000    49.69800000
N     49.31800000    14.92300000    50.02300000
C     50.11900000    13.92800000    49.70700000
N     51.23900000    14.43200000    49.22500000
C     51.15600000    15.79800000    49.23800000
H     48.98824420    16.75756398    52.12081598
H     50.49882465    17.69926770    51.87995945
H     48.90925487    18.53588338    51.87995945
H     48.26773115    17.41395602    49.80181455
H     49.87055497    18.21551028    49.58130274
H     48.38397117    14.82593407    50.44616468
H     49.89319584    12.85787833    49.82469493
H     51.94193334    16.50400505    48.93162496
Fe    52.30300000    10.70700000    48.60400000
Fe    53.13800000    13.74500000    49.03900000
Fe    54.30500000     9.66500000    47.56600000
Fe    54.35700000    10.29400000    50.10200000
S     55.82800000    10.84600000    48.58000000
S     53.13800000     8.66500000    49.20900000
S     52.88100000    11.98400000    50.31200000
S     53.23400000    11.24500000    46.62800000
Ni    54.83100000    12.39800000    47.33100000
