      -----------------------------------------------------------      
     |                   =====================                   |     
     |                           x T B                           |     
     |                   =====================                   |     
     |                         S. Grimme                         |     
     |          Mulliken Center for Theoretical Chemistry        |     
     |                    University of Bonn                     |     
      -----------------------------------------------------------      

   * xtb version 6.6.1 (unknown) compiled by 'builduser@buildhost' on 2023-08-07

   xtb is free software: you can redistribute it and/or modify it under
   the terms of the GNU Lesser General Public License as published by
   the Free Software Foundation, either version 3 of the License, or
   (at your option) any later version.
   
   xtb is distributed in the hope that it will be useful,
   but WITHOUT ANY WARRANTY; without even the implied warranty of
   MERCHANTABILITY or FITNESS FOR A PARTICULAR PURPOSE.  See the
   GNU Lesser General Public License for more details.
   
   Cite this work as:
   * C. Bannwarth, E. Caldeweyher, S. Ehlert, A. Hansen, P. Pracht,
     J. Seibert, S. Spicher, S. Grimme, WIREs Comput. Mol. Sci., 2020, 11,
     e01493. DOI: 10.1002/wcms.1493
   
   for GFN2-xTB:
   * C. Bannwarth, S. Ehlert and S. Grimme., J. Chem. Theory Comput., 2019,
     15, 1652-1671. DOI: 10.1021/acs.jctc.8b01176
   for GFN1-xTB:
   * S. Grimme, C. Bannwarth, P. Shushkov, J. Chem. Theory Comput., 2017,
     13, 1989-2009. DOI: 10.1021/acs.jctc.7b00118
   for GFN0-xTB:
   * P. Pracht, E. Caldeweyher, S. Ehlert, S. Grimme, ChemRxiv, 2019, preprint.
     DOI: 10.26434/chemrxiv.8326202.v1
   for GFN-FF:
   * S. Spicher and S. Grimme, Angew. Chem. Int. Ed., 2020, 59, 15665-15673.
     DOI: 10.1002/anie.202004239
   
   for ALPB and GBSA implicit solvation:
   * S. Ehlert, M. Stahn, S. Spicher, S. Grimme, J. Chem. Theory Comput.,
     2021, 17, 4250-4261. DOI: 10.1021/acs.jctc.1c00471
   
   for DFT-D4:
   * E. Caldeweyher, C. Bannwarth and S. Grimme, J. Chem. Phys., 2017,
     147, 034112. DOI: 10.1063/1.4993215
   * E. Caldeweyher, S. Ehlert, A. Hansen, H. Neugebauer, S. Spicher,
     C. Bannwarth and S. Grimme, J. Chem. Phys., 2019, 150, 154122.
     DOI: 10.1063/1.5090222
   * E. Caldeweyher, J.-M. Mewes, S. Ehlert and S. Grimme, Phys. Chem. Chem. Phys.
     2020, 22, 8499-8512. DOI: 10.1039/D0CP00502A
   
   for sTDA-xTB:
   * S. Grimme and C. Bannwarth, J. Chem. Phys., 2016, 145, 054103.
     DOI: 10.1063/1.4959605
   
   in the mass-spec context:
   * V. Asgeirsson, C. Bauer and S. Grimme, Chem. Sci., 2017, 8, 4879.
     DOI: 10.1039/c7sc00601b
   * J. Koopman and S. Grimme, ACS Omega 2019, 4, 12, 15120-15133.
     DOI: 10.1021/acsomega.9b02011
   
   for metadynamics refer to:
   * S. Grimme, J. Chem. Theory Comput., 2019, 155, 2847-2862
     DOI: 10.1021/acs.jctc.9b00143
   
   for SPH calculations refer to:
   * S. Spicher and S. Grimme, J. Chem. Theory Comput., 2021, 17, 1701-1714
     DOI: 10.1021/acs.jctc.0c01306
   
   with help from (in alphabetical order)
   P. Atkinson, C. Bannwarth, F. Bohle, G. Brandenburg, E. Caldeweyher
   M. Checinski, S. Dohm, S. Ehlert, S. Ehrlich, I. Gerasimov, C. Hölzer
   A. Katbashev, J. Koopman, C. Lavigne, S. Lehtola, F. März, M. Müller,
   F. Musil, H. Neugebauer, J. Pisarek, C. Plett, P. Pracht, F. Pultar,
   J. Seibert, P. Shushkov, S. Spicher, M. Stahn, M. Steiner, T. Strunk,
   J. Stückrath, T. Rose, and J. Unsleber
   
 * started run on 2026/09/13 at 13:39:17.143     

           -------------------------------------------------
          |                Calculation Setup                |
           -------------------------------------------------

          program call               : xtb structure.xyz --gfn 1 --chrg -3 --uhf 1 --alpb water
          coordinate file            : structure.xyz
          omp threads                :                     8

   ID    Z sym.   atoms
    1    6 C      1, 2, 9, 10, 17, 18, 25, 26, 33, 34, 41-43, 45, 47, 65
    2   16 S      3, 11, 19, 27, 35, 60-63
    3    1 H      4-8, 12-16, 20-24, 28-32, 36-40, 48-55, 68
    4    7 N      44, 46
    5   26 Fe     56-59
    6   28 Ni     64
    7    8 O      66, 67

molecular fragmentation (1/2 indicates fragments):
11111111111111111111111111111111111111112222222222222221111111212222
# atoms in fragment 1/2:    48    20
 fragment masses (1/2) :      683.90      173.21
CMA distance (Bohr)    :   8.064
constraining FC (au)   :  0.0500

           -------------------------------------------------
          |                 G F N 1 - x T B                 |
           -------------------------------------------------

        Reference                      10.1021/acs.jctc.7b00118
      * Hamiltonian:
        H0-scaling (s, p, d)           1.850000    2.250000    2.000000
        zeta-weighting                 0.000000
      * Dispersion:
        s8                             2.400000
        a1                             0.630000
        a2                             5.000000
        s9                             0.000000
      * Repulsion:
        kExp                           1.500000
        rExp                           1.000000
      * Coulomb:
        alpha                          2.000000
        third order                    atomic
        anisotropic                    false
      * Halogen bond correction:
        rad-scale                      1.300000
        damping                        0.440000

      * Solvation model:               ALPB
        Solvent                        water
        Parameter file                 internal GFN1-xTB/ALPB
        Dielectric constant                8.0200E+01
        Reference state                gsolv [1 M gas/solution]
        Free energy shift                  4.2456E-03 Eh       2.6642E+00 kcal/mol
        Temperature                        2.9815E+02 K
        Density                            1.0000E+00 kg/L
        Solvent mass                       1.8000E+01 g/mol
        Interaction kernel             P16
        Born radius scaling (c1)           1.9452E+00
        Born radii integrator          GBOBC
        Born offset                        0.0000E+00 a0       0.0000E+00 AA
        H-bond correction              true
        Ion screening                  false
        Surface tension                    1.0000E-05 Eh       1.5569E+01 dyn/cm
        Grid points                               230 per atom

          ...................................................
          :                      SETUP                      :
          :.................................................:
          :  # basis functions                 288          :
          :  # atomic orbitals                 274          :
          :  # shells                          150          :
          :  # electrons                       219          :
          :  # halogen bonds                     0          :
          :  max. iterations                   250          :
          :  Hamiltonian                  GFN1-xTB          :
          :  restarted?                      false          :
          :  GBSA solvation                   true          :
          :  PC potential                    false          :
          :  electronic temp.          300.0000000     K    :
          :  accuracy                    1.0000000          :
          :  -> integral cutoff          0.2500000E+02      :
          :  -> integral neglect         0.1000000E-07      :
          :  -> SCF convergence          0.1000000E-05 Eh   :
          :  -> wf. convergence          0.2000000E-04 e    :
          :  Broyden damping             0.4000000          :
          ...................................................

 iter      E             dE          RMSdq      gap      omega  full diag
   1    -93.2269980 -0.932270E+02  0.146E+01    0.15       0.0  T
   2     17.5758557  0.110803E+03  0.256E+01    0.02       1.0  T
   3    -80.8072174 -0.983831E+02  0.122E+01    0.13       1.0  T
   4    -53.4642332  0.273430E+02  0.138E+01    0.07       1.0  T
   5    -98.4117996 -0.449476E+02  0.101E+01    0.07       1.0  T
   6   -104.0896569 -0.567786E+01  0.858E+00    0.32       1.0  T
   7    -56.8185042  0.472712E+02  0.132E+01    0.19       1.0  T
   8    -95.8058758 -0.389874E+02  0.880E+00    0.04       1.0  T
   9    -69.9624003  0.258435E+02  0.117E+01    0.08       1.0  T
  10    -93.5661257 -0.236037E+02  0.921E+00    0.18       1.0  T
  11   -103.5922117 -0.100261E+02  0.751E+00    0.22       1.0  T
  12    -99.5927613  0.399945E+01  0.808E+00    0.07       1.0  T
  13    -99.3506530  0.242108E+00  0.798E+00    0.04       1.0  T
  14    -93.6209998  0.572965E+01  0.908E+00    0.27       1.0  T
  15   -103.3930615 -0.977206E+01  0.724E+00    0.24       1.0  T
  16   -112.2495938 -0.885653E+01  0.517E+00    0.14       1.0  T
  17   -110.8713836  0.137821E+01  0.556E+00    0.11       1.0  T
  18   -105.2088912  0.566249E+01  0.688E+00    0.10       1.0  T
  19   -105.9355332 -0.726642E+00  0.672E+00    0.07       1.0  T
  20   -113.0605928 -0.712506E+01  0.482E+00    0.09       1.0  T
  21   -113.9029391 -0.842346E+00  0.453E+00    0.08       1.0  T
  22   -117.4029489 -0.350001E+01  0.282E+00    0.06       1.0  T
  23   -117.4277748 -0.248259E-01  0.277E+00    0.06       1.0  T
  24   -118.3936756 -0.965901E+00  0.199E+00    0.10       1.0  T
  25   -116.2488752  0.214480E+01  0.339E+00    0.19       1.0  T
  26   -118.3720121 -0.212314E+01  0.201E+00    0.20       1.0  T
  27   -118.0996504  0.272362E+00  0.268E+00    0.10       1.0  T
  28   -118.1214266 -0.217761E-01  0.267E+00    0.09       1.0  T
  29   -118.6418143 -0.520388E+00  0.172E+00    0.10       1.0  T
  30   -119.0430009 -0.401187E+00  0.124E+00    0.10       1.0  T
  31   -119.2396444 -0.196643E+00  0.862E-01    0.12       1.0  T
  32   -119.3208905 -0.812461E-01  0.560E-01    0.19       1.0  T
  33   -119.3760455 -0.551549E-01  0.286E-01    0.17       1.0  T
  34   -119.3932860 -0.172405E-01  0.147E-01    0.18       1.0  T
  35   -119.3949717 -0.168575E-02  0.113E-01    0.17       1.0  T
  36   -119.3949635  0.824549E-05  0.995E-02    0.18       1.0  T
  37   -119.3967648 -0.180137E-02  0.453E-02    0.18       1.0  T
  38   -119.3969504 -0.185570E-03  0.160E-02    0.18       1.0  T
  39   -119.3969787 -0.282784E-04  0.151E-02    0.18       1.0  T
  40   -119.3970070 -0.282914E-04  0.342E-03    0.18       3.5  T
  41   -119.3970040  0.294521E-05  0.479E-03    0.18       2.5  T
  42   -119.3970090 -0.494756E-05  0.177E-03    0.18       6.8  T
  43   -119.3970098 -0.782897E-06  0.390E-04    0.18      31.1  T
  44   -119.3970098 -0.335542E-07  0.150E-04    0.18      80.6  T
  45   -119.3970098 -0.416911E-08  0.678E-05    0.18     178.7  T

   *** convergence criteria satisfied after 45 iterations ***

         #    Occupation            Energy/Eh            Energy/eV
      -------------------------------------------------------------
         1        2.0000           -0.8324212             -22.6513
       ...           ...                  ...                  ...
       104        1.9999           -0.2906194              -7.9082
       105        1.9998           -0.2898372              -7.8869
       106        1.9975           -0.2872263              -7.8158
       107        1.9953           -0.2866382              -7.7998
       108        1.9262           -0.2839475              -7.7266
       109        1.5531           -0.2817857              -7.6678
       110        1.4888           -0.2815560              -7.6615 (HOMO)
       111        0.0393           -0.2748218              -7.4783 (LUMO)
       112        0.0000           -0.2679878              -7.2923
       113        0.0000           -0.2663269              -7.2471
       114                         -0.2573589              -7.0031
       115                         -0.2557435              -6.9591
       ...                                ...                  ...
       274                         13.9320917             379.1115
      -------------------------------------------------------------
                  HL-Gap            0.0067342 Eh            0.1832 eV
             Fermi-level           -0.2797009 Eh           -7.6110 eV

 SCC (total)                   0 d,  0 h,  0 min,  5.363 sec
 SCC setup                      ...        0 min,  0.003 sec (  0.062%)
 Dispersion                     ...        0 min,  0.001 sec (  0.016%)
 classical contributions        ...        0 min,  0.000 sec (  0.002%)
 integral evaluation            ...        0 min,  0.026 sec (  0.493%)
 iterations                     ...        0 min,  5.153 sec ( 96.076%)
 molecular gradient             ...        0 min,  0.070 sec (  1.299%)
 printout                       ...        0 min,  0.110 sec (  2.051%)

         :::::::::::::::::::::::::::::::::::::::::::::::::::::
         ::                     SUMMARY                     ::
         :::::::::::::::::::::::::::::::::::::::::::::::::::::
         :: total energy            -118.540853750838 Eh    ::
         :: total w/o Gsasa/hb      -118.531623798470 Eh    ::
         :: gradient norm              0.072126031009 Eh/a0 ::
         :: HOMO-LUMO gap              0.183248201756 eV    ::
         ::.................................................::
         :: SCC energy              -119.397009793039 Eh    ::
         :: -> electrostatic           0.747563172838 Eh    ::
         :: -> Gsolv                  -0.447578397009 Eh    ::
         ::    -> Gelec               -0.438348444641 Eh    ::
         ::    -> Gsasa               -0.005725455975 Eh    ::
         ::    -> Ghb                 -0.007750103064 Eh    ::
         ::    -> Gshift               0.004245606671 Eh    ::
         :: repulsion energy           0.921446499794 Eh    ::
         :: dispersion energy         -0.065290457594 Eh    ::
         :: halogen bond corr.         0.000000000000 Eh    ::
         :: add. restraining           0.000000000000 Eh    ::
         :: total charge              -3.000000000000 e     ::
         :::::::::::::::::::::::::::::::::::::::::::::::::::::

           -------------------------------------------------
          |                Property Printout                |
           -------------------------------------------------

    * Orbital Energies and Occupations

         #    Occupation            Energy/Eh            Energy/eV
      -------------------------------------------------------------
         1        2.0000           -0.8324212             -22.6513
       ...           ...                  ...                  ...
        98        2.0000           -0.2972427              -8.0884
        99        2.0000           -0.2965913              -8.0707
       100        2.0000           -0.2958884              -8.0515
       101        2.0000           -0.2945924              -8.0163
       102        2.0000           -0.2926720              -7.9640
       103        2.0000           -0.2924412              -7.9577
       104        1.9999           -0.2906194              -7.9082
       105        1.9998           -0.2898372              -7.8869
       106        1.9975           -0.2872263              -7.8158
       107        1.9953           -0.2866382              -7.7998
       108        1.9262           -0.2839475              -7.7266
       109        1.5531           -0.2817857              -7.6678
       110        1.4888           -0.2815560              -7.6615 (HOMO)
       111        0.0393           -0.2748218              -7.4783 (LUMO)
       112        0.0000           -0.2679878              -7.2923
       113        0.0000           -0.2663269              -7.2471
       114                         -0.2573589              -7.0031
       115                         -0.2557435              -6.9591
       116                         -0.2531241              -6.8879
       117                         -0.2404703              -6.5435
       118                         -0.2358098              -6.4167
       119                         -0.2312495              -6.2926
       120                         -0.2050179              -5.5788
       121                         -0.1685897              -4.5876
       ...                                ...                  ...
       274                         13.9320917             379.1115
      -------------------------------------------------------------
                  HL-Gap            0.0067342 Eh            0.1832 eV
             Fermi-level           -0.2797009 Eh           -7.6110 eV

  Mulliken/CM5 charges         n(s)   n(p)   n(d)
     1C    -0.06309 -0.21182   1.006  3.057  0.000
     2C     0.01861 -0.07530   1.030  2.951  0.000
     3S    -0.20309 -0.29780   1.898  4.314 -0.008
     4H     0.00510  0.05560   0.995  0.000  0.000
     5H     0.01562  0.06878   0.984  0.000  0.000
     6H     0.01574  0.06762   0.984  0.000  0.000
     7H    -0.01134  0.04359   1.011  0.000  0.000
     8H    -0.00892  0.04587   1.009  0.000  0.000
     9C    -0.07575 -0.22376   1.007  3.069  0.000
    10C     0.01967 -0.07440   1.028  2.952  0.000
    11S    -0.25184 -0.33569   1.900  4.363 -0.011
    12H     0.00738  0.05799   0.993  0.000  0.000
    13H     0.00634  0.05873   0.994  0.000  0.000
    14H     0.00703  0.05933   0.993  0.000  0.000
    15H    -0.01031  0.04423   1.010  0.000  0.000
    16H    -0.00282  0.05183   1.003  0.000  0.000
    17C    -0.06707 -0.21552   1.006  3.061  0.000
    18C     0.01862 -0.07544   1.029  2.952  0.000
    19S    -0.22889 -0.31828   1.899  4.339 -0.009
    20H     0.00585  0.05643   0.994  0.000  0.000
    21H     0.00939  0.06128   0.991  0.000  0.000
    22H     0.02223  0.07524   0.978  0.000  0.000
    23H    -0.01181  0.04326   1.012  0.000  0.000
    24H    -0.00424  0.05020   1.004  0.000  0.000
    25C    -0.07108 -0.21858   1.007  3.064  0.000
    26C     0.02375 -0.06984   1.028  2.949  0.000
    27S    -0.28145 -0.35740   1.901  4.391 -0.010
    28H     0.00217  0.05424   0.998  0.000  0.000
    29H     0.00132  0.05181   0.999  0.000  0.000
    30H     0.00892  0.06430   0.991  0.000  0.000
    31H    -0.00558  0.04871   1.006  0.000  0.000
    32H    -0.01703  0.03801   1.017  0.000  0.000
    33C    -0.07074 -0.21860   1.005  3.066  0.000
    34C     0.02742 -0.06570   1.031  2.942  0.000
    35S    -0.27464 -0.35035   1.877  4.409 -0.011
    36H     0.00606  0.05815   0.994  0.000  0.000
    37H    -0.00144  0.05079   1.001  0.000  0.000
    38H     0.00258  0.05305   0.997  0.000  0.000
    39H    -0.00800  0.04919   1.008  0.000  0.000
    40H    -0.02001  0.03462   1.020  0.000  0.000
    41C    -0.07345 -0.22302   1.006  3.067  0.000
    42C    -0.04423 -0.14548   1.023  3.021  0.000
    43C     0.05803  0.11856   1.049  2.893  0.000
    44N    -0.28387 -0.64114   1.431  3.852  0.000
    45C     0.22816  0.32822   0.985  2.787  0.000
    46N    -0.39807 -0.58515   1.555  3.843  0.000
    47C     0.07170  0.10124   1.013  2.915  0.000
    48H     0.02436  0.07715   0.976  0.000  0.000
    49H     0.02641  0.07856   0.974  0.000  0.000
    50H     0.02813  0.07953   0.972  0.000  0.000
    51H     0.02569  0.08341   0.974  0.000  0.000
    52H     0.02812  0.08372   0.972  0.000  0.000
    53H     0.23946  0.43695   0.761  0.000  0.000
    54H     0.00049  0.07563   1.000  0.000  0.000
    55H    -0.00355  0.06304   1.004  0.000  0.000
    56Fe   -0.01943  0.23634   0.163  0.954  6.902
    57Fe   -0.01066  0.24023   0.146  0.930  6.934
    58Fe   -0.01623  0.24785   0.143  0.943  6.930
    59Fe   -0.02289  0.24720   0.166  0.976  6.880
    60S     0.00654 -0.24398   1.862  4.148 -0.017
    61S    -0.10100 -0.33118   1.868  4.252 -0.019
    62S    -0.09440 -0.31730   1.868  4.245 -0.019
    63S     0.10269 -0.10062   1.864  4.035 -0.002
    64Ni   -0.12839  0.03301   0.580  0.647  8.901
    65C     0.61569  0.69134   0.969  2.415  0.000
    66O    -0.63249 -0.67326   1.745  4.887  0.000
    67O    -0.66484 -0.70245   1.749  4.916  0.000
    68H    -0.49664 -0.49278   1.497  0.000  0.000

Wiberg/Mayer (AO) data.
largest (>0.10) Wiberg bond orders for each atom

 ---------------------------------------------------------------------------
     #   Z sym  total        # sym  WBO       # sym  WBO       # sym  WBO
 ---------------------------------------------------------------------------
     1   6 C    3.993 --     2 C    1.019     4 H    0.983     6 H    0.983
                             5 H    0.976
     2   6 C    3.983 --     1 C    1.019     8 H    0.985     7 H    0.981
                             3 S    0.959
     3  16 S    2.233 --     2 C    0.959    57 Fe   0.855
     4   1 H    1.007 --     1 C    0.983
     5   1 H    1.028 --     1 C    0.976
     6   1 H    1.013 --     1 C    0.983
     7   1 H    1.023 --     2 C    0.981
     8   1 H    1.022 --     2 C    0.985
     9   6 C    3.992 --    10 C    1.020    13 H    0.988    14 H    0.988
                            12 H    0.985
    10   6 C    3.990 --     9 C    1.020    15 H    0.986    16 H    0.984
                            11 S    0.969
    11  16 S    2.106 --    10 C    0.969    56 Fe   0.770
    12   1 H    1.006 --     9 C    0.985
    13   1 H    1.021 --     9 C    0.988
    14   1 H    1.023 --     9 C    0.988
    15   1 H    1.019 --    10 C    0.986
    16   1 H    1.016 --    10 C    0.984
    17   6 C    3.992 --    18 C    1.018    21 H    0.988    20 H    0.985
                            22 H    0.976
    18   6 C    3.988 --    17 C    1.018    24 H    0.985    23 H    0.984
                            19 S    0.965
    19  16 S    2.190 --    18 C    0.965    58 Fe   0.844    64 Ni   0.114
    20   1 H    1.007 --    17 C    0.985
    21   1 H    1.015 --    17 C    0.988
    22   1 H    1.021 --    17 C    0.976
    23   1 H    1.023 --    18 C    0.984
    24   1 H    1.016 --    18 C    0.985
    25   6 C    3.988 --    26 C    1.018    28 H    0.988    29 H    0.985
                            30 H    0.969
    26   6 C    3.989 --    25 C    1.018    32 H    0.984    31 H    0.983
                            27 S    0.975
    27  16 S    2.055 --    26 C    0.975    59 Fe   0.788
    28   1 H    1.020 --    25 C    0.988
    29   1 H    1.008 --    25 C    0.985
    30   1 H    1.043 --    25 C    0.969
    31   1 H    1.015 --    26 C    0.983
    32   1 H    1.024 --    26 C    0.984
    33   6 C    3.994 --    34 C    1.019    37 H    0.988    36 H    0.988
                            38 H    0.985
    34   6 C    3.987 --    33 C    1.019    40 H    0.986    35 S    0.973
                            39 H    0.967
    35  16 S    2.035 --    34 C    0.973    64 Ni   0.851
    36   1 H    1.021 --    33 C    0.988
    37   1 H    1.024 --    33 C    0.988
    38   1 H    1.009 --    33 C    0.985
    39   1 H    1.052 --    34 C    0.967
    40   1 H    1.023 --    34 C    0.986
    41   6 C    3.997 --    42 C    1.000    48 H    0.989    50 H    0.988
                            49 H    0.985
    42   6 C    3.998 --    43 C    1.015    41 C    1.000    51 H    0.977
                            52 H    0.977
    43   6 C    3.916 --    47 C    1.571    44 N    1.149    42 C    1.015
                            45 C    0.108
    44   7 N    3.455 --    45 C    1.214    43 C    1.149    53 H    0.910
    45   6 C    3.920 --    46 N    1.559    44 N    1.214    54 H    0.954
                            43 C    0.108
    46   7 N    3.002 --    45 C    1.559    47 C    1.270
    47   6 C    3.965 --    43 C    1.571    46 N    1.270    55 H    0.975
    48   1 H    1.007 --    41 C    0.989
    49   1 H    1.012 --    41 C    0.985
    50   1 H    1.005 --    41 C    0.988
    51   1 H    1.006 --    42 C    0.977
    52   1 H    1.008 --    42 C    0.977
    53   1 H    0.946 --    44 N    0.910
    54   1 H    1.069 --    45 C    0.954
    55   1 H    1.042 --    47 C    0.975
    56  26 Fe   5.469 --    62 S    0.804    61 S    0.799    11 S    0.770
                            58 Fe   0.743    59 Fe   0.722    57 Fe   0.624
                            63 S    0.543    64 Ni   0.166
    57  26 Fe   5.200 --    62 S    0.906     3 S    0.855    59 Fe   0.720
                            60 S    0.678    56 Fe   0.624    58 Fe   0.385
                            64 Ni   0.337    63 S    0.323
    58  26 Fe   5.325 --    61 S    0.884    19 S    0.844    56 Fe   0.743
                            60 S    0.635    59 Fe   0.629    63 S    0.519
Note: The following floating-point exceptions are signalling: IEEE_UNDERFLOW_FLAG IEEE_DENORMAL
normal termination of xtb
                            57 Fe   0.385    64 Ni   0.374
    59  26 Fe   5.655 --    61 S    0.832    62 S    0.800    27 S    0.788
                            56 Fe   0.722    57 Fe   0.720    60 S    0.667
                            58 Fe   0.629    64 Ni   0.233
    60  16 S    2.774 --    57 Fe   0.678    59 Fe   0.667    58 Fe   0.635
                            64 Ni   0.607
    61  16 S    2.678 --    58 Fe   0.884    59 Fe   0.832    56 Fe   0.799
    62  16 S    2.686 --    57 Fe   0.906    56 Fe   0.804    59 Fe   0.800
    63  16 S    2.810 --    65 C    0.689    56 Fe   0.543    64 Ni   0.527
                            58 Fe   0.519    57 Fe   0.323
    64  28 Ni   3.412 --    35 S    0.851    60 S    0.607    63 S    0.527
                            58 Fe   0.374    57 Fe   0.337    59 Fe   0.233
                            56 Fe   0.166    19 S    0.114
    65   6 C    3.872 --    66 O    1.549    67 O    1.534    63 S    0.689
    66   8 O    1.876 --    65 C    1.549    67 O    0.179
    67   8 O    1.833 --    65 C    1.534    66 O    0.179
    68   1 H    0.024
 ---------------------------------------------------------------------------

Topologies differ in total number of bonds
Writing topology from bond orders to xtbtopo.mol

 dipole moment from electron density (au)
     X       Y       Z   
-302.2977 -70.4382-267.0439  total (Debye): 1040.745


           -------------------------------------------------
          | TOTAL ENERGY             -118.540853750838 Eh   |
          | GRADIENT NORM               0.072126031009 Eh/α |
          | HOMO-LUMO GAP               0.183248201756 eV   |
           -------------------------------------------------

------------------------------------------------------------------------
 * finished run on 2026/09/13 at 13:39:22.560     
------------------------------------------------------------------------
 total:
 * wall-time:     0 d,  0 h,  0 min,  5.417 sec
 *  cpu-time:     0 d,  0 h,  0 min,  6.398 sec
 * ratio c/w:     1.181 speedup
 SCF:
 * wall-time:     0 d,  0 h,  0 min,  5.365 sec
 *  cpu-time:     0 d,  0 h,  0 min,  6.089 sec
 * ratio c/w:     1.135 speedup

