      -----------------------------------------------------------      
     |                   =====================                   |     
     |                           x T B                           |     
     |                   =====================                   |     
     |                         S. Grimme                         |     
     |          Mulliken Center for Theoretical Chemistry        |     
     |                    University of Bonn                     |     
      -----------------------------------------------------------      

   * xtb version 6.6.1 (unknown) compiled by 'builduser@buildhost' on 2023-08-07

   xtb is free software: you can redistribute it and/or modify it under
   the terms of the GNU Lesser General Public License as published by
   the Free Software Foundation, either version 3 of the License, or
   (at your option) any later version.
   
   xtb is distributed in the hope that it will be useful,
   but WITHOUT ANY WARRANTY; without even the implied warranty of
   MERCHANTABILITY or FITNESS FOR A PARTICULAR PURPOSE.  See the
   GNU Lesser General Public License for more details.
   
   Cite this work as:
   * C. Bannwarth, E. Caldeweyher, S. Ehlert, A. Hansen, P. Pracht,
     J. Seibert, S. Spicher, S. Grimme, WIREs Comput. Mol. Sci., 2020, 11,
     e01493. DOI: 10.1002/wcms.1493
   
   for GFN2-xTB:
   * C. Bannwarth, S. Ehlert and S. Grimme., J. Chem. Theory Comput., 2019,
     15, 1652-1671. DOI: 10.1021/acs.jctc.8b01176
   for GFN1-xTB:
   * S. Grimme, C. Bannwarth, P. Shushkov, J. Chem. Theory Comput., 2017,
     13, 1989-2009. DOI: 10.1021/acs.jctc.7b00118
   for GFN0-xTB:
   * P. Pracht, E. Caldeweyher, S. Ehlert, S. Grimme, ChemRxiv, 2019, preprint.
     DOI: 10.26434/chemrxiv.8326202.v1
   for GFN-FF:
   * S. Spicher and S. Grimme, Angew. Chem. Int. Ed., 2020, 59, 15665-15673.
     DOI: 10.1002/anie.202004239
   
   for ALPB and GBSA implicit solvation:
   * S. Ehlert, M. Stahn, S. Spicher, S. Grimme, J. Chem. Theory Comput.,
     2021, 17, 4250-4261. DOI: 10.1021/acs.jctc.1c00471
   
   for DFT-D4:
   * E. Caldeweyher, C. Bannwarth and S. Grimme, J. Chem. Phys., 2017,
     147, 034112. DOI: 10.1063/1.4993215
   * E. Caldeweyher, S. Ehlert, A. Hansen, H. Neugebauer, S. Spicher,
     C. Bannwarth and S. Grimme, J. Chem. Phys., 2019, 150, 154122.
     DOI: 10.1063/1.5090222
   * E. Caldeweyher, J.-M. Mewes, S. Ehlert and S. Grimme, Phys. Chem. Chem. Phys.
     2020, 22, 8499-8512. DOI: 10.1039/D0CP00502A
   
   for sTDA-xTB:
   * S. Grimme and C. Bannwarth, J. Chem. Phys., 2016, 145, 054103.
     DOI: 10.1063/1.4959605
   
   in the mass-spec context:
   * V. Asgeirsson, C. Bauer and S. Grimme, Chem. Sci., 2017, 8, 4879.
     DOI: 10.1039/c7sc00601b
   * J. Koopman and S. Grimme, ACS Omega 2019, 4, 12, 15120-15133.
     DOI: 10.1021/acsomega.9b02011
   
   for metadynamics refer to:
   * S. Grimme, J. Chem. Theory Comput., 2019, 155, 2847-2862
     DOI: 10.1021/acs.jctc.9b00143
   
   for SPH calculations refer to:
   * S. Spicher and S. Grimme, J. Chem. Theory Comput., 2021, 17, 1701-1714
     DOI: 10.1021/acs.jctc.0c01306
   
   with help from (in alphabetical order)
   P. Atkinson, C. Bannwarth, F. Bohle, G. Brandenburg, E. Caldeweyher
   M. Checinski, S. Dohm, S. Ehlert, S. Ehrlich, I. Gerasimov, C. Hölzer
   A. Katbashev, J. Koopman, C. Lavigne, S. Lehtola, F. März, M. Müller,
   F. Musil, H. Neugebauer, J. Pisarek, C. Plett, P. Pracht, F. Pultar,
   J. Seibert, P. Shushkov, S. Spicher, M. Stahn, M. Steiner, T. Strunk,
   J. Stückrath, T. Rose, and J. Unsleber
   
 * started run on 2026/09/13 at 13:40:03.795     

           -------------------------------------------------
          |                Calculation Setup                |
           -------------------------------------------------

          program call               : xtb structure.xyz --gfn 1 --chrg -3 --uhf 1 --alpb water
          coordinate file            : structure.xyz
          omp threads                :                     8

   ID    Z sym.   atoms
    1    6 C      1, 2, 9, 10, 17, 18, 25, 26, 33, 34, 41-43, 45, 47, 65
    2   16 S      3, 11, 19, 27, 35, 60-63
    3    1 H      4-8, 12-16, 20-24, 28-32, 36-40, 48-55, 68
    4    7 N      44, 46
    5   26 Fe     56-59, 64
    6    8 O      66, 67

molecular fragmentation (1/2 indicates fragments):
11111111111111111111111111111111111111111111111111111111111111111112
# atoms in fragment 1/2:    67     1
 fragment masses (1/2) :      853.25        1.01
CMA distance (Bohr)    :  12.697
constraining FC (au)   :  0.0500

           -------------------------------------------------
          |                 G F N 1 - x T B                 |
           -------------------------------------------------

        Reference                      10.1021/acs.jctc.7b00118
      * Hamiltonian:
        H0-scaling (s, p, d)           1.850000    2.250000    2.000000
        zeta-weighting                 0.000000
      * Dispersion:
        s8                             2.400000
        a1                             0.630000
        a2                             5.000000
        s9                             0.000000
      * Repulsion:
        kExp                           1.500000
        rExp                           1.000000
      * Coulomb:
        alpha                          2.000000
        third order                    atomic
        anisotropic                    false
      * Halogen bond correction:
        rad-scale                      1.300000
        damping                        0.440000

      * Solvation model:               ALPB
        Solvent                        water
        Parameter file                 internal GFN1-xTB/ALPB
        Dielectric constant                8.0200E+01
        Reference state                gsolv [1 M gas/solution]
        Free energy shift                  4.2456E-03 Eh       2.6642E+00 kcal/mol
        Temperature                        2.9815E+02 K
        Density                            1.0000E+00 kg/L
        Solvent mass                       1.8000E+01 g/mol
        Interaction kernel             P16
        Born radius scaling (c1)           1.9452E+00
        Born radii integrator          GBOBC
        Born offset                        0.0000E+00 a0       0.0000E+00 AA
        H-bond correction              true
        Ion screening                  false
        Surface tension                    1.0000E-05 Eh       1.5569E+01 dyn/cm
        Grid points                               230 per atom

          ...................................................
          :                      SETUP                      :
          :.................................................:
          :  # basis functions                 288          :
          :  # atomic orbitals                 274          :
          :  # shells                          150          :
          :  # electrons                       217          :
          :  # halogen bonds                     0          :
          :  max. iterations                   250          :
          :  Hamiltonian                  GFN1-xTB          :
          :  restarted?                      false          :
          :  GBSA solvation                   true          :
          :  PC potential                    false          :
          :  electronic temp.          300.0000000     K    :
          :  accuracy                    1.0000000          :
          :  -> integral cutoff          0.2500000E+02      :
          :  -> integral neglect         0.1000000E-07      :
          :  -> SCF convergence          0.1000000E-05 Eh   :
          :  -> wf. convergence          0.2000000E-04 e    :
          :  Broyden damping             0.4000000          :
          ...................................................

 iter      E             dE          RMSdq      gap      omega  full diag
   1    -85.9216330 -0.859216E+02  0.156E+01    0.09       0.0  T
   2      5.6261294  0.915478E+02  0.298E+01    0.08       1.0  T
   3    -73.5330995 -0.791592E+02  0.194E+01    0.07       1.0  T
   4    -30.0836085  0.434495E+02  0.158E+01    0.76       1.0  T
   5    -61.9586308 -0.318750E+02  0.130E+01    0.15       1.0  T
   6    -45.7436311  0.162150E+02  0.137E+01    0.26       1.0  T
   7    -79.4677344 -0.337241E+02  0.113E+01    0.14       1.0  T
   8    -60.9783761  0.184894E+02  0.125E+01    0.29       1.0  T
   9    -81.3190717 -0.203407E+02  0.111E+01    0.12       1.0  T
  10    -78.8776179  0.244145E+01  0.111E+01    0.28       1.0  T
  11   -110.5572424 -0.316796E+02  0.608E+00    0.13       1.0  T
  12   -110.7267781 -0.169536E+00  0.553E+00    0.15       1.0  T
  13   -106.2717308  0.445505E+01  0.671E+00    0.04       1.0  T
  14   -105.0918560  0.117987E+01  0.676E+00    0.12       1.0  T
  15   -114.5773774 -0.948552E+01  0.378E+00    0.07       1.0  T
  16   -103.0825752  0.114948E+02  0.728E+00    0.11       1.0  T
  17   -103.8037389 -0.721164E+00  0.726E+00    0.13       1.0  T
  18   -103.7512365  0.525025E-01  0.728E+00    0.13       1.0  T
  19   -108.2631099 -0.451187E+01  0.613E+00    0.10       1.0  T
  20   -104.8717096  0.339140E+01  0.693E+00    0.09       1.0  T
  21   -101.0162600  0.385545E+01  0.787E+00    0.12       1.0  T
  22    -93.0569386  0.795932E+01  0.935E+00    0.02       1.0  T
  23   -107.1051938 -0.140483E+02  0.639E+00    0.12       1.0  T
  24   -107.0231851  0.820087E-01  0.641E+00    0.12       1.0  T
  25   -105.4452850  0.157790E+01  0.669E+00    0.14       1.0  T
  26   -103.8685789  0.157671E+01  0.683E+00    0.20       1.0  T
  27   -111.8531248 -0.798455E+01  0.484E+00    0.05       1.0  T
  28   -111.8863365 -0.332117E-01  0.481E+00    0.07       1.0  T
  29   -113.2405448 -0.135421E+01  0.431E+00    0.04       1.0  T
  30   -110.1057712  0.313477E+01  0.540E+00    0.12       1.0  T
  31   -112.6316914 -0.252592E+01  0.457E+00    0.12       1.0  T
  32   -116.8605731 -0.422888E+01  0.241E+00    0.02       1.0  T
  33   -116.8027289  0.578442E-01  0.242E+00    0.02       1.0  T
  34   -117.8043182 -0.100159E+01  0.143E+00    0.07       1.0  T
  35   -118.0629825 -0.258664E+00  0.100E+00    0.07       1.0  T
  36   -117.9511560  0.111826E+00  0.117E+00    0.05       1.0  T
  37   -117.9713434 -0.201874E-01  0.113E+00    0.05       1.0  T
  38   -118.1315560 -0.160213E+00  0.685E-01    0.04       1.0  T
  39   -118.2060605 -0.745044E-01  0.513E-01    0.05       1.0  T
  40   -118.2071083 -0.104786E-02  0.403E-01    0.04       1.0  T
  41   -118.2469823 -0.398740E-01  0.208E-01    0.05       1.0  T
  42   -118.2419273  0.505506E-02  0.256E-01    0.05       1.0  T
  43   -118.2513539 -0.942666E-02  0.784E-02    0.05       1.0  T
  44   -118.2520493 -0.695335E-03  0.587E-02    0.05       1.0  T
  45   -118.2523139 -0.264635E-03  0.656E-02    0.06       1.0  T
  46   -118.2527682 -0.454273E-03  0.274E-02    0.06       1.0  T
  47   -118.2528701 -0.101962E-03  0.158E-02    0.06       1.0  T
  48   -118.2529080 -0.378628E-04  0.109E-02    0.06       1.1  T
  49   -118.2529210 -0.130299E-04  0.909E-03    0.06       1.3  T
  50   -118.2529313 -0.102474E-04  0.338E-03    0.06       3.6  T
  51   -118.2529323 -0.107428E-05  0.943E-04    0.06      12.9  T
  52   -118.2529319  0.399700E-06  0.230E-03    0.06       5.3  T
  53   -118.2529325 -0.521693E-06  0.703E-04    0.06      17.2  T
  54   -118.2529325 -0.259778E-07  0.692E-04    0.06      17.5  T
  55   -118.2529325 -0.624499E-07  0.640E-05    0.06     189.4  T
  56   -118.2529325 -0.729855E-09  0.229E-05    0.06     530.7  T

   *** convergence criteria satisfied after 56 iterations ***

         #    Occupation            Energy/Eh            Energy/eV
      -------------------------------------------------------------
         1        2.0000           -0.8219885             -22.3674
       ...           ...                  ...                  ...
       103        2.0000           -0.2914250              -7.9301
       104        1.9998           -0.2896755              -7.8825
       105        1.9991           -0.2879280              -7.8349
       106        1.9165           -0.2836113              -7.7175
       107        1.8212           -0.2828176              -7.6959
       108        1.5845           -0.2818231              -7.6688
       109        1.2646           -0.2809713              -7.6456 (HOMO)
       110        0.4142           -0.2789137              -7.5896 (LUMO)
       111        0.0001           -0.2706369              -7.3644
       112        0.0000           -0.2660558              -7.2397
       113                         -0.2624253              -7.1410
       114                         -0.2597454              -7.0680
       ...                                ...                  ...
       274                         13.1509436             357.8554
      -------------------------------------------------------------
                  HL-Gap            0.0020576 Eh            0.0560 eV
             Fermi-level           -0.2803705 Eh           -7.6293 eV

 SCC (total)                   0 d,  0 h,  0 min,  6.641 sec
 SCC setup                      ...        0 min,  0.005 sec (  0.073%)
 Dispersion                     ...        0 min,  0.002 sec (  0.028%)
 classical contributions        ...        0 min,  0.000 sec (  0.003%)
 integral evaluation            ...        0 min,  0.033 sec (  0.493%)
 iterations                     ...        0 min,  6.420 sec ( 96.670%)
 molecular gradient             ...        0 min,  0.072 sec (  1.088%)
 printout                       ...        0 min,  0.109 sec (  1.645%)

         :::::::::::::::::::::::::::::::::::::::::::::::::::::
         ::                     SUMMARY                     ::
         :::::::::::::::::::::::::::::::::::::::::::::::::::::
         :: total energy            -117.409232109846 Eh    ::
         :: total w/o Gsasa/hb      -117.397900148830 Eh    ::
         :: gradient norm              0.072045908335 Eh/a0 ::
         :: HOMO-LUMO gap              0.055988898140 eV    ::
         ::.................................................::
         :: SCC energy              -118.252932547805 Eh    ::
         :: -> electrostatic           0.718166606392 Eh    ::
         :: -> Gsolv                  -0.414285996490 Eh    ::
         ::    -> Gelec               -0.402954035474 Eh    ::
         ::    -> Gsasa               -0.005015340471 Eh    ::
         ::    -> Ghb                 -0.010562227215 Eh    ::
         ::    -> Gshift               0.004245606671 Eh    ::
         :: repulsion energy           0.909083461965 Eh    ::
         :: dispersion energy         -0.065383024006 Eh    ::
         :: halogen bond corr.         0.000000000000 Eh    ::
         :: add. restraining           0.000000000000 Eh    ::
         :: total charge              -2.999999999930 e     ::
         :::::::::::::::::::::::::::::::::::::::::::::::::::::

           -------------------------------------------------
          |                Property Printout                |
           -------------------------------------------------

    * Orbital Energies and Occupations

         #    Occupation            Energy/Eh            Energy/eV
      -------------------------------------------------------------
         1        2.0000           -0.8219885             -22.3674
       ...           ...                  ...                  ...
        97        2.0000           -0.2998239              -8.1586
        98        2.0000           -0.2987062              -8.1282
        99        2.0000           -0.2980046              -8.1091
       100        2.0000           -0.2966318              -8.0718
       101        2.0000           -0.2941554              -8.0044
       102        2.0000           -0.2932802              -7.9806
       103        2.0000           -0.2914250              -7.9301
       104        1.9998           -0.2896755              -7.8825
       105        1.9991           -0.2879280              -7.8349
       106        1.9165           -0.2836113              -7.7175
       107        1.8212           -0.2828176              -7.6959
       108        1.5845           -0.2818231              -7.6688
       109        1.2646           -0.2809713              -7.6456 (HOMO)
       110        0.4142           -0.2789137              -7.5896 (LUMO)
       111        0.0001           -0.2706369              -7.3644
       112        0.0000           -0.2660558              -7.2397
       113                         -0.2624253              -7.1410
       114                         -0.2597454              -7.0680
       115                         -0.2552763              -6.9464
       116                         -0.2525338              -6.8718
       117                         -0.2396313              -6.5207
       118                         -0.2372436              -6.4557
       119                         -0.2343812              -6.3778
       120                         -0.2037951              -5.5455
       ...                                ...                  ...
       274                         13.1509436             357.8554
      -------------------------------------------------------------
                  HL-Gap            0.0020576 Eh            0.0560 eV
             Fermi-level           -0.2803705 Eh           -7.6293 eV

  Mulliken/CM5 charges         n(s)   n(p)   n(d)
     1C    -0.07061 -0.21889   1.007  3.064  0.000
     2C     0.01459 -0.07934   1.031  2.954  0.000
     3S    -0.23965 -0.32591   1.899  4.346 -0.006
     4H     0.00838  0.05901   0.992  0.000  0.000
     5H     0.01560  0.06824   0.984  0.000  0.000
     6H     0.01174  0.06376   0.988  0.000  0.000
     7H    -0.00585  0.05118   1.006  0.000  0.000
     8H    -0.00743  0.04784   1.007  0.000  0.000
     9C    -0.07532 -0.22326   1.007  3.069  0.000
    10C     0.02073 -0.07338   1.028  2.951  0.000
    11S    -0.25401 -0.34023   1.896  4.368 -0.010
    12H     0.00697  0.05756   0.993  0.000  0.000
    13H     0.00516  0.05742   0.995  0.000  0.000
    14H     0.00808  0.06039   0.992  0.000  0.000
    15H    -0.01262  0.04198   1.013  0.000  0.000
    16H     0.00228  0.05697   0.998  0.000  0.000
    17C    -0.07045 -0.21815   1.007  3.064  0.000
    18C     0.02205 -0.07169   1.027  2.951  0.000
    19S    -0.26299 -0.34365   1.897  4.376 -0.010
    20H     0.00159  0.05215   0.998  0.000  0.000
    21H     0.00276  0.05481   0.997  0.000  0.000
    22H     0.01198  0.06649   0.988  0.000  0.000
    23H    -0.01604  0.03903   1.016  0.000  0.000
    24H    -0.00496  0.04942   1.005  0.000  0.000
    25C    -0.07147 -0.21911   1.007  3.065  0.000
    26C     0.02389 -0.06974   1.027  2.949  0.000
    27S    -0.27064 -0.35076   1.897  4.384 -0.010
    28H     0.00314  0.05513   0.997  0.000  0.000
    29H     0.00138  0.05190   0.999  0.000  0.000
    30H     0.01272  0.06752   0.987  0.000  0.000
    31H    -0.00534  0.04904   1.005  0.000  0.000
    32H    -0.01557  0.03956   1.016  0.000  0.000
    33C    -0.06790 -0.21612   1.006  3.062  0.000
    34C     0.03366 -0.06107   1.029  2.937  0.000
    35S    -0.12973 -0.25513   1.885  4.252 -0.008
    36H     0.01506  0.06884   0.985  0.000  0.000
    37H     0.00733  0.05975   0.993  0.000  0.000
    38H     0.00809  0.05875   0.992  0.000  0.000
    39H     0.01036  0.06563   0.990  0.000  0.000
    40H    -0.00064  0.05443   1.001  0.000  0.000
    41C    -0.07058 -0.22008   1.006  3.065  0.000
    42C    -0.04365 -0.14454   1.024  3.020  0.000
    43C     0.07636  0.13076   1.054  2.869  0.000
    44N    -0.34855 -0.69344   1.462  3.887  0.000
    45C     0.16882  0.19963   1.028  2.803  0.000
    46N    -0.33415 -0.61146   1.556  3.778  0.000
    47C     0.06013  0.08081   1.013  2.926  0.000
    48H     0.02444  0.07756   0.976  0.000  0.000
    49H     0.02431  0.07681   0.976  0.000  0.000
    50H     0.02279  0.07396   0.977  0.000  0.000
    51H     0.02126  0.07789   0.979  0.000  0.000
    52H     0.01911  0.07448   0.981  0.000  0.000
    53H     0.21434  0.40822   0.786  0.000  0.000
    54H    -0.00736  0.06489   1.007  0.000  0.000
    55H    -0.00776  0.05639   1.008  0.000  0.000
    56Fe   -0.02143  0.24094   0.158  0.952  6.911
    57Fe   -0.02813  0.30871   0.178  0.922  6.928
    58Fe   -0.01881  0.25207   0.165  0.965  6.889
    59Fe   -0.02112  0.25009   0.162  0.974  6.885
    60S    -0.07363 -0.30509   1.870  4.223 -0.019
    61S    -0.09064 -0.31854   1.866  4.243 -0.019
    62S     0.02649 -0.22875   1.858  4.131 -0.015
    63S     0.01946 -0.17160   1.866  4.118 -0.003
    64Fe   -0.00970  0.25571   0.136  0.933  6.941
    65C     0.62195  0.69869   0.963  2.415  0.000
    66O    -0.67120 -0.70827   1.749  4.922  0.000
    67O    -0.64579 -0.68409   1.747  4.899  0.000
    68H    -0.57325 -0.57213   1.573  0.000  0.000

Wiberg/Mayer (AO) data.
largest (>0.10) Wiberg bond orders for each atom

 ---------------------------------------------------------------------------
     #   Z sym  total        # sym  WBO       # sym  WBO       # sym  WBO
 ---------------------------------------------------------------------------
     1   6 C    3.993 --     2 C    1.018     6 H    0.988     4 H    0.985
                             5 H    0.982
     2   6 C    3.991 --     1 C    1.018     8 H    0.983     7 H    0.974
                             3 S    0.967
     3  16 S    2.106 --     2 C    0.967    57 Fe   0.964
     4   1 H    1.007 --     1 C    0.985
     5   1 H    1.017 --     1 C    0.982
     6   1 H    1.017 --     1 C    0.988
     7   1 H    1.021 --     2 C    0.974
     8   1 H    1.024 --     2 C    0.983
     9   6 C    3.992 --    10 C    1.019    13 H    0.988    14 H    0.988
                            12 H    0.985
    10   6 C    3.990 --     9 C    1.019    15 H    0.986    16 H    0.981
                            11 S    0.968
    11  16 S    2.107 --    10 C    0.968    56 Fe   0.843
    12   1 H    1.006 --     9 C    0.985
    13   1 H    1.021 --     9 C    0.988
    14   1 H    1.024 --     9 C    0.988
    15   1 H    1.022 --    10 C    0.986
    16   1 H    1.014 --    10 C    0.981
    17   6 C    3.989 --    18 C    1.018    21 H    0.988    20 H    0.985
                            22 H    0.973
    18   6 C    3.989 --    17 C    1.018    24 H    0.984    23 H    0.984
                            19 S    0.973
    19  16 S    2.078 --    18 C    0.973    58 Fe   0.809
    20   1 H    1.008 --    17 C    0.985
    21   1 H    1.020 --    17 C    0.988
    22   1 H    1.038 --    17 C    0.973
    23   1 H    1.024 --    18 C    0.984
    24   1 H    1.015 --    18 C    0.984
    25   6 C    3.988 --    26 C    1.018    28 H    0.989    29 H    0.985
                            30 H    0.972
    26   6 C    3.988 --    25 C    1.018    31 H    0.984    32 H    0.984
                            27 S    0.973
    27  16 S    2.062 --    26 C    0.973    59 Fe   0.799
    28   1 H    1.019 --    25 C    0.989
    29   1 H    1.008 --    25 C    0.985
    30   1 H    1.039 --    25 C    0.972
    31   1 H    1.015 --    26 C    0.984
    32   1 H    1.024 --    26 C    0.984
    33   6 C    3.993 --    34 C    1.022    37 H    0.988    38 H    0.984
                            36 H    0.981
    34   6 C    3.981 --    33 C    1.022    40 H    0.985    39 H    0.983
                            35 S    0.937
    35  16 S    2.384 --    34 C    0.937    64 Fe   0.712    57 Fe   0.490
    36   1 H    1.025 --    33 C    0.981
    37   1 H    1.018 --    33 C    0.988
    38   1 H    1.005 --    33 C    0.984
    39   1 H    1.010 --    34 C    0.983
    40   1 H    1.022 --    34 C    0.985
    41   6 C    3.997 --    42 C    0.999    50 H    0.988    49 H    0.987
                            48 H    0.985
    42   6 C    3.998 --    43 C    1.014    41 C    0.999    52 H    0.979
                            51 H    0.975
    43   6 C    3.930 --    47 C    1.595    44 N    1.124    42 C    1.014
    44   7 N    3.289 --    43 C    1.124    45 C    1.005    53 H    0.916
    45   6 C    3.842 --    46 N    1.229    44 N    1.005    54 H    0.949
                            57 Fe   0.515
    46   7 N    3.143 --    45 C    1.229    47 C    1.206    57 Fe   0.569
    47   6 C    3.965 --    43 C    1.595    46 N    1.206    55 H    0.974
    48   1 H    1.010 --    41 C    0.985
    49   1 H    1.012 --    41 C    0.987
    50   1 H    1.005 --    41 C    0.988
    51   1 H    1.007 --    42 C    0.975
    52   1 H    1.008 --    42 C    0.979
    53   1 H    0.964 --    44 N    0.916
Note: The following floating-point exceptions are signalling: IEEE_UNDERFLOW_FLAG IEEE_DENORMAL
normal termination of xtb
    54   1 H    1.028 --    45 C    0.949
    55   1 H    1.009 --    47 C    0.974
    56  26 Fe   5.237 --    61 S    0.843    11 S    0.843    59 Fe   0.708
                            58 Fe   0.699    62 S    0.650    63 S    0.562
                            64 Fe   0.410    57 Fe   0.210
    57  26 Fe   4.364 --     3 S    0.964    62 S    0.706    46 N    0.569
                            45 C    0.515    35 S    0.490    64 Fe   0.367
                            56 Fe   0.210    59 Fe   0.167
    58  26 Fe   5.361 --    61 S    0.841    19 S    0.809    60 S    0.793
                            56 Fe   0.699    63 S    0.656    64 Fe   0.646
                            59 Fe   0.642
    59  26 Fe   5.519 --    61 S    0.834    60 S    0.816    27 S    0.799
                            56 Fe   0.708    64 Fe   0.672    58 Fe   0.642
                            62 S    0.634    57 Fe   0.167
    60  16 S    2.704 --    64 Fe   0.866    59 Fe   0.816    58 Fe   0.793
    61  16 S    2.662 --    56 Fe   0.843    58 Fe   0.841    59 Fe   0.834
    62  16 S    2.781 --    57 Fe   0.706    64 Fe   0.663    56 Fe   0.650
                            59 Fe   0.634
    63  16 S    2.719 --    65 C    0.711    58 Fe   0.656    64 Fe   0.570
                            56 Fe   0.562
    64  26 Fe   5.247 --    60 S    0.866    35 S    0.712    59 Fe   0.672
                            62 S    0.663    58 Fe   0.646    63 S    0.570
                            56 Fe   0.410    57 Fe   0.367
    65   6 C    3.864 --    67 O    1.544    66 O    1.525    63 S    0.711
    66   8 O    1.820 --    65 C    1.525    67 O    0.177
    67   8 O    1.849 --    65 C    1.544    66 O    0.177
    68   1 H    0.008
 ---------------------------------------------------------------------------

Topologies differ in total number of bonds
Writing topology from bond orders to xtbtopo.mol

 dipole moment from electron density (au)
     X       Y       Z   
-304.7733 -66.3169-265.3931  total (Debye): 1040.932


           -------------------------------------------------
          | TOTAL ENERGY             -117.409232109846 Eh   |
          | GRADIENT NORM               0.072045908335 Eh/α |
          | HOMO-LUMO GAP               0.055988898140 eV   |
           -------------------------------------------------

------------------------------------------------------------------------
 * finished run on 2026/09/13 at 13:40:10.481     
------------------------------------------------------------------------
 total:
 * wall-time:     0 d,  0 h,  0 min,  6.685 sec
 *  cpu-time:     0 d,  0 h,  0 min,  7.756 sec
 * ratio c/w:     1.160 speedup
 SCF:
 * wall-time:     0 d,  0 h,  0 min,  6.643 sec
 *  cpu-time:     0 d,  0 h,  0 min,  7.505 sec
 * ratio c/w:     1.130 speedup

