      -----------------------------------------------------------      
     |                   =====================                   |     
     |                           x T B                           |     
     |                   =====================                   |     
     |                         S. Grimme                         |     
     |          Mulliken Center for Theoretical Chemistry        |     
     |                    University of Bonn                     |     
      -----------------------------------------------------------      

   * xtb version 6.6.1 (unknown) compiled by 'builduser@buildhost' on 2023-08-07

   xtb is free software: you can redistribute it and/or modify it under
   the terms of the GNU Lesser General Public License as published by
   the Free Software Foundation, either version 3 of the License, or
   (at your option) any later version.
   
   xtb is distributed in the hope that it will be useful,
   but WITHOUT ANY WARRANTY; without even the implied warranty of
   MERCHANTABILITY or FITNESS FOR A PARTICULAR PURPOSE.  See the
   GNU Lesser General Public License for more details.
   
   Cite this work as:
   * C. Bannwarth, E. Caldeweyher, S. Ehlert, A. Hansen, P. Pracht,
     J. Seibert, S. Spicher, S. Grimme, WIREs Comput. Mol. Sci., 2020, 11,
     e01493. DOI: 10.1002/wcms.1493
   
   for GFN2-xTB:
   * C. Bannwarth, S. Ehlert and S. Grimme., J. Chem. Theory Comput., 2019,
     15, 1652-1671. DOI: 10.1021/acs.jctc.8b01176
   for GFN1-xTB:
   * S. Grimme, C. Bannwarth, P. Shushkov, J. Chem. Theory Comput., 2017,
     13, 1989-2009. DOI: 10.1021/acs.jctc.7b00118
   for GFN0-xTB:
   * P. Pracht, E. Caldeweyher, S. Ehlert, S. Grimme, ChemRxiv, 2019, preprint.
     DOI: 10.26434/chemrxiv.8326202.v1
   for GFN-FF:
   * S. Spicher and S. Grimme, Angew. Chem. Int. Ed., 2020, 59, 15665-15673.
     DOI: 10.1002/anie.202004239
   
   for ALPB and GBSA implicit solvation:
   * S. Ehlert, M. Stahn, S. Spicher, S. Grimme, J. Chem. Theory Comput.,
     2021, 17, 4250-4261. DOI: 10.1021/acs.jctc.1c00471
   
   for DFT-D4:
   * E. Caldeweyher, C. Bannwarth and S. Grimme, J. Chem. Phys., 2017,
     147, 034112. DOI: 10.1063/1.4993215
   * E. Caldeweyher, S. Ehlert, A. Hansen, H. Neugebauer, S. Spicher,
     C. Bannwarth and S. Grimme, J. Chem. Phys., 2019, 150, 154122.
     DOI: 10.1063/1.5090222
   * E. Caldeweyher, J.-M. Mewes, S. Ehlert and S. Grimme, Phys. Chem. Chem. Phys.
     2020, 22, 8499-8512. DOI: 10.1039/D0CP00502A
   
   for sTDA-xTB:
   * S. Grimme and C. Bannwarth, J. Chem. Phys., 2016, 145, 054103.
     DOI: 10.1063/1.4959605
   
   in the mass-spec context:
   * V. Asgeirsson, C. Bauer and S. Grimme, Chem. Sci., 2017, 8, 4879.
     DOI: 10.1039/c7sc00601b
   * J. Koopman and S. Grimme, ACS Omega 2019, 4, 12, 15120-15133.
     DOI: 10.1021/acsomega.9b02011
   
   for metadynamics refer to:
   * S. Grimme, J. Chem. Theory Comput., 2019, 155, 2847-2862
     DOI: 10.1021/acs.jctc.9b00143
   
   for SPH calculations refer to:
   * S. Spicher and S. Grimme, J. Chem. Theory Comput., 2021, 17, 1701-1714
     DOI: 10.1021/acs.jctc.0c01306
   
   with help from (in alphabetical order)
   P. Atkinson, C. Bannwarth, F. Bohle, G. Brandenburg, E. Caldeweyher
   M. Checinski, S. Dohm, S. Ehlert, S. Ehrlich, I. Gerasimov, C. Hölzer
   A. Katbashev, J. Koopman, C. Lavigne, S. Lehtola, F. März, M. Müller,
   F. Musil, H. Neugebauer, J. Pisarek, C. Plett, P. Pracht, F. Pultar,
   J. Seibert, P. Shushkov, S. Spicher, M. Stahn, M. Steiner, T. Strunk,
   J. Stückrath, T. Rose, and J. Unsleber
   
 * started run on 2026/09/13 at 13:39:04.693     

           -------------------------------------------------
          |                Calculation Setup                |
           -------------------------------------------------

          program call               : xtb structure.xyz --gfn 1 --chrg -3 --uhf 1 --alpb water
          coordinate file            : structure.xyz
          omp threads                :                     8

   ID    Z sym.   atoms
    1    6 C      1, 2, 9, 10, 17, 18, 25, 26, 33, 34, 41-43, 45, 47, 65
    2   16 S      3, 11, 19, 27, 35, 60-63
    3    1 H      4-8, 12-16, 20-24, 28-32, 36-40, 48-55, 68
    4    7 N      44, 46
    5   26 Fe     56-59
    6   28 Ni     64
    7    8 O      66, 67

molecular fragmentation (1/2 indicates fragments):
11111111111111111111111111111111111111112222222222222221111111212222
# atoms in fragment 1/2:    48    20
 fragment masses (1/2) :      683.90      173.21
CMA distance (Bohr)    :   8.058
constraining FC (au)   :  0.0500

           -------------------------------------------------
          |                 G F N 1 - x T B                 |
           -------------------------------------------------

        Reference                      10.1021/acs.jctc.7b00118
      * Hamiltonian:
        H0-scaling (s, p, d)           1.850000    2.250000    2.000000
        zeta-weighting                 0.000000
      * Dispersion:
        s8                             2.400000
        a1                             0.630000
        a2                             5.000000
        s9                             0.000000
      * Repulsion:
        kExp                           1.500000
        rExp                           1.000000
      * Coulomb:
        alpha                          2.000000
        third order                    atomic
        anisotropic                    false
      * Halogen bond correction:
        rad-scale                      1.300000
        damping                        0.440000

      * Solvation model:               ALPB
        Solvent                        water
        Parameter file                 internal GFN1-xTB/ALPB
        Dielectric constant                8.0200E+01
        Reference state                gsolv [1 M gas/solution]
        Free energy shift                  4.2456E-03 Eh       2.6642E+00 kcal/mol
        Temperature                        2.9815E+02 K
        Density                            1.0000E+00 kg/L
        Solvent mass                       1.8000E+01 g/mol
        Interaction kernel             P16
        Born radius scaling (c1)           1.9452E+00
        Born radii integrator          GBOBC
        Born offset                        0.0000E+00 a0       0.0000E+00 AA
        H-bond correction              true
        Ion screening                  false
        Surface tension                    1.0000E-05 Eh       1.5569E+01 dyn/cm
        Grid points                               230 per atom

          ...................................................
          :                      SETUP                      :
          :.................................................:
          :  # basis functions                 288          :
          :  # atomic orbitals                 274          :
          :  # shells                          150          :
          :  # electrons                       219          :
          :  # halogen bonds                     0          :
          :  max. iterations                   250          :
          :  Hamiltonian                  GFN1-xTB          :
          :  restarted?                      false          :
          :  GBSA solvation                   true          :
          :  PC potential                    false          :
          :  electronic temp.          300.0000000     K    :
          :  accuracy                    1.0000000          :
          :  -> integral cutoff          0.2500000E+02      :
          :  -> integral neglect         0.1000000E-07      :
          :  -> SCF convergence          0.1000000E-05 Eh   :
          :  -> wf. convergence          0.2000000E-04 e    :
          :  Broyden damping             0.4000000          :
          ...................................................

 iter      E             dE          RMSdq      gap      omega  full diag
   1    -93.5510146 -0.935510E+02  0.144E+01    0.39       0.0  T
   2     34.6081053  0.128159E+03  0.248E+01    0.09       1.0  T
   3    -81.1302790 -0.115738E+03  0.121E+01    0.65       1.0  T
   4    -62.4529235  0.186774E+02  0.130E+01    0.06       1.0  T
   5    -69.9602204 -0.750730E+01  0.124E+01    0.26       1.0  T
   6    -71.9837049 -0.202348E+01  0.116E+01    0.14       1.0  T
   7    -62.5478803  0.943582E+01  0.131E+01    0.09       1.0  T
   8    -96.0005277 -0.334526E+02  0.911E+00    0.13       1.0  T
   9   -106.8780660 -0.108775E+02  0.744E+00    0.04       1.0  T
  10   -112.4773961 -0.559933E+01  0.565E+00    0.02       1.0  T
  11    -95.2103008  0.172671E+02  0.882E+00    0.07       1.0  T
  12    -99.9430265 -0.473273E+01  0.808E+00    0.12       1.0  T
  13    -99.9424093  0.617286E-03  0.808E+00    0.12       1.0  T
  14   -100.2437623 -0.301353E+00  0.810E+00    0.08       1.0  T
  15   -113.1792923 -0.129355E+02  0.487E+00    0.09       1.0  T
  16   -106.8765556  0.630274E+01  0.697E+00    0.07       1.0  T
  17    -92.5204674  0.143561E+02  0.977E+00    0.16       1.0  T
  18   -110.6808030 -0.181603E+02  0.578E+00    0.10       1.0  T
  19   -114.2243745 -0.354357E+01  0.458E+00    0.27       1.0  T
  20   -115.9282106 -0.170384E+01  0.389E+00    0.29       1.0  T
  21   -113.4497099  0.247850E+01  0.488E+00    0.10       1.0  T
  22    -99.0289561  0.144208E+02  0.848E+00    0.20       1.0  T
  23   -102.1105875 -0.308163E+01  0.783E+00    0.18       1.0  T
  24   -110.5541940 -0.844361E+01  0.580E+00    0.08       1.0  T
  25   -112.7193407 -0.216515E+01  0.523E+00    0.04       1.0  T
  26   -110.6993301  0.202001E+01  0.577E+00    0.01       1.0  T
  27   -116.5513402 -0.585201E+01  0.342E+00    0.12       1.0  T
  28   -115.0772537  0.147409E+01  0.403E+00    0.12       1.0  T
  29   -117.6079200 -0.253067E+01  0.264E+00    0.16       1.0  T
  30   -117.7164971 -0.108577E+00  0.257E+00    0.16       1.0  T
  31   -119.1921041 -0.147561E+01  0.877E-01    0.23       1.0  T
  32   -119.1626876  0.294165E-01  0.919E-01    0.23       1.0  T
  33   -119.2082780 -0.455904E-01  0.788E-01    0.22       1.0  T
  34   -119.2873387 -0.790608E-01  0.534E-01    0.24       1.0  T
  35   -119.3245235 -0.371848E-01  0.369E-01    0.24       1.0  T
  36   -119.3368434 -0.123198E-01  0.284E-01    0.22       1.0  T
  37   -119.3495212 -0.126778E-01  0.179E-01    0.22       1.0  T
  38   -119.3554231 -0.590185E-02  0.929E-02    0.23       1.0  T
  39   -119.3571410 -0.171796E-02  0.436E-02    0.23       1.0  T
  40   -119.3575141 -0.373050E-03  0.222E-02    0.23       1.0  T
  41   -119.3576076 -0.935147E-04  0.660E-03    0.23       1.8  T
  42   -119.3575953  0.123385E-04  0.907E-03    0.23       1.3  T
  43   -119.3576085 -0.132456E-04  0.591E-03    0.23       2.1  T
  44   -119.3576172 -0.870404E-05  0.884E-04    0.23      13.7  T
  45   -119.3576173 -0.548187E-07  0.619E-04    0.23      19.6  T
  46   -119.3576172  0.244927E-07  0.601E-04    0.23      20.2  T
  47   -119.3576173 -0.811582E-07  0.228E-04    0.23      53.1  T
  48   -119.3576173 -0.122623E-07  0.553E-05    0.23     219.1  T
  49   -119.3576173 -0.286207E-09  0.432E-05    0.23     280.7  T

   *** convergence criteria satisfied after 49 iterations ***

         #    Occupation            Energy/Eh            Energy/eV
      -------------------------------------------------------------
         1        2.0000           -0.8169139             -22.2294
       ...           ...                  ...                  ...
       104        1.9999           -0.2697030              -7.3390
       105        1.9999           -0.2689939              -7.3197
       106        1.9975           -0.2662727              -7.2456
       107        1.9958           -0.2657548              -7.2316
       108        1.9495           -0.2633550              -7.1663
       109        1.6275           -0.2610729              -7.1042
       110        1.4154           -0.2602739              -7.0824 (HOMO)
       111        0.0144           -0.2518662              -6.8536 (LUMO)
       112        0.0001           -0.2467887              -6.7155
       113        0.0000           -0.2454672              -6.6795
       114                         -0.2364028              -6.4328
       115                         -0.2349947              -6.3945
       ...                                ...                  ...
       274                         13.9528177             379.6755
      -------------------------------------------------------------
                  HL-Gap            0.0084077 Eh            0.2288 eV
             Fermi-level           -0.2582227 Eh           -7.0266 eV

 SCC (total)                   0 d,  0 h,  0 min,  5.868 sec
 SCC setup                      ...        0 min,  0.003 sec (  0.052%)
 Dispersion                     ...        0 min,  0.001 sec (  0.017%)
 classical contributions        ...        0 min,  0.000 sec (  0.006%)
 integral evaluation            ...        0 min,  0.030 sec (  0.516%)
 iterations                     ...        0 min,  5.626 sec ( 95.884%)
 molecular gradient             ...        0 min,  0.079 sec (  1.355%)
 printout                       ...        0 min,  0.127 sec (  2.170%)

         :::::::::::::::::::::::::::::::::::::::::::::::::::::
         ::                     SUMMARY                     ::
         :::::::::::::::::::::::::::::::::::::::::::::::::::::
         :: total energy            -118.501726467654 Eh    ::
         :: total w/o Gsasa/hb      -118.497570157394 Eh    ::
         :: gradient norm              0.074584932798 Eh/a0 ::
         :: HOMO-LUMO gap              0.228786141103 eV    ::
         ::.................................................::
         :: SCC energy              -119.357617328984 Eh    ::
         :: -> electrostatic           0.707348508592 Eh    ::
         :: -> Gsolv                  -0.408917502560 Eh    ::
         ::    -> Gelec               -0.404761192301 Eh    ::
         ::    -> Gsasa               -0.005744652874 Eh    ::
         ::    -> Ghb                 -0.002657264057 Eh    ::
         ::    -> Gshift               0.004245606671 Eh    ::
         :: repulsion energy           0.921476405241 Eh    ::
         :: dispersion energy         -0.065585543911 Eh    ::
         :: halogen bond corr.         0.000000000000 Eh    ::
         :: add. restraining           0.000000000000 Eh    ::
         :: total charge              -2.999999999050 e     ::
         :::::::::::::::::::::::::::::::::::::::::::::::::::::

           -------------------------------------------------
          |                Property Printout                |
           -------------------------------------------------

    * Orbital Energies and Occupations

         #    Occupation            Energy/Eh            Energy/eV
      -------------------------------------------------------------
         1        2.0000           -0.8169139             -22.2294
       ...           ...                  ...                  ...
        98        2.0000           -0.2765036              -7.5240
        99        2.0000           -0.2763114              -7.5188
       100        2.0000           -0.2751535              -7.4873
       101        2.0000           -0.2731490              -7.4328
       102        2.0000           -0.2714888              -7.3876
       103        2.0000           -0.2710609              -7.3759
       104        1.9999           -0.2697030              -7.3390
       105        1.9999           -0.2689939              -7.3197
       106        1.9975           -0.2662727              -7.2456
       107        1.9958           -0.2657548              -7.2316
       108        1.9495           -0.2633550              -7.1663
       109        1.6275           -0.2610729              -7.1042
       110        1.4154           -0.2602739              -7.0824 (HOMO)
       111        0.0144           -0.2518662              -6.8536 (LUMO)
       112        0.0001           -0.2467887              -6.7155
       113        0.0000           -0.2454672              -6.6795
       114                         -0.2364028              -6.4328
       115                         -0.2349947              -6.3945
       116                         -0.2324525              -6.3254
       117                         -0.2202496              -5.9933
       118                         -0.2153161              -5.8590
       119                         -0.2107325              -5.7343
       120                         -0.2027237              -5.5164
       121                         -0.1664968              -4.5306
       ...                                ...                  ...
       274                         13.9528177             379.6755
      -------------------------------------------------------------
                  HL-Gap            0.0084077 Eh            0.2288 eV
             Fermi-level           -0.2582227 Eh           -7.0266 eV

  Mulliken/CM5 charges         n(s)   n(p)   n(d)
     1C    -0.05936 -0.20809   1.005  3.055  0.000
     2C     0.01727 -0.07664   1.029  2.954  0.000
     3S    -0.23178 -0.32650   1.898  4.342 -0.009
     4H    -0.00225  0.04825   1.002  0.000  0.000
     5H     0.01154  0.06470   0.988  0.000  0.000
     6H     0.01144  0.06332   0.989  0.000  0.000
     7H    -0.01983  0.03511   1.020  0.000  0.000
     8H    -0.01738  0.03741   1.017  0.000  0.000
     9C    -0.07354 -0.22154   1.006  3.068  0.000
    10C     0.01884 -0.07523   1.027  2.955  0.000
    11S    -0.28156 -0.36540   1.900  4.392 -0.011
    12H     0.00166  0.05227   0.998  0.000  0.000
    13H     0.00132  0.05371   0.999  0.000  0.000
    14H     0.00199  0.05430   0.998  0.000  0.000
    15H    -0.01780  0.03673   1.018  0.000  0.000
    16H    -0.00953  0.04511   1.010  0.000  0.000
    17C    -0.06347 -0.21192   1.005  3.059  0.000
    18C     0.01745 -0.07662   1.028  2.955  0.000
    19S    -0.25629 -0.34568   1.900  4.366 -0.009
    20H    -0.00122  0.04936   1.001  0.000  0.000
    21H     0.00413  0.05602   0.996  0.000  0.000
    22H     0.01910  0.07211   0.981  0.000  0.000
    23H    -0.02168  0.03339   1.022  0.000  0.000
    24H    -0.01240  0.04205   1.012  0.000  0.000
    25C    -0.06762 -0.21512   1.006  3.062  0.000
    26C     0.02352 -0.07007   1.026  2.951  0.000
    27S    -0.31339 -0.38934   1.901  4.423 -0.011
    28H    -0.00403  0.04803   1.004  0.000  0.000
    29H    -0.00586  0.04463   1.006  0.000  0.000
    30H     0.00399  0.05936   0.996  0.000  0.000
    31H    -0.01333  0.04096   1.013  0.000  0.000
    32H    -0.02715  0.02789   1.027  0.000  0.000
    33C    -0.06755 -0.21541   1.004  3.063  0.000
    34C     0.02483 -0.06829   1.030  2.945  0.000
    35S    -0.30303 -0.37874   1.876  4.438 -0.011
    36H     0.00216  0.05425   0.998  0.000  0.000
    37H    -0.00709  0.04514   1.007  0.000  0.000
    38H    -0.00308  0.04740   1.003  0.000  0.000
    39H    -0.01368  0.04350   1.014  0.000  0.000
    40H    -0.03015  0.02448   1.030  0.000  0.000
    41C    -0.07217 -0.22174   1.006  3.066  0.000
    42C    -0.04389 -0.14515   1.023  3.021  0.000
    43C     0.05742  0.11795   1.048  2.894  0.000
    44N    -0.28441 -0.64168   1.431  3.853  0.000
    45C     0.23004  0.33009   0.986  2.784  0.000
    46N    -0.40086 -0.58802   1.555  3.845  0.000
    47C     0.07119  0.10073   1.014  2.915  0.000
    48H     0.02378  0.07656   0.976  0.000  0.000
    49H     0.02664  0.07878   0.973  0.000  0.000
    50H     0.02675  0.07816   0.973  0.000  0.000
    51H     0.02453  0.08225   0.975  0.000  0.000
    52H     0.02718  0.08278   0.973  0.000  0.000
    53H     0.23824  0.43573   0.762  0.000  0.000
    54H    -0.00238  0.07276   1.002  0.000  0.000
    55H    -0.00634  0.06025   1.006  0.000  0.000
    56Fe   -0.02449  0.23128   0.160  0.946  6.919
    57Fe   -0.01376  0.23713   0.145  0.918  6.950
    58Fe   -0.01868  0.24540   0.140  0.936  6.943
    59Fe   -0.02699  0.24310   0.163  0.978  6.886
    60S     0.00309 -0.24743   1.861  4.153 -0.017
    61S    -0.12163 -0.35182   1.868  4.273 -0.019
    62S    -0.11601 -0.33890   1.867  4.268 -0.019
    63S     0.09640 -0.10700   1.864  4.034  0.006
    64Ni   -0.17651 -0.01512   0.576  0.646  8.954
    65C     0.60380  0.67889   1.000  2.396  0.000
    66O    -0.59900 -0.67037   1.725  4.874  0.000
    67O    -0.66097 -0.69873   1.749  4.912  0.000
    68H    -0.09617 -0.06082   1.096  0.000  0.000

Wiberg/Mayer (AO) data.
largest (>0.10) Wiberg bond orders for each atom

 ---------------------------------------------------------------------------
     #   Z sym  total        # sym  WBO       # sym  WBO       # sym  WBO
 ---------------------------------------------------------------------------
     1   6 C    3.993 --     2 C    1.018     4 H    0.984     6 H    0.983
                             5 H    0.977
     2   6 C    3.983 --     1 C    1.018     8 H    0.986     7 H    0.981
                             3 S    0.958
     3  16 S    2.181 --     2 C    0.958    57 Fe   0.808
     4   1 H    1.008 --     1 C    0.984
     5   1 H    1.032 --     1 C    0.977
     6   1 H    1.015 --     1 C    0.983
     7   1 H    1.026 --     2 C    0.981
     8   1 H    1.025 --     2 C    0.986
     9   6 C    3.992 --    10 C    1.019    13 H    0.988    14 H    0.988
                            12 H    0.985
    10   6 C    3.990 --     9 C    1.019    15 H    0.987    16 H    0.985
                            11 S    0.968
    11  16 S    2.057 --    10 C    0.968    56 Fe   0.728
    12   1 H    1.007 --     9 C    0.985
    13   1 H    1.024 --     9 C    0.988
    14   1 H    1.026 --     9 C    0.988
    15   1 H    1.022 --    10 C    0.987
    16   1 H    1.019 --    10 C    0.985
    17   6 C    3.993 --    18 C    1.018    21 H    0.988    20 H    0.985
                            22 H    0.976
    18   6 C    3.988 --    17 C    1.018    24 H    0.985    23 H    0.985
                            19 S    0.964
    19  16 S    2.133 --    18 C    0.964    58 Fe   0.807    64 Ni   0.109
    20   1 H    1.008 --    17 C    0.985
    21   1 H    1.017 --    17 C    0.988
    22   1 H    1.025 --    17 C    0.976
    23   1 H    1.026 --    18 C    0.985
    24   1 H    1.018 --    18 C    0.985
    25   6 C    3.989 --    26 C    1.017    28 H    0.988    29 H    0.985
                            30 H    0.969
    26   6 C    3.988 --    25 C    1.017    32 H    0.985    31 H    0.984
                            27 S    0.974
    27  16 S    2.000 --    26 C    0.974    59 Fe   0.744
    28   1 H    1.023 --    25 C    0.988
    29   1 H    1.009 --    25 C    0.985
    30   1 H    1.049 --    25 C    0.969
    31   1 H    1.017 --    26 C    0.984
    32   1 H    1.027 --    26 C    0.985
    33   6 C    3.993 --    34 C    1.019    37 H    0.988    36 H    0.988
                            38 H    0.985
    34   6 C    3.987 --    33 C    1.019    40 H    0.987    35 S    0.973
                            39 H    0.967
    35  16 S    1.974 --    34 C    0.973    64 Ni   0.807
    36   1 H    1.024 --    33 C    0.988
    37   1 H    1.027 --    33 C    0.988
    38   1 H    1.010 --    33 C    0.985
    39   1 H    1.057 --    34 C    0.967
    40   1 H    1.026 --    34 C    0.987
    41   6 C    3.997 --    42 C    1.000    48 H    0.989    50 H    0.988
                            49 H    0.985
    42   6 C    3.998 --    43 C    1.015    41 C    1.000    51 H    0.977
                            52 H    0.977
    43   6 C    3.915 --    47 C    1.571    44 N    1.148    42 C    1.015
                            45 C    0.108
    44   7 N    3.454 --    45 C    1.214    43 C    1.148    53 H    0.910
    45   6 C    3.920 --    46 N    1.559    44 N    1.214    54 H    0.953
                            43 C    0.108
    46   7 N    3.001 --    45 C    1.559    47 C    1.269
    47   6 C    3.965 --    43 C    1.571    46 N    1.269    55 H    0.975
    48   1 H    1.007 --    41 C    0.989
    49   1 H    1.013 --    41 C    0.985
    50   1 H    1.005 --    41 C    0.988
    51   1 H    1.006 --    42 C    0.977
    52   1 H    1.008 --    42 C    0.977
    53   1 H    0.947 --    44 N    0.910
    54   1 H    1.077 --    45 C    0.953
    55   1 H    1.047 --    47 C    0.975
    56  26 Fe   5.334 --    61 S    0.799    62 S    0.792    59 Fe   0.748
                            11 S    0.728    58 Fe   0.696    57 Fe   0.561
                            63 S    0.524    64 Ni   0.197
    57  26 Fe   5.003 --    62 S    0.895     3 S    0.808    59 Fe   0.712
                            60 S    0.676    56 Fe   0.561    58 Fe   0.370
Note: The following floating-point exceptions are signalling: IEEE_UNDERFLOW_FLAG IEEE_DENORMAL
normal termination of xtb
                            63 S    0.320    64 Ni   0.312
    58  26 Fe   5.180 --    61 S    0.877    19 S    0.807    56 Fe   0.696
                            59 Fe   0.645    60 S    0.627    63 S    0.508
                            57 Fe   0.370    64 Ni   0.360
    59  26 Fe   5.647 --    61 S    0.831    62 S    0.803    56 Fe   0.748
                            27 S    0.744    57 Fe   0.712    60 S    0.674
                            58 Fe   0.645    64 Ni   0.252
    60  16 S    2.761 --    57 Fe   0.676    59 Fe   0.674    58 Fe   0.627
                            64 Ni   0.598
    61  16 S    2.660 --    58 Fe   0.877    59 Fe   0.831    56 Fe   0.799
    62  16 S    2.657 --    57 Fe   0.895    59 Fe   0.803    56 Fe   0.792
    63  16 S    2.797 --    65 C    0.714    56 Fe   0.524    64 Ni   0.519
                            58 Fe   0.508    57 Fe   0.320
    64  28 Ni   3.367 --    35 S    0.807    60 S    0.598    63 S    0.519
                            58 Fe   0.360    57 Fe   0.312    59 Fe   0.252
                            56 Fe   0.197    19 S    0.109
    65   6 C    3.834 --    67 O    1.546    66 O    1.433    63 S    0.714
    66   8 O    1.937 --    65 C    1.433    68 H    0.190    67 O    0.168
    67   8 O    1.847 --    65 C    1.546    66 O    0.168
    68   1 H    0.310 --    66 O    0.190
 ---------------------------------------------------------------------------

Topologies differ in total number of bonds
Writing topology from bond orders to xtbtopo.mol

 dipole moment from electron density (au)
     X       Y       Z   
-303.9045 -67.1008-270.9609  total (Debye): 1048.853


           -------------------------------------------------
          | TOTAL ENERGY             -118.501726467654 Eh   |
          | GRADIENT NORM               0.074584932798 Eh/α |
          | HOMO-LUMO GAP               0.228786141103 eV   |
           -------------------------------------------------

------------------------------------------------------------------------
 * finished run on 2026/09/13 at 13:39:10.606     
------------------------------------------------------------------------
 total:
 * wall-time:     0 d,  0 h,  0 min,  5.913 sec
 *  cpu-time:     0 d,  0 h,  0 min,  6.950 sec
 * ratio c/w:     1.175 speedup
 SCF:
 * wall-time:     0 d,  0 h,  0 min,  5.870 sec
 *  cpu-time:     0 d,  0 h,  0 min,  6.692 sec
 * ratio c/w:     1.140 speedup

