      -----------------------------------------------------------      
     |                   =====================                   |     
     |                           x T B                           |     
     |                   =====================                   |     
     |                         S. Grimme                         |     
     |          Mulliken Center for Theoretical Chemistry        |     
     |                    University of Bonn                     |     
      -----------------------------------------------------------      

   * xtb version 6.6.1 (unknown) compiled by 'builduser@buildhost' on 2023-08-07

   xtb is free software: you can redistribute it and/or modify it under
   the terms of the GNU Lesser General Public License as published by
   the Free Software Foundation, either version 3 of the License, or
   (at your option) any later version.
   
   xtb is distributed in the hope that it will be useful,
   but WITHOUT ANY WARRANTY; without even the implied warranty of
   MERCHANTABILITY or FITNESS FOR A PARTICULAR PURPOSE.  See the
   GNU Lesser General Public License for more details.
   
   Cite this work as:
   * C. Bannwarth, E. Caldeweyher, S. Ehlert, A. Hansen, P. Pracht,
     J. Seibert, S. Spicher, S. Grimme, WIREs Comput. Mol. Sci., 2020, 11,
     e01493. DOI: 10.1002/wcms.1493
   
   for GFN2-xTB:
   * C. Bannwarth, S. Ehlert and S. Grimme., J. Chem. Theory Comput., 2019,
     15, 1652-1671. DOI: 10.1021/acs.jctc.8b01176
   for GFN1-xTB:
   * S. Grimme, C. Bannwarth, P. Shushkov, J. Chem. Theory Comput., 2017,
     13, 1989-2009. DOI: 10.1021/acs.jctc.7b00118
   for GFN0-xTB:
   * P. Pracht, E. Caldeweyher, S. Ehlert, S. Grimme, ChemRxiv, 2019, preprint.
     DOI: 10.26434/chemrxiv.8326202.v1
   for GFN-FF:
   * S. Spicher and S. Grimme, Angew. Chem. Int. Ed., 2020, 59, 15665-15673.
     DOI: 10.1002/anie.202004239
   
   for ALPB and GBSA implicit solvation:
   * S. Ehlert, M. Stahn, S. Spicher, S. Grimme, J. Chem. Theory Comput.,
     2021, 17, 4250-4261. DOI: 10.1021/acs.jctc.1c00471
   
   for DFT-D4:
   * E. Caldeweyher, C. Bannwarth and S. Grimme, J. Chem. Phys., 2017,
     147, 034112. DOI: 10.1063/1.4993215
   * E. Caldeweyher, S. Ehlert, A. Hansen, H. Neugebauer, S. Spicher,
     C. Bannwarth and S. Grimme, J. Chem. Phys., 2019, 150, 154122.
     DOI: 10.1063/1.5090222
   * E. Caldeweyher, J.-M. Mewes, S. Ehlert and S. Grimme, Phys. Chem. Chem. Phys.
     2020, 22, 8499-8512. DOI: 10.1039/D0CP00502A
   
   for sTDA-xTB:
   * S. Grimme and C. Bannwarth, J. Chem. Phys., 2016, 145, 054103.
     DOI: 10.1063/1.4959605
   
   in the mass-spec context:
   * V. Asgeirsson, C. Bauer and S. Grimme, Chem. Sci., 2017, 8, 4879.
     DOI: 10.1039/c7sc00601b
   * J. Koopman and S. Grimme, ACS Omega 2019, 4, 12, 15120-15133.
     DOI: 10.1021/acsomega.9b02011
   
   for metadynamics refer to:
   * S. Grimme, J. Chem. Theory Comput., 2019, 155, 2847-2862
     DOI: 10.1021/acs.jctc.9b00143
   
   for SPH calculations refer to:
   * S. Spicher and S. Grimme, J. Chem. Theory Comput., 2021, 17, 1701-1714
     DOI: 10.1021/acs.jctc.0c01306
   
   with help from (in alphabetical order)
   P. Atkinson, C. Bannwarth, F. Bohle, G. Brandenburg, E. Caldeweyher
   M. Checinski, S. Dohm, S. Ehlert, S. Ehrlich, I. Gerasimov, C. Hölzer
   A. Katbashev, J. Koopman, C. Lavigne, S. Lehtola, F. März, M. Müller,
   F. Musil, H. Neugebauer, J. Pisarek, C. Plett, P. Pracht, F. Pultar,
   J. Seibert, P. Shushkov, S. Spicher, M. Stahn, M. Steiner, T. Strunk,
   J. Stückrath, T. Rose, and J. Unsleber
   
 * started run on 2026/09/12 at 20:31:31.335     

           -------------------------------------------------
          |                Calculation Setup                |
           -------------------------------------------------

          program call               : xtb structure.xyz --gfn 1 --chrg -3 --uhf 0 --alpb water
          coordinate file            : structure.xyz
          omp threads                :                     8

   ID    Z sym.   atoms
    1    6 C      1, 2, 9, 10, 17, 18, 25, 26, 33, 34, 41-43, 45, 47
    2   16 S      3, 11, 19, 27, 35, 60-63
    3    1 H      4-8, 12-16, 20-24, 28-32, 36-40, 48-55
    4    7 N      44, 46
    5   26 Fe     56-59, 64

           -------------------------------------------------
          |                 G F N 1 - x T B                 |
           -------------------------------------------------

        Reference                      10.1021/acs.jctc.7b00118
      * Hamiltonian:
        H0-scaling (s, p, d)           1.850000    2.250000    2.000000
        zeta-weighting                 0.000000
      * Dispersion:
        s8                             2.400000
        a1                             0.630000
        a2                             5.000000
        s9                             0.000000
      * Repulsion:
        kExp                           1.500000
        rExp                           1.000000
      * Coulomb:
        alpha                          2.000000
        third order                    atomic
        anisotropic                    false
      * Halogen bond correction:
        rad-scale                      1.300000
        damping                        0.440000

      * Solvation model:               ALPB
        Solvent                        water
        Parameter file                 internal GFN1-xTB/ALPB
        Dielectric constant                8.0200E+01
        Reference state                gsolv [1 M gas/solution]
        Free energy shift                  4.2456E-03 Eh       2.6642E+00 kcal/mol
        Temperature                        2.9815E+02 K
        Density                            1.0000E+00 kg/L
        Solvent mass                       1.8000E+01 g/mol
        Interaction kernel             P16
        Born radius scaling (c1)           1.9452E+00
        Born radii integrator          GBOBC
        Born offset                        0.0000E+00 a0       0.0000E+00 AA
        H-bond correction              true
        Ion screening                  false
        Surface tension                    1.0000E-05 Eh       1.5569E+01 dyn/cm
        Grid points                               230 per atom

          ...................................................
          :                      SETUP                      :
          :.................................................:
          :  # basis functions                 274          :
          :  # atomic orbitals                 260          :
          :  # shells                          142          :
          :  # electrons                       200          :
          :  # halogen bonds                     0          :
          :  max. iterations                   250          :
          :  Hamiltonian                  GFN1-xTB          :
          :  restarted?                      false          :
          :  GBSA solvation                   true          :
          :  PC potential                    false          :
          :  electronic temp.          300.0000000     K    :
          :  accuracy                    1.0000000          :
          :  -> integral cutoff          0.2500000E+02      :
          :  -> integral neglect         0.1000000E-07      :
          :  -> SCF convergence          0.1000000E-05 Eh   :
          :  -> wf. convergence          0.2000000E-04 e    :
          :  Broyden damping             0.4000000          :
          ...................................................

 iter      E             dE          RMSdq      gap      omega  full diag
   1    -72.8236283 -0.728236E+02  0.162E+01    0.13       0.0  T
   2     79.7902473  0.152614E+03  0.265E+01    0.10       1.0  T
   3    -62.5802487 -0.142370E+03  0.129E+01    0.16       1.0  T
   4      0.9854565  0.635657E+02  0.170E+01    0.12       1.0  T
   5    -43.9677642 -0.449532E+02  0.137E+01    0.08       1.0  T
   6    -54.5457397 -0.105780E+02  0.125E+01    0.16       1.0  T
   7    -69.6910701 -0.151453E+02  0.113E+01    0.07       1.0  T
   8    -42.7009927  0.269901E+02  0.139E+01    1.83       1.0  T
   9    -62.3795989 -0.196786E+02  0.116E+01    0.12       1.0  T
  10    -78.7268551 -0.163473E+02  0.940E+00    0.08       1.0  T
  11    -86.1114109 -0.738456E+01  0.832E+00    0.11       1.0  T
  12    -95.6873946 -0.957598E+01  0.622E+00    0.11       1.0  T
  13    -93.1926232  0.249477E+01  0.642E+00    0.15       1.0  T
  14    -95.7503290 -0.255771E+01  0.595E+00    0.07       1.0  T
  15   -100.1017129 -0.435138E+01  0.470E+00    0.20       1.0  T
  16    -87.9865441  0.121152E+02  0.784E+00    0.09       1.0  T
  17    -90.2523857 -0.226584E+01  0.734E+00    0.07       1.0  T
  18    -90.6314261 -0.379040E+00  0.717E+00    0.10       1.0  T
  19    -99.8250735 -0.919365E+01  0.472E+00    0.14       1.0  T
  20   -103.4160911 -0.359102E+01  0.328E+00    0.06       1.0  T
  21   -102.7360504  0.680041E+00  0.368E+00    0.05       1.0  T
  22   -105.2140889 -0.247804E+01  0.203E+00    0.07       1.0  T
  23   -104.7536895  0.460399E+00  0.240E+00    0.07       1.0  T
  24   -105.4289179 -0.675228E+00  0.171E+00    0.07       1.0  T
  25   -105.9972635 -0.568346E+00  0.794E-01    0.07       1.0  T
  26   -105.8335958  0.163668E+00  0.112E+00    0.06       1.0  T
  27   -106.0891772 -0.255581E+00  0.476E-01    0.06       1.0  T
  28   -106.1008409 -0.116636E-01  0.430E-01    0.05       1.0  T
  29   -106.1367705 -0.359296E-01  0.190E-01    0.05       1.0  T
  30   -106.1360469  0.723634E-03  0.193E-01    0.05       1.0  T
  31   -106.1426300 -0.658316E-02  0.984E-02    0.05       1.0  T
  32   -106.1442239 -0.159389E-02  0.583E-02    0.06       1.0  T
  33   -106.1445126 -0.288720E-03  0.449E-02    0.06       1.0  T
  34   -106.1448413 -0.328729E-03  0.264E-02    0.06       1.0  T
  35   -106.1447514  0.899563E-04  0.318E-02    0.06       1.0  T
  36   -106.1449271 -0.175705E-03  0.176E-02    0.06       1.0  T
  37   -106.1449560 -0.289381E-04  0.128E-02    0.06       1.0  T
  38   -106.1449761 -0.200946E-04  0.864E-03    0.06       1.4  T
  39   -106.1449933 -0.171307E-04  0.244E-03    0.06       5.1  T
  40   -106.1449939 -0.628780E-06  0.179E-03    0.06       7.0  T
  41   -106.1449946 -0.741669E-06  0.440E-04    0.06      28.4  T
  42   -106.1449947 -0.427507E-07  0.115E-04    0.06     108.2  T
  43   -106.1449947  0.141060E-08  0.132E-04    0.06      94.7  T

   *** convergence criteria satisfied after 43 iterations ***

         #    Occupation            Energy/Eh            Energy/eV
      -------------------------------------------------------------
         1        2.0000           -0.7623017             -20.7433
       ...           ...                  ...                  ...
        94        1.9997           -0.2189770              -5.9587
        95        1.9995           -0.2185538              -5.9472
        96        1.9993           -0.2181475              -5.9361
        97        1.9977           -0.2170114              -5.9052
        98        1.9812           -0.2150299              -5.8513
        99        1.9033           -0.2134339              -5.8078
       100        1.5622           -0.2118113              -5.7637 (HOMO)
       101        0.5571           -0.2096984              -5.7062 (LUMO)
       102        0.0000           -0.1998272              -5.4376
       103        0.0000           -0.1968240              -5.3559
       104                         -0.1898777              -5.1668
       105                         -0.1888593              -5.1391
       ...                                ...                  ...
       260                         14.7562238             401.5373
      -------------------------------------------------------------
                  HL-Gap            0.0021129 Eh            0.0575 eV
             Fermi-level           -0.2106026 Eh           -5.7308 eV

 SCC (total)                   0 d,  0 h,  0 min,  4.899 sec
 SCC setup                      ...        0 min,  0.005 sec (  0.096%)
 Dispersion                     ...        0 min,  0.003 sec (  0.058%)
 classical contributions        ...        0 min,  0.000 sec (  0.010%)
 integral evaluation            ...        0 min,  0.035 sec (  0.707%)
 iterations                     ...        0 min,  4.691 sec ( 95.750%)
 molecular gradient             ...        0 min,  0.114 sec (  2.320%)
 printout                       ...        0 min,  0.052 sec (  1.055%)

         :::::::::::::::::::::::::::::::::::::::::::::::::::::
         ::                     SUMMARY                     ::
         :::::::::::::::::::::::::::::::::::::::::::::::::::::
         :: total energy            -105.339448512729 Eh    ::
         :: total w/o Gsasa/hb      -105.335476578838 Eh    ::
         :: gradient norm              0.023318079696 Eh/a0 ::
         :: HOMO-LUMO gap              0.057494813380 eV    ::
         ::.................................................::
         :: SCC energy              -106.144994666163 Eh    ::
         :: -> electrostatic           0.584755999928 Eh    ::
         :: -> Gsolv                  -0.342945111830 Eh    ::
         ::    -> Gelec               -0.338973177939 Eh    ::
         ::    -> Gsasa               -0.006639078238 Eh    ::
         ::    -> Ghb                 -0.001578462324 Eh    ::
         ::    -> Gshift               0.004245606671 Eh    ::
         :: repulsion energy           0.867011450946 Eh    ::
         :: dispersion energy         -0.061465297512 Eh    ::
         :: halogen bond corr.         0.000000000000 Eh    ::
         :: add. restraining           0.000000000000 Eh    ::
         :: total charge              -3.000000000000 e     ::
         :::::::::::::::::::::::::::::::::::::::::::::::::::::

           -------------------------------------------------
          |                Property Printout                |
           -------------------------------------------------

    * Orbital Energies and Occupations

         #    Occupation            Energy/Eh            Energy/eV
      -------------------------------------------------------------
         1        2.0000           -0.7623017             -20.7433
       ...           ...                  ...                  ...
        88        2.0000           -0.2312883              -6.2937
        89        2.0000           -0.2301396              -6.2624
        90        2.0000           -0.2257576              -6.1432
        91        2.0000           -0.2236102              -6.0847
        92        2.0000           -0.2233140              -6.0767
        93        1.9999           -0.2202288              -5.9927
        94        1.9997           -0.2189770              -5.9587
        95        1.9995           -0.2185538              -5.9472
        96        1.9993           -0.2181475              -5.9361
        97        1.9977           -0.2170114              -5.9052
        98        1.9812           -0.2150299              -5.8513
        99        1.9033           -0.2134339              -5.8078
       100        1.5622           -0.2118113              -5.7637 (HOMO)
       101        0.5571           -0.2096984              -5.7062 (LUMO)
       102        0.0000           -0.1998272              -5.4376
       103        0.0000           -0.1968240              -5.3559
       104                         -0.1898777              -5.1668
       105                         -0.1888593              -5.1391
       106                         -0.1863624              -5.0712
       107                         -0.1798721              -4.8946
       108                         -0.1773016              -4.8246
       109                         -0.1680634              -4.5732
       110                         -0.1640693              -4.4646
       111                         -0.1621420              -4.4121
       ...                                ...                  ...
       260                         14.7562238             401.5373
      -------------------------------------------------------------
                  HL-Gap            0.0021129 Eh            0.0575 eV
             Fermi-level           -0.2106026 Eh           -5.7308 eV

  Mulliken/CM5 charges         n(s)   n(p)   n(d)
     1C    -0.05522 -0.20272   1.001  3.054  0.000
     2C     0.01503 -0.07894   1.026  2.959  0.000
     3S    -0.28544 -0.37707   1.899  4.394 -0.008
     4H    -0.02205  0.02852   1.022  0.000  0.000
     5H    -0.00370  0.05107   1.004  0.000  0.000
     6H    -0.01197  0.04018   1.012  0.000  0.000
     7H    -0.03151  0.02606   1.032  0.000  0.000
     8H    -0.04268  0.01252   1.043  0.000  0.000
     9C    -0.06874 -0.21675   1.004  3.064  0.000
    10C     0.02104 -0.07290   1.024  2.955  0.000
    11S    -0.35545 -0.43534   1.905  4.461 -0.011
    12H    -0.01146  0.03912   1.011  0.000  0.000
    13H    -0.01017  0.04226   1.010  0.000  0.000
    14H    -0.00874  0.04367   1.009  0.000  0.000
    15H    -0.03358  0.02089   1.034  0.000  0.000
    16H    -0.02241  0.03224   1.022  0.000  0.000
    17C    -0.05869 -0.20690   1.002  3.056  0.000
    18C     0.02343 -0.07057   1.023  2.954  0.000
    19S    -0.35916 -0.44025   1.901  4.468 -0.011
    20H    -0.01760  0.03287   1.018  0.000  0.000
    21H    -0.01387  0.03830   1.014  0.000  0.000
    22H     0.00952  0.06176   0.990  0.000  0.000
    23H    -0.04680  0.00826   1.047  0.000  0.000
    24H    -0.02632  0.02838   1.026  0.000  0.000
    25C    -0.05868 -0.20617   1.002  3.057  0.000
    26C     0.02488 -0.06881   1.022  2.953  0.000
    27S    -0.37333 -0.45141   1.900  4.485 -0.011
    28H    -0.01788  0.03419   1.018  0.000  0.000
    29H    -0.02262  0.02790   1.023  0.000  0.000
    30H    -0.00599  0.04902   1.006  0.000  0.000
    31H    -0.02943  0.02495   1.029  0.000  0.000
    32H    -0.04942  0.00570   1.049  0.000  0.000
    33C    -0.06033 -0.20836   1.002  3.058  0.000
    34C     0.02621 -0.06741   1.025  2.949  0.000
    35S    -0.34762 -0.43680   1.897  4.458 -0.008
    36H    -0.00125  0.05091   1.001  0.000  0.000
    37H    -0.01670  0.03557   1.017  0.000  0.000
    38H    -0.01412  0.03651   1.014  0.000  0.000
    39H    -0.01864  0.03886   1.019  0.000  0.000
    40H    -0.04658  0.00848   1.047  0.000  0.000
    41C    -0.07336 -0.22289   1.005  3.068  0.000
    42C    -0.04084 -0.14210   1.022  3.019  0.000
    43C     0.05035  0.11068   1.045  2.905  0.000
    44N    -0.29546 -0.65312   1.429  3.867  0.000
    45C     0.19332  0.28703   0.992  2.814  0.000
    46N    -0.26165 -0.53764   1.536  3.726  0.000
    47C     0.05770  0.08082   1.021  2.922  0.000
    48H     0.02176  0.07495   0.978  0.000  0.000
    49H     0.02425  0.07649   0.976  0.000  0.000
    50H     0.02412  0.07552   0.976  0.000  0.000
    51H     0.02072  0.07803   0.979  0.000  0.000
    52H     0.02345  0.07907   0.977  0.000  0.000
    53H     0.22882  0.42553   0.771  0.000  0.000
    54H     0.00526  0.08095   0.995  0.000  0.000
    55H    -0.00162  0.06514   1.002  0.000  0.000
    56Fe   -0.03265  0.24604   0.150  0.961  6.922
    57Fe   -0.03510  0.25165   0.172  0.911  6.952
    58Fe   -0.03513  0.23556   0.162  0.966  6.907
    59Fe   -0.03210  0.24262   0.167  0.958  6.907
    60S    -0.07777 -0.30964   1.862  4.230 -0.015
    61S    -0.17419 -0.40475   1.864  4.329 -0.019
    62S    -0.09159 -0.32409   1.861  4.245 -0.015
    63S    -0.01859 -0.25960   1.860  4.174 -0.016
    64Fe   -0.05162  0.16597   0.227  0.862  6.962

Wiberg/Mayer (AO) data.
largest (>0.10) Wiberg bond orders for each atom

 ---------------------------------------------------------------------------
     #   Z sym  total        # sym  WBO       # sym  WBO       # sym  WBO
 ---------------------------------------------------------------------------
     1   6 C    3.989 --     2 C    1.018     6 H    0.988     4 H    0.985
                             5 H    0.974
     2   6 C    3.973 --     1 C    1.018     8 H    0.986     7 H    0.982
                             3 S    0.939
     3  16 S    2.037 --     2 C    0.939    57 Fe   0.733
     4   1 H    1.010 --     1 C    0.985
     5   1 H    1.058 --     1 C    0.974
     6   1 H    1.029 --     1 C    0.988
     7   1 H    1.025 --     2 C    0.982
     8   1 H    1.033 --     2 C    0.986
     9   6 C    3.990 --    10 C    1.017    13 H    0.988    14 H    0.988
                            12 H    0.985
    10   6 C    3.985 --     9 C    1.017    15 H    0.988    16 H    0.986
                            11 S    0.965
    11  16 S    1.924 --    10 C    0.965    56 Fe   0.594    54 H    0.105
    12   1 H    1.009 --     9 C    0.985
    13   1 H    1.032 --     9 C    0.988
    14   1 H    1.035 --     9 C    0.988
    15   1 H    1.028 --    10 C    0.988
    16   1 H    1.025 --    10 C    0.986
    17   6 C    3.992 --    18 C    1.015    21 H    0.988    20 H    0.986
                            22 H    0.982
    18   6 C    3.984 --    17 C    1.015    23 H    0.987    24 H    0.985
                            19 S    0.970
    19  16 S    1.909 --    18 C    0.970    58 Fe   0.690
    20   1 H    1.011 --    17 C    0.986
    21   1 H    1.032 --    17 C    0.988
    22   1 H    1.026 --    17 C    0.982
    23   1 H    1.035 --    18 C    0.987
    24   1 H    1.028 --    18 C    0.985
    25   6 C    3.987 --    26 C    1.016    28 H    0.988    29 H    0.986
                            30 H    0.970
    26   6 C    3.983 --    25 C    1.016    32 H    0.986    31 H    0.985
                            27 S    0.969
    27  16 S    1.877 --    26 C    0.969    59 Fe   0.670
    28   1 H    1.031 --    25 C    0.988
    29   1 H    1.011 --    25 C    0.986
    30   1 H    1.065 --    25 C    0.970
    31   1 H    1.023 --    26 C    0.985
    32   1 H    1.034 --    26 C    0.986
    33   6 C    3.992 --    34 C    1.016    37 H    0.988    36 H    0.987
                            38 H    0.986
    34   6 C    3.983 --    33 C    1.016    40 H    0.988    39 H    0.970
                            35 S    0.956
    35  16 S    1.943 --    34 C    0.956    64 Fe   0.814
    36   1 H    1.028 --    33 C    0.987
    37   1 H    1.033 --    33 C    0.988
    38   1 H    1.011 --    33 C    0.986
    39   1 H    1.057 --    34 C    0.970
    40   1 H    1.034 --    34 C    0.988
    41   6 C    3.997 --    42 C    1.000    48 H    0.989    50 H    0.988
                            49 H    0.988
    42   6 C    3.998 --    43 C    1.014    41 C    1.000    52 H    0.978
                            51 H    0.977
    43   6 C    3.915 --    47 C    1.578    44 N    1.141    42 C    1.014
                            45 C    0.101
    44   7 N    3.432 --    45 C    1.183    43 C    1.141    53 H    0.914
    45   6 C    3.891 --    46 N    1.466    44 N    1.183    54 H    0.937
                            43 C    0.101    57 Fe   0.101
    46   7 N    3.276 --    45 C    1.466    47 C    1.230    57 Fe   0.428
    47   6 C    3.964 --    43 C    1.578    46 N    1.230    55 H    0.973
    48   1 H    1.008 --    41 C    0.989
    49   1 H    1.011 --    41 C    0.988
    50   1 H    1.005 --    41 C    0.988
    51   1 H    1.007 --    42 C    0.977
    52   1 H    1.008 --    42 C    0.978
    53   1 H    0.951 --    44 N    0.914
    54   1 H    1.077 --    45 C    0.937    11 S    0.105
    55   1 H    1.046 --    47 C    0.973
    56  26 Fe   5.580 --    62 S    0.852    58 Fe   0.851    59 Fe   0.818
                            61 S    0.803    63 S    0.718    11 S    0.594
                            57 Fe   0.480    64 Fe   0.239
    57  26 Fe   4.705 --    62 S    0.833    64 Fe   0.734     3 S    0.733
                            63 S    0.538    56 Fe   0.480    46 N    0.428
                            59 Fe   0.384    58 Fe   0.185    45 C    0.101
    58  26 Fe   5.233 --    61 S    0.858    56 Fe   0.851    60 S    0.747
                            59 Fe   0.735    19 S    0.690    63 S    0.644
                            64 Fe   0.359    57 Fe   0.185
    59  26 Fe   5.487 --    62 S    0.828    56 Fe   0.818    61 S    0.757
                            60 S    0.744    58 Fe   0.735    27 S    0.670
                            57 Fe   0.384    64 Fe   0.336
    60  16 S    2.709 --    64 Fe   0.951    58 Fe   0.747    59 Fe   0.744
    61  16 S    2.600 --    58 Fe   0.858    56 Fe   0.803    59 Fe   0.757
    62  16 S    2.710 --    56 Fe   0.852    57 Fe   0.833    59 Fe   0.828
    63  16 S    2.745 --    64 Fe   0.718    56 Fe   0.718    58 Fe   0.644
                            57 Fe   0.538
Note: The following floating-point exceptions are signalling: IEEE_UNDERFLOW_FLAG IEEE_DENORMAL
normal termination of xtb
    64  26 Fe   4.415 --    60 S    0.951    35 S    0.814    57 Fe   0.734
                            63 S    0.718    58 Fe   0.359    59 Fe   0.336
                            56 Fe   0.239
 ---------------------------------------------------------------------------

Topologies differ in total number of bonds
Writing topology from bond orders to xtbtopo.mol

 dipole moment from electron density (au)
     X       Y       Z   
-308.2064 -64.6559-278.4133  total (Debye): 1068.397


           -------------------------------------------------
          | TOTAL ENERGY             -105.339448512729 Eh   |
          | GRADIENT NORM               0.023318079696 Eh/α |
          | HOMO-LUMO GAP               0.057494813380 eV   |
           -------------------------------------------------

------------------------------------------------------------------------
 * finished run on 2026/09/12 at 20:31:36.290     
------------------------------------------------------------------------
 total:
 * wall-time:     0 d,  0 h,  0 min,  4.956 sec
 *  cpu-time:     0 d,  0 h,  0 min,  6.420 sec
 * ratio c/w:     1.295 speedup
 SCF:
 * wall-time:     0 d,  0 h,  0 min,  4.902 sec
 *  cpu-time:     0 d,  0 h,  0 min,  6.085 sec
 * ratio c/w:     1.241 speedup

