64
 energy: -106.494211591418 gnorm: 0.001647928705 xtb: 6.6.1 (unknown)
C           53.68491339253495       14.76955785334538       52.87482554306979
C           53.53191416745563       15.73057949029121       51.69820276690101
S           54.32073966293304       15.06749307317636       50.19135972600850
H           53.25156839953529       15.18654437781764       53.79050999152885
H           53.18868355414882       13.81691154265437       52.65179097845406
H           54.74490328062951       14.56590550133437       53.05212998392629
H           52.46707431762401       15.96071857972824       51.54979508725483
H           54.03681504064622       16.67600209489264       51.93810049450197
C           47.74412721477458        9.20738693704957       49.67004778369070
C           49.11300979038197        9.57917054582311       50.23600407391179
S           49.89236944141333       10.75177270587847       49.07633449759363
H           47.21428371213432        8.49716214772432       50.31288621389460
H           47.13361027039961       10.10675118858523       49.56500568922792
H           47.86212327906129        8.76507907878303       48.67832030645592
H           48.97754329471802       10.03234828375370       51.22829412850846
H           49.70902978719429        8.66507605448421       50.36401235872432
C           56.72310951684253        7.17864955278649       47.34298421307043
C           55.36781364822382        7.19320137656537       46.63660978418387
S           54.88064878892624        8.87695115562978       46.14479113149404
H           57.05211165454487        6.15621523571626       47.56049379994548
H           57.47406671577032        7.65679379392385       46.70880571088149
H           56.66653235160313        7.73521647333477       48.28296976503239
H           55.44337908445082        6.59427224112340       45.71796485052479
H           54.61686043512346        6.71232293213749       47.27988925024496
C           58.01858385010777       10.12041641798741       51.54340975555294
C           57.04412056518054        9.08273081455887       52.10041896431311
S           55.41051364389374        9.78988730644877       52.48733148415624
H           58.09534973762306       10.96426261849474       52.23512733695587
H           59.01778996792237        9.69285881115406       51.40273810160722
H           57.65858744900248       10.49870120715942       50.57782472487985
H           56.97440669803483        8.23652832307952       51.40136762296981
H           57.45027914638921        8.68965104097040       53.04331309982424
C           57.27903928005369       16.27385546964472       47.80230392045050
C           55.90640467578389       15.92879036596831       47.22790667395251
S           55.91905869619773       14.25069024697013       46.51457172203417
H           57.50597518672328       15.62770724666155       48.65395669229018
H           58.04870130007686       16.11782432500607       47.04209349034470
H           57.32327899279601       17.31722710233701       48.13173081617368
H           55.14542046833525       16.06332925161378       48.01218273001015
H           55.67704090429574       16.63340579233675       46.41647044732309
C           49.44508653490267       18.10136073822106       50.88999135653716
C           49.47204093356079       17.58815912342656       49.44401482066571
C           50.05888178002875       16.21576149147908       49.37840415092199
N           49.32123793296086       15.09194613737300       49.66398060570022
C           50.16189971377434       14.01940894632307       49.62596559414736
N           51.39058756941784       14.41204852842650       49.33769989991666
C           51.33322921739274       15.77591553593878       49.17697017680150
H           48.84860714422359       17.43603837959665       51.51536134063191
H           50.45720889093879       18.14657344401715       51.29672911683360
H           49.00773085969441       19.09842708056157       50.92763431730789
H           48.45171986982728       17.58215361210476       49.04897234047387
H           50.06730650307635       18.27106915573121       48.82986122871546
H           48.33684658237434       15.07686593541113       49.85133902745842
H           49.82605068253753       12.98908248968692       49.75286323305062
H           52.21275880409407       16.35162058647138       48.92637736384622
Fe          52.20819938770467       10.68595248463101       49.33373691950928
Fe          53.11107487977818       13.35604164390941       49.35428214221576
Fe          54.20837701166217        9.93346208772151       48.04861936321741
Fe          54.32231344287290       10.29681954830443       50.52888828856448
S           55.76121144111315       11.09706395432752       49.06846752212526
S           53.15991700783308        8.76108524599450       49.49437047121813
S           52.92264655199142       11.88737355998056       50.95855779898089
S           53.02953332879469       11.81691220897968       47.61965372682761
Fe 55.06944244586236 12.71281377441097 47.87724049247445
