    28
 geometry
 Fe                    0.95459415     0.95459415     0.95459415
 Fe                    0.95459415    -0.95459415    -0.95459415
 Fe                   -0.95459415     0.95459415    -0.95459415
 Fe                   -0.95459415    -0.95459415     0.95459415
 S                    -1.29458595     1.29458595     1.29458595
 S                     1.29458595    -1.29458595     1.29458595
 S                     1.29458595     1.29458595    -1.29458595
 S                    -1.29458595    -1.29458595    -1.29458595
 S                     2.27095277     2.27095277     2.27095277
 C                     3.32173026     3.32173026     3.32173026
 H                     2.80483419     4.25816752     3.53150086
 H                     4.25816752     3.53150086     2.80483419
 H                     3.53150086     2.80483419     4.25816752
 S                     2.27095277    -2.27095277    -2.27095277
 C                     3.32173026    -3.32173026    -3.32173026
 H                     4.25816752    -2.80483419    -3.53150086
 H                     2.80483419    -3.53150086    -4.25816752
 H                     3.53150086    -4.25816752    -2.80483419
 S                    -2.27095277     2.27095277    -2.27095277
 C                    -3.32173026     3.32173026    -3.32173026
 H                    -4.25816752     2.80483419    -3.53150086
 H                    -2.80483419     3.53150086    -4.25816752
 H                    -3.53150086     4.25816752    -2.80483419
 S                    -2.27095277    -2.27095277     2.27095277
 C                    -3.32173026    -3.32173026     3.32173026
 H                    -2.80483419    -4.25816752     3.53150086
 H                    -4.25816752    -3.53150086     2.80483419
 H                    -3.53150086    -2.80483419     4.25816752
