    28
 geometry
 Fe                    0.93719429     0.96270223     0.96450877
 Fe                    0.93670326    -0.96337448    -0.96175262
 Fe                   -0.93669723     0.96337172    -0.96174568
 Fe                   -0.93718391    -0.96270093     0.96451212
 S                    -1.31438141     1.28827254     1.28916663
 S                     1.31431995    -1.28831775     1.28917900
 S                     1.31524255     1.28745416    -1.28620020
 S                    -1.31528423    -1.28744205    -1.28615503
 S                     2.09905476     2.32798090     2.33809085
 C                     3.29178071     3.30266749     3.30283000
 H                     2.83548645     4.31536217     3.54248201
 H                     4.28076235     3.53341276     2.81505217
 H                     3.53737455     2.82763294     4.29952540
 S                     2.10080256    -2.33352916    -2.32831985
 C                     3.29164393    -3.30123442    -3.30181569
 H                     4.28102551    -2.81448796    -3.53321489
 H                     2.83503037    -3.54211474    -4.31399776
 H                     3.53727656    -4.29755634    -2.82633366
 S                    -2.10080570     2.33348439    -2.32833124
 C                    -3.29164474     3.30123571    -3.30181447
 H                    -4.28103189     2.81449048    -3.53321421
 H                    -2.83502057     3.54211547    -4.31399511
 H                    -3.53727144     4.29755802    -2.82632298
 S                    -2.09905141    -2.32796455     2.33801363
 C                    -3.29174755    -3.30264136     3.30280836
 H                    -2.83547491    -4.31533694     3.54248337
 H                    -4.28073576    -3.53341412     2.81505676
 H                    -3.53736703    -2.82762618     4.29950428
