      -----------------------------------------------------------      
     |                   =====================                   |     
     |                           x T B                           |     
     |                   =====================                   |     
     |                         S. Grimme                         |     
     |          Mulliken Center for Theoretical Chemistry        |     
     |                    University of Bonn                     |     
      -----------------------------------------------------------      

   * xtb version 6.6.1 (unknown) compiled by 'builduser@buildhost' on 2023-08-07

   xtb is free software: you can redistribute it and/or modify it under
   the terms of the GNU Lesser General Public License as published by
   the Free Software Foundation, either version 3 of the License, or
   (at your option) any later version.
   
   xtb is distributed in the hope that it will be useful,
   but WITHOUT ANY WARRANTY; without even the implied warranty of
   MERCHANTABILITY or FITNESS FOR A PARTICULAR PURPOSE.  See the
   GNU Lesser General Public License for more details.
   
   Cite this work as:
   * C. Bannwarth, E. Caldeweyher, S. Ehlert, A. Hansen, P. Pracht,
     J. Seibert, S. Spicher, S. Grimme, WIREs Comput. Mol. Sci., 2020, 11,
     e01493. DOI: 10.1002/wcms.1493
   
   for GFN2-xTB:
   * C. Bannwarth, S. Ehlert and S. Grimme., J. Chem. Theory Comput., 2019,
     15, 1652-1671. DOI: 10.1021/acs.jctc.8b01176
   for GFN1-xTB:
   * S. Grimme, C. Bannwarth, P. Shushkov, J. Chem. Theory Comput., 2017,
     13, 1989-2009. DOI: 10.1021/acs.jctc.7b00118
   for GFN0-xTB:
   * P. Pracht, E. Caldeweyher, S. Ehlert, S. Grimme, ChemRxiv, 2019, preprint.
     DOI: 10.26434/chemrxiv.8326202.v1
   for GFN-FF:
   * S. Spicher and S. Grimme, Angew. Chem. Int. Ed., 2020, 59, 15665-15673.
     DOI: 10.1002/anie.202004239
   
   for ALPB and GBSA implicit solvation:
   * S. Ehlert, M. Stahn, S. Spicher, S. Grimme, J. Chem. Theory Comput.,
     2021, 17, 4250-4261. DOI: 10.1021/acs.jctc.1c00471
   
   for DFT-D4:
   * E. Caldeweyher, C. Bannwarth and S. Grimme, J. Chem. Phys., 2017,
     147, 034112. DOI: 10.1063/1.4993215
   * E. Caldeweyher, S. Ehlert, A. Hansen, H. Neugebauer, S. Spicher,
     C. Bannwarth and S. Grimme, J. Chem. Phys., 2019, 150, 154122.
     DOI: 10.1063/1.5090222
   * E. Caldeweyher, J.-M. Mewes, S. Ehlert and S. Grimme, Phys. Chem. Chem. Phys.
     2020, 22, 8499-8512. DOI: 10.1039/D0CP00502A
   
   for sTDA-xTB:
   * S. Grimme and C. Bannwarth, J. Chem. Phys., 2016, 145, 054103.
     DOI: 10.1063/1.4959605
   
   in the mass-spec context:
   * V. Asgeirsson, C. Bauer and S. Grimme, Chem. Sci., 2017, 8, 4879.
     DOI: 10.1039/c7sc00601b
   * J. Koopman and S. Grimme, ACS Omega 2019, 4, 12, 15120-15133.
     DOI: 10.1021/acsomega.9b02011
   
   for metadynamics refer to:
   * S. Grimme, J. Chem. Theory Comput., 2019, 155, 2847-2862
     DOI: 10.1021/acs.jctc.9b00143
   
   for SPH calculations refer to:
   * S. Spicher and S. Grimme, J. Chem. Theory Comput., 2021, 17, 1701-1714
     DOI: 10.1021/acs.jctc.0c01306
   
   with help from (in alphabetical order)
   P. Atkinson, C. Bannwarth, F. Bohle, G. Brandenburg, E. Caldeweyher
   M. Checinski, S. Dohm, S. Ehlert, S. Ehrlich, I. Gerasimov, C. Hölzer
   A. Katbashev, J. Koopman, C. Lavigne, S. Lehtola, F. März, M. Müller,
   F. Musil, H. Neugebauer, J. Pisarek, C. Plett, P. Pracht, F. Pultar,
   J. Seibert, P. Shushkov, S. Spicher, M. Stahn, M. Steiner, T. Strunk,
   J. Stückrath, T. Rose, and J. Unsleber
   
 * started run on 2026/09/12 at 20:31:25.232     

           -------------------------------------------------
          |                Calculation Setup                |
           -------------------------------------------------

          program call               : xtb structure.xyz --gfn 1 --chrg -3 --uhf 0 --alpb water
          coordinate file            : structure.xyz
          omp threads                :                     8

   ID    Z sym.   atoms
    1    6 C      1, 2, 9, 10, 17, 18, 25, 26, 33, 34, 41-43, 45, 47, 65
    2   16 S      3, 11, 19, 27, 35, 60-63
    3    1 H      4-8, 12-16, 20-24, 28-32, 36-40, 48-55
    4    7 N      44, 46
    5   26 Fe     56-59, 64
    6    8 O      66, 67

molecular fragmentation (1/2 indicates fragments):
1111111111111111111111111111111111111111111111111111111111111111112
# atoms in fragment 1/2:    66     1
 fragment masses (1/2) :      837.26       16.00
CMA distance (Bohr)    :   7.757
constraining FC (au)   :  0.0500

           -------------------------------------------------
          |                 G F N 1 - x T B                 |
           -------------------------------------------------

        Reference                      10.1021/acs.jctc.7b00118
      * Hamiltonian:
        H0-scaling (s, p, d)           1.850000    2.250000    2.000000
        zeta-weighting                 0.000000
      * Dispersion:
        s8                             2.400000
        a1                             0.630000
        a2                             5.000000
        s9                             0.000000
      * Repulsion:
        kExp                           1.500000
        rExp                           1.000000
      * Coulomb:
        alpha                          2.000000
        third order                    atomic
        anisotropic                    false
      * Halogen bond correction:
        rad-scale                      1.300000
        damping                        0.440000

      * Solvation model:               ALPB
        Solvent                        water
        Parameter file                 internal GFN1-xTB/ALPB
        Dielectric constant                8.0200E+01
        Reference state                gsolv [1 M gas/solution]
        Free energy shift                  4.2456E-03 Eh       2.6642E+00 kcal/mol
        Temperature                        2.9815E+02 K
        Density                            1.0000E+00 kg/L
        Solvent mass                       1.8000E+01 g/mol
        Interaction kernel             P16
        Born radius scaling (c1)           1.9452E+00
        Born radii integrator          GBOBC
        Born offset                        0.0000E+00 a0       0.0000E+00 AA
        H-bond correction              true
        Ion screening                  false
        Surface tension                    1.0000E-05 Eh       1.5569E+01 dyn/cm
        Grid points                               230 per atom

          ...................................................
          :                      SETUP                      :
          :.................................................:
          :  # basis functions                 286          :
          :  # atomic orbitals                 272          :
          :  # shells                          148          :
          :  # electrons                       216          :
          :  # halogen bonds                     0          :
          :  max. iterations                   250          :
          :  Hamiltonian                  GFN1-xTB          :
          :  restarted?                      false          :
          :  GBSA solvation                   true          :
          :  PC potential                    false          :
          :  electronic temp.          300.0000000     K    :
          :  accuracy                    1.0000000          :
          :  -> integral cutoff          0.2500000E+02      :
          :  -> integral neglect         0.1000000E-07      :
          :  -> SCF convergence          0.1000000E-05 Eh   :
          :  -> wf. convergence          0.2000000E-04 e    :
          :  Broyden damping             0.4000000          :
          ...................................................

 iter      E             dE          RMSdq      gap      omega  full diag
   1    -84.9558964 -0.849559E+02  0.159E+01    0.09       0.0  T
   2     67.5776597  0.152534E+03  0.261E+01    0.09       1.0  T
   3    -93.9939359 -0.161572E+03  0.102E+01    0.01       1.0  T
   4    -31.0270810  0.629669E+02  0.153E+01    0.51       1.0  T
   5    -49.9856076 -0.189585E+02  0.143E+01    0.93       1.0  T
   6    -60.3701199 -0.103845E+02  0.130E+01    0.28       1.0  T
   7    -93.5057378 -0.331356E+02  0.951E+00    0.08       1.0  T
   8    -63.3526865  0.301531E+02  0.123E+01    0.24       1.0  T
   9    -95.4281337 -0.320754E+02  0.839E+00    0.15       1.0  T
  10    -78.4693204  0.169588E+02  0.107E+01    0.06       1.0  T
  11    -90.6841862 -0.122149E+02  0.908E+00    0.17       1.0  T
  12    -96.1160246 -0.543184E+01  0.855E+00    0.06       1.0  T
  13    -95.1731193  0.942905E+00  0.870E+00    0.03       1.0  T
  14   -102.6342409 -0.746112E+01  0.702E+00    0.20       1.0  T
  15   -105.7556211 -0.312138E+01  0.637E+00    0.16       1.0  T
  16   -103.8198521  0.193577E+01  0.682E+00    0.21       1.0  T
  17   -103.5427721  0.277080E+00  0.686E+00    0.21       1.0  T
  18   -103.3625568  0.180215E+00  0.676E+00    0.18       1.0  T
  19   -110.0778279 -0.671527E+01  0.489E+00    0.11       1.0  T
  20   -112.0853925 -0.200756E+01  0.421E+00    0.11       1.0  T
  21   -114.8625495 -0.277716E+01  0.328E+00    0.07       1.0  T
  22   -115.0752106 -0.212661E+00  0.312E+00    0.05       1.0  T
  23   -115.3448074 -0.269597E+00  0.294E+00    0.04       1.0  T
  24   -117.0267816 -0.168197E+01  0.160E+00    0.01       1.0  T
  25   -117.3278347 -0.301053E+00  0.116E+00    0.02       1.0  T
  26   -117.3247600  0.307464E-02  0.113E+00    0.02       1.0  T
  27   -117.4916700 -0.166910E+00  0.906E-01    0.01       1.0  T
  28   -117.5103784 -0.187084E-01  0.877E-01    0.01       1.0  T
  29   -117.4008568  0.109522E+00  0.108E+00    0.02       1.0  T
  30   -117.6023987 -0.201542E+00  0.616E-01    0.03       1.0  T
  31   -117.6379347 -0.355359E-01  0.482E-01    0.03       1.0  T
  32   -117.6724828 -0.345482E-01  0.303E-01    0.03       1.0  T
  33   -117.6968459 -0.243631E-01  0.765E-02    0.02       1.0  T
  34   -117.6962093  0.636622E-03  0.909E-02    0.02       1.0  T
  35   -117.6970653 -0.855957E-03  0.698E-02    0.02       1.0  T
  36   -117.6980885 -0.102324E-02  0.308E-02    0.02       1.0  T
  37   -117.6982739 -0.185352E-03  0.183E-02    0.02       1.0  T
  38   -117.6983235 -0.496282E-04  0.107E-02    0.02       1.1  T
  39   -117.6983548 -0.312998E-04  0.300E-03    0.02       4.1  T
  40   -117.6983554 -0.571393E-06  0.265E-03    0.02       4.6  T
  41   -117.6983569 -0.156267E-05  0.111E-03    0.02      11.0  T
  42   -117.6983571 -0.207839E-06  0.722E-04    0.02      16.9  T
  43   -117.6983573 -0.132733E-06  0.202E-04    0.02      60.6  T
  44   -117.6983573 -0.863609E-08  0.888E-05    0.02     137.6  T
  45   -117.6983573 -0.210528E-08  0.105E-05    0.02    1164.6  T

   *** convergence criteria satisfied after 45 iterations ***

         #    Occupation            Energy/Eh            Energy/eV
      -------------------------------------------------------------
         1        2.0000           -0.7699861             -20.9524
       ...           ...                  ...                  ...
       102        1.9993           -0.2429461              -6.6109
       103        1.9989           -0.2425558              -6.6003
       104        1.9954           -0.2412174              -6.5639
       105        1.9916           -0.2406436              -6.5482
       106        1.9269           -0.2385546              -6.4914
       107        1.7352           -0.2372319              -6.4554
       108        1.3588           -0.2361596              -6.4262 (HOMO)
       109        0.9940           -0.2354345              -6.4065 (LUMO)
       110        0.0000           -0.2238809              -6.0921
       111        0.0000           -0.2198364              -5.9821
       112                         -0.2149870              -5.8501
       113                         -0.2119027              -5.7662
       ...                                ...                  ...
       272                         14.8900585             405.1791
      -------------------------------------------------------------
                  HL-Gap            0.0007251 Eh            0.0197 eV
             Fermi-level           -0.2354460 Eh           -6.4068 eV

 SCC (total)                   0 d,  0 h,  0 min,  6.030 sec
 SCC setup                      ...        0 min,  0.004 sec (  0.074%)
 Dispersion                     ...        0 min,  0.004 sec (  0.069%)
 classical contributions        ...        0 min,  0.000 sec (  0.003%)
 integral evaluation            ...        0 min,  0.042 sec (  0.690%)
 iterations                     ...        0 min,  5.816 sec ( 96.461%)
 molecular gradient             ...        0 min,  0.111 sec (  1.845%)
 printout                       ...        0 min,  0.052 sec (  0.858%)

         :::::::::::::::::::::::::::::::::::::::::::::::::::::
         ::                     SUMMARY                     ::
         :::::::::::::::::::::::::::::::::::::::::::::::::::::
         :: total energy            -116.842571156707 Eh    ::
         :: total w/o Gsasa/hb      -116.838943143096 Eh    ::
         :: gradient norm              0.140218030002 Eh/a0 ::
         :: HOMO-LUMO gap              0.019730117187 eV    ::
         ::.................................................::
         :: SCC energy              -117.698357268691 Eh    ::
         :: -> electrostatic           0.690874356970 Eh    ::
         :: -> Gsolv                  -0.369790742519 Eh    ::
         ::    -> Gelec               -0.366162728908 Eh    ::
         ::    -> Gsasa               -0.005533636928 Eh    ::
         ::    -> Ghb                 -0.002339983354 Eh    ::
         ::    -> Gshift               0.004245606671 Eh    ::
         :: repulsion energy           0.921981771577 Eh    ::
         :: dispersion energy         -0.066195659593 Eh    ::
         :: halogen bond corr.         0.000000000000 Eh    ::
         :: add. restraining           0.000000000000 Eh    ::
         :: total charge              -2.999999999617 e     ::
         :::::::::::::::::::::::::::::::::::::::::::::::::::::

           -------------------------------------------------
          |                Property Printout                |
           -------------------------------------------------

    * Orbital Energies and Occupations

         #    Occupation            Energy/Eh            Energy/eV
      -------------------------------------------------------------
         1        2.0000           -0.7699861             -20.9524
       ...           ...                  ...                  ...
        96        2.0000           -0.2558612              -6.9623
        97        2.0000           -0.2538154              -6.9067
        98        2.0000           -0.2501612              -6.8072
        99        2.0000           -0.2485890              -6.7645
       100        2.0000           -0.2469005              -6.7185
       101        1.9999           -0.2452968              -6.6749
       102        1.9993           -0.2429461              -6.6109
       103        1.9989           -0.2425558              -6.6003
       104        1.9954           -0.2412174              -6.5639
       105        1.9916           -0.2406436              -6.5482
       106        1.9269           -0.2385546              -6.4914
       107        1.7352           -0.2372319              -6.4554
       108        1.3588           -0.2361596              -6.4262 (HOMO)
       109        0.9940           -0.2354345              -6.4065 (LUMO)
       110        0.0000           -0.2238809              -6.0921
       111        0.0000           -0.2198364              -5.9821
       112                         -0.2149870              -5.8501
       113                         -0.2119027              -5.7662
       114                         -0.2029846              -5.5235
       115                         -0.1986815              -5.4064
       116                         -0.1921892              -5.2297
       117                         -0.1906252              -5.1872
       118                         -0.1884910              -5.1291
       119                         -0.1854739              -5.0470
       ...                                ...                  ...
       272                         14.8900585             405.1791
      -------------------------------------------------------------
                  HL-Gap            0.0007251 Eh            0.0197 eV
             Fermi-level           -0.2354460 Eh           -6.4068 eV

  Mulliken/CM5 charges         n(s)   n(p)   n(d)
     1C    -0.06041 -0.20791   1.003  3.057  0.000
     2C     0.01623 -0.07772   1.027  2.957  0.000
     3S    -0.26148 -0.35251   1.897  4.375 -0.010
     4H    -0.01535  0.03523   1.015  0.000  0.000
     5H     0.00023  0.05501   1.000  0.000  0.000
     6H    -0.00717  0.04498   1.007  0.000  0.000
     7H    -0.02582  0.03180   1.026  0.000  0.000
     8H    -0.03344  0.02178   1.033  0.000  0.000
     9C    -0.07171 -0.21972   1.005  3.067  0.000
    10C     0.02165 -0.07229   1.025  2.954  0.000
    11S    -0.33569 -0.41557   1.904  4.444 -0.012
    12H    -0.00530  0.04528   1.005  0.000  0.000
    13H    -0.00475  0.04767   1.005  0.000  0.000
    14H    -0.00350  0.04891   1.004  0.000  0.000
    15H    -0.02569  0.02878   1.026  0.000  0.000
    16H    -0.01556  0.03909   1.016  0.000  0.000
    17C    -0.06322 -0.21142   1.004  3.059  0.000
    18C     0.02294 -0.07106   1.024  2.953  0.000
    19S    -0.32886 -0.40995   1.901  4.439 -0.011
    20H    -0.00974  0.04073   1.010  0.000  0.000
    21H    -0.00685  0.04532   1.007  0.000  0.000
    22H     0.01352  0.06577   0.986  0.000  0.000
    23H    -0.03585  0.01920   1.036  0.000  0.000
    24H    -0.01755  0.03715   1.018  0.000  0.000
    25C    -0.06366 -0.21115   1.004  3.060  0.000
    26C     0.02479 -0.06890   1.024  2.952  0.000
    27S    -0.33857 -0.41664   1.899  4.450 -0.011
    28H    -0.01015  0.04193   1.010  0.000  0.000
    29H    -0.01412  0.03639   1.014  0.000  0.000
    30H     0.00061  0.05562   0.999  0.000  0.000
    31H    -0.02067  0.03371   1.021  0.000  0.000
    32H    -0.03810  0.01702   1.038  0.000  0.000
    33C    -0.06601 -0.21403   1.004  3.062  0.000
    34C     0.02452 -0.06880   1.027  2.948  0.000
    35S    -0.25178 -0.33909   1.903  4.348  0.001
    36H     0.00080  0.05298   0.999  0.000  0.000
    37H    -0.01280  0.03949   1.013  0.000  0.000
    38H    -0.00732  0.04331   1.007  0.000  0.000
    39H    -0.00688  0.05278   1.007  0.000  0.000
    40H    -0.03527  0.02044   1.035  0.000  0.000
    41C    -0.07488 -0.22442   1.006  3.069  0.000
    42C    -0.03992 -0.14118   1.022  3.018  0.000
    43C     0.04321  0.10366   1.045  2.911  0.000
    44N    -0.29357 -0.65129   1.429  3.865  0.000
    45C     0.19260  0.28654   0.998  2.810  0.000
    46N    -0.20551 -0.48696   1.533  3.672  0.000
    47C     0.08477  0.11005   1.023  2.893  0.000
    48H     0.02199  0.07519   0.978  0.000  0.000
    49H     0.02418  0.07641   0.976  0.000  0.000
    50H     0.02489  0.07629   0.975  0.000  0.000
    51H     0.02049  0.07779   0.980  0.000  0.000
    52H     0.02383  0.07947   0.976  0.000  0.000
    53H     0.23073  0.42745   0.769  0.000  0.000
    54H     0.00862  0.08443   0.991  0.000  0.000
    55H     0.01520  0.08964   0.985  0.000  0.000
    56Fe   -0.03123  0.24782   0.154  0.956  6.921
    57Fe   -0.00037  0.33317   0.132  0.900  6.968
    58Fe   -0.03508  0.23586   0.170  0.966  6.899
    59Fe   -0.02834  0.24642   0.171  0.961  6.897
    60S    -0.07158 -0.30346   1.864  4.223 -0.016
    61S    -0.15424 -0.38480   1.864  4.309 -0.019
    62S    -0.08517 -0.31764   1.864  4.237 -0.016
    63S     0.05680 -0.18532   1.871  4.081 -0.008
    64Fe   -0.04701  0.19906   0.183  0.840  7.023
    65C     0.60370  0.64412   1.005  2.391  0.000
    66O    -0.54221 -0.62522   1.738  4.804  0.000
    67O    -0.67393 -0.71668   1.766  4.908  0.000

Wiberg/Mayer (AO) data.
largest (>0.10) Wiberg bond orders for each atom

 ---------------------------------------------------------------------------
     #   Z sym  total        # sym  WBO       # sym  WBO       # sym  WBO
 ---------------------------------------------------------------------------
     1   6 C    3.990 --     2 C    1.018     6 H    0.988     4 H    0.985
                             5 H    0.975
     2   6 C    3.981 --     1 C    1.018     8 H    0.985     7 H    0.981
                             3 S    0.949
     3  16 S    2.046 --     2 C    0.949    57 Fe   0.750
     4   1 H    1.009 --     1 C    0.985
     5   1 H    1.052 --     1 C    0.975
     6   1 H    1.028 --     1 C    0.988
     7   1 H    1.025 --     2 C    0.981
     8   1 H    1.029 --     2 C    0.985
     9   6 C    3.991 --    10 C    1.018    13 H    0.988    14 H    0.988
                            12 H    0.985
    10   6 C    3.988 --     9 C    1.018    15 H    0.988    16 H    0.985
                            11 S    0.967
    11  16 S    1.957 --    10 C    0.967    56 Fe   0.632
    12   1 H    1.008 --     9 C    0.985
    13   1 H    1.028 --     9 C    0.988
    14   1 H    1.031 --     9 C    0.988
    15   1 H    1.025 --    10 C    0.988
    16   1 H    1.022 --    10 C    0.985
    17   6 C    3.993 --    18 C    1.016    21 H    0.988    20 H    0.986
                            22 H    0.981
    18   6 C    3.987 --    17 C    1.016    23 H    0.986    24 H    0.984
                            19 S    0.972
    19  16 S    1.946 --    18 C    0.972    58 Fe   0.732
    20   1 H    1.010 --    17 C    0.986
    21   1 H    1.028 --    17 C    0.988
    22   1 H    1.023 --    17 C    0.981
    23   1 H    1.031 --    18 C    0.986
    24   1 H    1.023 --    18 C    0.984
    25   6 C    3.987 --    26 C    1.017    28 H    0.988    29 H    0.985
                            30 H    0.971
    26   6 C    3.986 --    25 C    1.017    32 H    0.986    31 H    0.985
                            27 S    0.971
    27  16 S    1.923 --    26 C    0.971    59 Fe   0.715
    28   1 H    1.027 --    25 C    0.988
    29   1 H    1.010 --    25 C    0.985
    30   1 H    1.055 --    25 C    0.971
    31   1 H    1.020 --    26 C    0.985
    32   1 H    1.031 --    26 C    0.986
    33   6 C    3.992 --    34 C    1.015    37 H    0.988    36 H    0.987
                            38 H    0.985
    34   6 C    3.984 --    33 C    1.015    40 H    0.988    39 H    0.969
                            35 S    0.960
    35  16 S    2.112 --    34 C    0.960    64 Fe   0.815
    36   1 H    1.029 --    33 C    0.987
    37   1 H    1.032 --    33 C    0.988
    38   1 H    1.010 --    33 C    0.985
    39   1 H    1.053 --    34 C    0.969
    40   1 H    1.031 --    34 C    0.988
    41   6 C    3.997 --    42 C    1.000    48 H    0.989    49 H    0.988
                            50 H    0.988
    42   6 C    3.998 --    43 C    1.014    41 C    1.000    52 H    0.978
                            51 H    0.977
    43   6 C    3.910 --    47 C    1.578    44 N    1.135    42 C    1.014
                            45 C    0.105
    44   7 N    3.437 --    45 C    1.198    43 C    1.135    53 H    0.913
    45   6 C    3.901 --    46 N    1.520    44 N    1.198    54 H    0.938
                            43 C    0.105
    46   7 N    3.311 --    45 C    1.520    47 C    1.231    57 Fe   0.387
    47   6 C    3.964 --    43 C    1.578    46 N    1.231    55 H    0.971
    48   1 H    1.008 --    41 C    0.989
    49   1 H    1.011 --    41 C    0.988
    50   1 H    1.005 --    41 C    0.988
    51   1 H    1.007 --    42 C    0.977
    52   1 H    1.008 --    42 C    0.978
    53   1 H    0.950 --    44 N    0.913
    54   1 H    1.071 --    45 C    0.938
    55   1 H    1.044 --    47 C    0.971
    56  26 Fe   5.431 --    62 S    0.834    61 S    0.802    58 Fe   0.799
                            59 Fe   0.772    63 S    0.653    11 S    0.632
                            57 Fe   0.360    64 Fe   0.303
    57  26 Fe   4.375 --    62 S    0.850     3 S    0.750    64 Fe   0.582
                            63 S    0.458    46 N    0.387    56 Fe   0.360
                            59 Fe   0.305    66 O    0.195    58 Fe   0.155
    58  26 Fe   5.206 --    61 S    0.833    56 Fe   0.799    60 S    0.777
                            19 S    0.732    63 S    0.639    59 Fe   0.631
                            64 Fe   0.390    57 Fe   0.155
    59  26 Fe   5.247 --    62 S    0.801    61 S    0.780    56 Fe   0.772
Note: The following floating-point exceptions are signalling: IEEE_UNDERFLOW_FLAG IEEE_DENORMAL
normal termination of xtb
                            60 S    0.742    27 S    0.715    58 Fe   0.631
                            57 Fe   0.305    64 Fe   0.288
    60  16 S    2.696 --    64 Fe   0.913    58 Fe   0.777    59 Fe   0.742
    61  16 S    2.603 --    58 Fe   0.833    56 Fe   0.802    59 Fe   0.780
    62  16 S    2.703 --    57 Fe   0.850    56 Fe   0.834    59 Fe   0.801
    63  16 S    2.779 --    56 Fe   0.653    58 Fe   0.639    64 Fe   0.608
                            57 Fe   0.458    65 C    0.217
    64  26 Fe   4.688 --    60 S    0.913    35 S    0.815    63 S    0.608
                            57 Fe   0.582    58 Fe   0.390    65 C    0.361
                            56 Fe   0.303    59 Fe   0.288
    65   6 C    3.804 --    66 O    1.495    67 O    1.491    64 Fe   0.361
                            63 S    0.217
    66   8 O    2.075 --    65 C    1.495    57 Fe   0.195    67 O    0.138
    67   8 O    1.844 --    65 C    1.491    66 O    0.138
 ---------------------------------------------------------------------------

Topologies differ in total number of bonds
Writing topology from bond orders to xtbtopo.mol

 dipole moment from electron density (au)
     X       Y       Z   
-307.3507 -67.2580-275.6426  total (Debye): 1063.188


           -------------------------------------------------
          | TOTAL ENERGY             -116.842571156707 Eh   |
          | GRADIENT NORM               0.140218030002 Eh/α |
          | HOMO-LUMO GAP               0.019730117187 eV   |
           -------------------------------------------------

------------------------------------------------------------------------
 * finished run on 2026/09/12 at 20:31:31.323     
------------------------------------------------------------------------
 total:
 * wall-time:     0 d,  0 h,  0 min,  6.090 sec
 *  cpu-time:     0 d,  0 h,  0 min,  7.549 sec
 * ratio c/w:     1.240 speedup
 SCF:
 * wall-time:     0 d,  0 h,  0 min,  6.032 sec
 *  cpu-time:     0 d,  0 h,  0 min,  7.194 sec
 * ratio c/w:     1.193 speedup

