67
B charge -3 CO2 pose transferred from 3B52
C      53.68491339     14.76955785     52.87482554
C      53.53191417     15.73057949     51.69820277
S      54.32073966     15.06749307     50.19135973
H      53.25156840     15.18654438     53.79050999
H      53.18868355     13.81691154     52.65179098
H      54.74490328     14.56590550     53.05212998
H      52.46707432     15.96071858     51.54979509
H      54.03681504     16.67600209     51.93810049
C      47.74412721      9.20738694     49.67004778
C      49.11300979      9.57917055     50.23600407
S      49.89236944     10.75177271     49.07633450
H      47.21428371      8.49716215     50.31288621
H      47.13361027     10.10675119     49.56500569
H      47.86212328      8.76507908     48.67832031
H      48.97754329     10.03234828     51.22829413
H      49.70902979      8.66507605     50.36401236
C      56.72310952      7.17864955     47.34298421
C      55.36781365      7.19320138     46.63660978
S      54.88064879      8.87695116     46.14479113
H      57.05211165      6.15621524     47.56049380
H      57.47406672      7.65679379     46.70880571
H      56.66653235      7.73521647     48.28296977
H      55.44337908      6.59427224     45.71796485
H      54.61686044      6.71232293     47.27988925
C      58.01858385     10.12041642     51.54340976
C      57.04412057      9.08273081     52.10041896
S      55.41051364      9.78988731     52.48733148
H      58.09534974     10.96426262     52.23512734
H      59.01778997      9.69285881     51.40273810
H      57.65858745     10.49870121     50.57782472
H      56.97440670      8.23652832     51.40136762
H      57.45027915      8.68965104     53.04331310
C      57.27903928     16.27385547     47.80230392
C      55.90640468     15.92879037     47.22790667
S      55.91905870     14.25069025     46.51457172
H      57.50597519     15.62770725     48.65395669
H      58.04870130     16.11782433     47.04209349
H      57.32327899     17.31722710     48.13173082
H      55.14542047     16.06332925     48.01218273
H      55.67704090     16.63340579     46.41647045
C      49.44508653     18.10136074     50.88999136
C      49.47204093     17.58815912     49.44401482
C      50.05888178     16.21576149     49.37840415
N      49.32123793     15.09194614     49.66398061
C      50.16189971     14.01940895     49.62596559
N      51.39058757     14.41204853     49.33769990
C      51.33322922     15.77591554     49.17697018
H      48.84860714     17.43603838     51.51536134
H      50.45720889     18.14657344     51.29672912
H      49.00773086     19.09842708     50.92763432
H      48.45171987     17.58215361     49.04897234
H      50.06730650     18.27106916     48.82986123
H      48.33684658     15.07686594     49.85133903
H      49.82605068     12.98908249     49.75286323
H      52.21275880     16.35162059     48.92637736
Fe     52.20819939     10.68595248     49.33373692
Fe     53.11107488     13.35604164     49.35428214
Fe     54.20837701      9.93346209     48.04861936
Fe     54.32231344     10.29681955     50.52888829
S      55.76121144     11.09706395     49.06846752
S      53.15991701      8.76108525     49.49437047
S      52.92264655     11.88737356     50.95855780
S      53.02953333     11.81691221     47.61965373
Fe 55.06944245 12.71281377 47.87724049
C      53.40058292     13.96584631     46.84748386
O      52.66070900     14.62390486     47.61189641
O      53.63264271     14.04227880     45.60647849
