      -----------------------------------------------------------      
     |                   =====================                   |     
     |                           x T B                           |     
     |                   =====================                   |     
     |                         S. Grimme                         |     
     |          Mulliken Center for Theoretical Chemistry        |     
     |                    University of Bonn                     |     
      -----------------------------------------------------------      

   * xtb version 6.6.1 (unknown) compiled by 'builduser@buildhost' on 2023-08-07

   xtb is free software: you can redistribute it and/or modify it under
   the terms of the GNU Lesser General Public License as published by
   the Free Software Foundation, either version 3 of the License, or
   (at your option) any later version.
   
   xtb is distributed in the hope that it will be useful,
   but WITHOUT ANY WARRANTY; without even the implied warranty of
   MERCHANTABILITY or FITNESS FOR A PARTICULAR PURPOSE.  See the
   GNU Lesser General Public License for more details.
   
   Cite this work as:
   * C. Bannwarth, E. Caldeweyher, S. Ehlert, A. Hansen, P. Pracht,
     J. Seibert, S. Spicher, S. Grimme, WIREs Comput. Mol. Sci., 2020, 11,
     e01493. DOI: 10.1002/wcms.1493
   
   for GFN2-xTB:
   * C. Bannwarth, S. Ehlert and S. Grimme., J. Chem. Theory Comput., 2019,
     15, 1652-1671. DOI: 10.1021/acs.jctc.8b01176
   for GFN1-xTB:
   * S. Grimme, C. Bannwarth, P. Shushkov, J. Chem. Theory Comput., 2017,
     13, 1989-2009. DOI: 10.1021/acs.jctc.7b00118
   for GFN0-xTB:
   * P. Pracht, E. Caldeweyher, S. Ehlert, S. Grimme, ChemRxiv, 2019, preprint.
     DOI: 10.26434/chemrxiv.8326202.v1
   for GFN-FF:
   * S. Spicher and S. Grimme, Angew. Chem. Int. Ed., 2020, 59, 15665-15673.
     DOI: 10.1002/anie.202004239
   
   for ALPB and GBSA implicit solvation:
   * S. Ehlert, M. Stahn, S. Spicher, S. Grimme, J. Chem. Theory Comput.,
     2021, 17, 4250-4261. DOI: 10.1021/acs.jctc.1c00471
   
   for DFT-D4:
   * E. Caldeweyher, C. Bannwarth and S. Grimme, J. Chem. Phys., 2017,
     147, 034112. DOI: 10.1063/1.4993215
   * E. Caldeweyher, S. Ehlert, A. Hansen, H. Neugebauer, S. Spicher,
     C. Bannwarth and S. Grimme, J. Chem. Phys., 2019, 150, 154122.
     DOI: 10.1063/1.5090222
   * E. Caldeweyher, J.-M. Mewes, S. Ehlert and S. Grimme, Phys. Chem. Chem. Phys.
     2020, 22, 8499-8512. DOI: 10.1039/D0CP00502A
   
   for sTDA-xTB:
   * S. Grimme and C. Bannwarth, J. Chem. Phys., 2016, 145, 054103.
     DOI: 10.1063/1.4959605
   
   in the mass-spec context:
   * V. Asgeirsson, C. Bauer and S. Grimme, Chem. Sci., 2017, 8, 4879.
     DOI: 10.1039/c7sc00601b
   * J. Koopman and S. Grimme, ACS Omega 2019, 4, 12, 15120-15133.
     DOI: 10.1021/acsomega.9b02011
   
   for metadynamics refer to:
   * S. Grimme, J. Chem. Theory Comput., 2019, 155, 2847-2862
     DOI: 10.1021/acs.jctc.9b00143
   
   for SPH calculations refer to:
   * S. Spicher and S. Grimme, J. Chem. Theory Comput., 2021, 17, 1701-1714
     DOI: 10.1021/acs.jctc.0c01306
   
   with help from (in alphabetical order)
   P. Atkinson, C. Bannwarth, F. Bohle, G. Brandenburg, E. Caldeweyher
   M. Checinski, S. Dohm, S. Ehlert, S. Ehrlich, I. Gerasimov, C. Hölzer
   A. Katbashev, J. Koopman, C. Lavigne, S. Lehtola, F. März, M. Müller,
   F. Musil, H. Neugebauer, J. Pisarek, C. Plett, P. Pracht, F. Pultar,
   J. Seibert, P. Shushkov, S. Spicher, M. Stahn, M. Steiner, T. Strunk,
   J. Stückrath, T. Rose, and J. Unsleber
   
 * started run on 2026/09/13 at 13:39:36.228     

           -------------------------------------------------
          |                Calculation Setup                |
           -------------------------------------------------

          program call               : xtb structure.xyz --gfn 1 --chrg -3 --uhf 1 --alpb water
          coordinate file            : structure.xyz
          omp threads                :                     8

   ID    Z sym.   atoms
    1    6 C      1, 2, 9, 10, 17, 18, 25, 26, 33, 34, 41-43, 45, 47, 65
    2   16 S      3, 11, 19, 27, 35, 60-63
    3    1 H      4-8, 12-16, 20-24, 28-32, 36-40, 48-55, 68
    4    7 N      44, 46
    5   26 Fe     56-59, 64
    6    8 O      66, 67

molecular fragmentation (1/2 indicates fragments):
11111111111111111111111111111111111111111111111111111111111111111112
# atoms in fragment 1/2:    67     1
 fragment masses (1/2) :      853.25        1.01
CMA distance (Bohr)    :  10.267
constraining FC (au)   :  0.0500

           -------------------------------------------------
          |                 G F N 1 - x T B                 |
           -------------------------------------------------

        Reference                      10.1021/acs.jctc.7b00118
      * Hamiltonian:
        H0-scaling (s, p, d)           1.850000    2.250000    2.000000
        zeta-weighting                 0.000000
      * Dispersion:
        s8                             2.400000
        a1                             0.630000
        a2                             5.000000
        s9                             0.000000
      * Repulsion:
        kExp                           1.500000
        rExp                           1.000000
      * Coulomb:
        alpha                          2.000000
        third order                    atomic
        anisotropic                    false
      * Halogen bond correction:
        rad-scale                      1.300000
        damping                        0.440000

      * Solvation model:               ALPB
        Solvent                        water
        Parameter file                 internal GFN1-xTB/ALPB
        Dielectric constant                8.0200E+01
        Reference state                gsolv [1 M gas/solution]
        Free energy shift                  4.2456E-03 Eh       2.6642E+00 kcal/mol
        Temperature                        2.9815E+02 K
        Density                            1.0000E+00 kg/L
        Solvent mass                       1.8000E+01 g/mol
        Interaction kernel             P16
        Born radius scaling (c1)           1.9452E+00
        Born radii integrator          GBOBC
        Born offset                        0.0000E+00 a0       0.0000E+00 AA
        H-bond correction              true
        Ion screening                  false
        Surface tension                    1.0000E-05 Eh       1.5569E+01 dyn/cm
        Grid points                               230 per atom

          ...................................................
          :                      SETUP                      :
          :.................................................:
          :  # basis functions                 288          :
          :  # atomic orbitals                 274          :
          :  # shells                          150          :
          :  # electrons                       217          :
          :  # halogen bonds                     0          :
          :  max. iterations                   250          :
          :  Hamiltonian                  GFN1-xTB          :
          :  restarted?                      false          :
          :  GBSA solvation                   true          :
          :  PC potential                    false          :
          :  electronic temp.          300.0000000     K    :
          :  accuracy                    1.0000000          :
          :  -> integral cutoff          0.2500000E+02      :
          :  -> integral neglect         0.1000000E-07      :
          :  -> SCF convergence          0.1000000E-05 Eh   :
          :  -> wf. convergence          0.2000000E-04 e    :
          :  Broyden damping             0.4000000          :
          ...................................................

 iter      E             dE          RMSdq      gap      omega  full diag
   1    -86.1090826 -0.861091E+02  0.154E+01    0.26       0.0  T
   2     61.2349511  0.147344E+03  0.281E+01    0.09       1.0  T
   3    -92.9058098 -0.154141E+03  0.196E+01    0.30       1.0  T
   4    -44.4040743  0.485017E+02  0.148E+01    0.07       1.0  T
   5    -61.6826385 -0.172786E+02  0.129E+01    0.13       1.0  T
   6    -62.4381069 -0.755468E+00  0.134E+01    0.21       1.0  T
   7    -81.0355198 -0.185974E+02  0.110E+01    0.15       1.0  T
   8    -74.6965713  0.633895E+01  0.113E+01    0.08       1.0  T
   9    -76.9066929 -0.221012E+01  0.111E+01    0.17       1.0  T
  10   -107.1009569 -0.301943E+02  0.786E+00    0.19       1.0  T
  11   -106.6789578  0.421999E+00  0.692E+00    0.06       1.0  T
  12   -103.9361995  0.274276E+01  0.742E+00    0.08       1.0  T
  13   -112.8329305 -0.889673E+01  0.498E+00    0.10       1.0  T
  14   -113.9084080 -0.107548E+01  0.458E+00    0.12       1.0  T
  15   -113.3179094  0.590499E+00  0.493E+00    0.16       1.0  T
  16   -114.3948928 -0.107698E+01  0.435E+00    0.12       1.0  T
  17   -103.2664629  0.111284E+02  0.750E+00    0.07       1.0  T
  18    -98.6132070  0.465326E+01  0.852E+00    0.04       1.0  T
  19   -102.1720067 -0.355880E+01  0.789E+00    0.10       1.0  T
  20   -109.1939481 -0.702194E+01  0.618E+00    0.10       1.0  T
  21   -111.6865960 -0.249265E+01  0.541E+00    0.14       1.0  T
  22   -110.1584026  0.152819E+01  0.582E+00    0.08       1.0  T
  23   -112.9473454 -0.278894E+01  0.494E+00    0.08       1.0  T
  24   -113.9462930 -0.998948E+00  0.464E+00    0.08       1.0  T
  25   -112.8798309  0.106646E+01  0.499E+00    0.06       1.0  T
  26   -113.1359460 -0.256115E+00  0.488E+00    0.06       1.0  T
  27   -112.1572192  0.978727E+00  0.515E+00    0.05       1.0  T
  28   -114.3059220 -0.214870E+01  0.404E+00    0.08       1.0  T
  29   -115.6271356 -0.132121E+01  0.306E+00    0.13       1.0  T
  30   -110.4954764  0.513166E+01  0.517E+00    0.09       1.0  T
  31   -116.6873149 -0.619184E+01  0.239E+00    0.11       1.0  T
  32   -117.9226098 -0.123529E+01  0.108E+00    0.13       1.0  T
  33   -116.8137392  0.110887E+01  0.230E+00    0.06       1.0  T
  34   -117.1297770 -0.316038E+00  0.201E+00    0.09       1.0  T
  35   -117.3935896 -0.263813E+00  0.179E+00    0.09       1.0  T
  36   -118.0891268 -0.695537E+00  0.732E-01    0.12       1.0  T
  37   -118.0822344  0.689242E-02  0.706E-01    0.13       1.0  T
  38   -118.1828754 -0.100641E+00  0.324E-01    0.14       1.0  T
  39   -118.0858566  0.970187E-01  0.683E-01    0.11       1.0  T
  40   -118.1394363 -0.535797E-01  0.507E-01    0.11       1.0  T
  41   -118.1965296 -0.570933E-01  0.195E-01    0.13       1.0  T
  42   -118.1966505 -0.120864E-03  0.190E-01    0.13       1.0  T
  43   -118.2032698 -0.661926E-02  0.967E-02    0.13       1.0  T
  44   -118.2041331 -0.863300E-03  0.735E-02    0.14       1.0  T
  45   -118.2052454 -0.111234E-02  0.364E-02    0.13       1.0  T
  46   -118.2055768 -0.331423E-03  0.141E-02    0.13       1.0  T
  47   -118.2056060 -0.291199E-04  0.937E-03    0.13       1.3  T
  48   -118.2056079 -0.190311E-05  0.823E-03    0.13       1.5  T
  49   -118.2056236 -0.157828E-04  0.278E-03    0.13       4.4  T
  50   -118.2056249 -0.125247E-05  0.155E-03    0.13       7.8  T
  51   -118.2056254 -0.488503E-06  0.802E-04    0.13      15.1  T
  52   -118.2056254  0.886446E-08  0.750E-04    0.13      16.2  T
  53   -118.2056255 -0.108058E-06  0.342E-04    0.13      35.4  T
  54   -118.2056255 -0.261847E-07  0.130E-04    0.13      93.3  T
  55   -118.2056255 -0.341856E-08  0.587E-05    0.13     206.6  T

   *** convergence criteria satisfied after 55 iterations ***

         #    Occupation            Energy/Eh            Energy/eV
      -------------------------------------------------------------
         1        2.0000           -0.7959661             -21.6593
       ...           ...                  ...                  ...
       103        2.0000           -0.2485580              -6.7636
       104        1.9998           -0.2461637              -6.6985
       105        1.9978           -0.2440843              -6.6419
       106        1.8822           -0.2401785              -6.5356
       107        1.8633           -0.2400195              -6.5313
       108        1.7755           -0.2394589              -6.5160
       109        1.3914           -0.2380148              -6.4767 (HOMO)
       110        0.0900           -0.2331160              -6.3434 (LUMO)
       111        0.0000           -0.2235704              -6.0837
       112        0.0000           -0.2222722              -6.0483
       113                         -0.2183360              -5.9412
       114                         -0.2133693              -5.8061
       ...                                ...                  ...
       274                         13.1968603             359.1048
      -------------------------------------------------------------
                  HL-Gap            0.0048988 Eh            0.1333 eV
             Fermi-level           -0.2367882 Eh           -6.4433 eV

 SCC (total)                   0 d,  0 h,  0 min,  6.639 sec
 SCC setup                      ...        0 min,  0.003 sec (  0.041%)
 Dispersion                     ...        0 min,  0.001 sec (  0.015%)
 classical contributions        ...        0 min,  0.000 sec (  0.003%)
 integral evaluation            ...        0 min,  0.032 sec (  0.486%)
 iterations                     ...        0 min,  6.341 sec ( 95.518%)
 molecular gradient             ...        0 min,  0.102 sec (  1.533%)
 printout                       ...        0 min,  0.159 sec (  2.402%)

         :::::::::::::::::::::::::::::::::::::::::::::::::::::
         ::                     SUMMARY                     ::
         :::::::::::::::::::::::::::::::::::::::::::::::::::::
         :: total energy            -117.361485523447 Eh    ::
         :: total w/o Gsasa/hb      -117.356082959785 Eh    ::
         :: gradient norm              0.172253348122 Eh/a0 ::
         :: HOMO-LUMO gap              0.133303248428 eV    ::
         ::.................................................::
         :: SCC energy              -118.205625516118 Eh    ::
         :: -> electrostatic           0.669879766724 Eh    ::
         :: -> Gsolv                  -0.361050831989 Eh    ::
         ::    -> Gelec               -0.355648268328 Eh    ::
         ::    -> Gsasa               -0.004990166088 Eh    ::
         ::    -> Ghb                 -0.004658004245 Eh    ::
         ::    -> Gshift               0.004245606671 Eh    ::
         :: repulsion energy           0.909794508167 Eh    ::
         :: dispersion energy         -0.065654515495 Eh    ::
         :: halogen bond corr.         0.000000000000 Eh    ::
         :: add. restraining           0.000000000000 Eh    ::
         :: total charge              -3.000000000000 e     ::
         :::::::::::::::::::::::::::::::::::::::::::::::::::::

           -------------------------------------------------
          |                Property Printout                |
           -------------------------------------------------

    * Orbital Energies and Occupations

         #    Occupation            Energy/Eh            Energy/eV
      -------------------------------------------------------------
         1        2.0000           -0.7959661             -21.6593
       ...           ...                  ...                  ...
        97        2.0000           -0.2595106              -7.0616
        98        2.0000           -0.2566865              -6.9848
        99        2.0000           -0.2538302              -6.9071
       100        2.0000           -0.2524842              -6.8704
       101        2.0000           -0.2502765              -6.8104
       102        2.0000           -0.2496033              -6.7921
       103        2.0000           -0.2485580              -6.7636
       104        1.9998           -0.2461637              -6.6985
       105        1.9978           -0.2440843              -6.6419
       106        1.8822           -0.2401785              -6.5356
       107        1.8633           -0.2400195              -6.5313
       108        1.7755           -0.2394589              -6.5160
       109        1.3914           -0.2380148              -6.4767 (HOMO)
       110        0.0900           -0.2331160              -6.3434 (LUMO)
       111        0.0000           -0.2235704              -6.0837
       112        0.0000           -0.2222722              -6.0483
       113                         -0.2183360              -5.9412
       114                         -0.2133693              -5.8061
       115                         -0.2126126              -5.7855
       116                         -0.2097897              -5.7087
       117                         -0.1994259              -5.4267
       118                         -0.1964244              -5.3450
       119                         -0.1921510              -5.2287
       120                         -0.1709794              -4.6526
       ...                                ...                  ...
       274                         13.1968603             359.1048
      -------------------------------------------------------------
                  HL-Gap            0.0048988 Eh            0.1333 eV
             Fermi-level           -0.2367882 Eh           -6.4433 eV

  Mulliken/CM5 charges         n(s)   n(p)   n(d)
     1C    -0.06297 -0.21125   1.004  3.059  0.000
     2C     0.01263 -0.08130   1.028  2.959  0.000
     3S    -0.29503 -0.38128   1.899  4.402 -0.006
     4H    -0.00579  0.04484   1.006  0.000  0.000
     5H     0.00812  0.06076   0.992  0.000  0.000
     6H     0.00089  0.05290   0.999  0.000  0.000
     7H    -0.01978  0.03726   1.020  0.000  0.000
     8H    -0.02753  0.02774   1.028  0.000  0.000
     9C    -0.06981 -0.21775   1.005  3.065  0.000
    10C     0.01963 -0.07449   1.025  2.955  0.000
    11S    -0.31352 -0.39973   1.898  4.426 -0.010
    12H    -0.00538  0.04521   1.005  0.000  0.000
    13H    -0.00624  0.04602   1.006  0.000  0.000
    14H    -0.00221  0.05011   1.002  0.000  0.000
    15H    -0.02942  0.02518   1.029  0.000  0.000
    16H    -0.01146  0.04324   1.011  0.000  0.000
    17C    -0.06561 -0.21331   1.005  3.061  0.000
    18C     0.02280 -0.07094   1.024  2.953  0.000
    19S    -0.33839 -0.41906   1.898  4.451 -0.011
    20H    -0.01177  0.03879   1.012  0.000  0.000
    21H    -0.00989  0.04215   1.010  0.000  0.000
    22H     0.00439  0.05889   0.996  0.000  0.000
    23H    -0.03605  0.01902   1.036  0.000  0.000
    24H    -0.01968  0.03470   1.020  0.000  0.000
    25C    -0.06467 -0.21231   1.004  3.061  0.000
    26C     0.02348 -0.07015   1.024  2.953  0.000
    27S    -0.33039 -0.41050   1.898  4.443 -0.011
    28H    -0.00927  0.04272   1.009  0.000  0.000
    29H    -0.01305  0.03747   1.013  0.000  0.000
    30H     0.00450  0.05930   0.995  0.000  0.000
    31H    -0.02077  0.03361   1.021  0.000  0.000
    32H    -0.03600  0.01914   1.036  0.000  0.000
    33C    -0.06240 -0.21062   1.004  3.059  0.000
    34C     0.01853 -0.07621   1.028  2.953  0.000
    35S    -0.16885 -0.29425   1.888  4.287 -0.006
    36H     0.01137  0.06516   0.989  0.000  0.000
    37H    -0.00150  0.05093   1.001  0.000  0.000
    38H    -0.00399  0.04668   1.004  0.000  0.000
    39H    -0.00518  0.05009   1.005  0.000  0.000
    40H    -0.02261  0.03246   1.023  0.000  0.000
    41C    -0.06545 -0.21495   1.004  3.062  0.000
    42C    -0.04039 -0.14128   1.022  3.019  0.000
    43C     0.05208  0.10648   1.045  2.903  0.000
    44N    -0.36939 -0.71428   1.459  3.910  0.000
    45C     0.15896  0.18977   1.023  2.818  0.000
    46N    -0.36917 -0.64648   1.556  3.813  0.000
    47C     0.05784  0.07852   1.011  2.932  0.000
    48H     0.01924  0.07235   0.981  0.000  0.000
    49H     0.01846  0.07096   0.982  0.000  0.000
    50H     0.01221  0.06338   0.988  0.000  0.000
    51H     0.00859  0.06521   0.991  0.000  0.000
    52H     0.00742  0.06279   0.993  0.000  0.000
    53H     0.19580  0.38968   0.804  0.000  0.000
    54H    -0.03530  0.03696   1.035  0.000  0.000
    55H    -0.02944  0.03471   1.029  0.000  0.000
    56Fe   -0.03032  0.23205   0.146  0.927  6.957
    57Fe   -0.03990  0.29693   0.166  0.912  6.962
    58Fe   -0.03018  0.24070   0.152  0.954  6.924
    59Fe   -0.02930  0.24191   0.155  0.971  6.904
    60S    -0.11745 -0.34891   1.868  4.267 -0.018
    61S    -0.13338 -0.36127   1.865  4.287 -0.019
    62S     0.01386 -0.24138   1.855  4.147 -0.015
    63S    -0.02348 -0.21472   1.870  4.135  0.019
    64Fe   -0.02436  0.24104   0.124  0.917  6.983
    65C     0.60587  0.68131   0.994  2.400  0.000
    66O    -0.64892 -0.68632   1.746  4.902  0.000
    67O    -0.56412 -0.67339   1.656  4.908  0.000
    68H     0.34308  0.41702   0.657  0.000  0.000

Wiberg/Mayer (AO) data.
largest (>0.10) Wiberg bond orders for each atom

 ---------------------------------------------------------------------------
     #   Z sym  total        # sym  WBO       # sym  WBO       # sym  WBO
 ---------------------------------------------------------------------------
     1   6 C    3.993 --     2 C    1.017     6 H    0.988     4 H    0.985
                             5 H    0.983
     2   6 C    3.989 --     1 C    1.017     8 H    0.985     7 H    0.975
                             3 S    0.963
     3  16 S    1.999 --     2 C    0.963    57 Fe   0.847
     4   1 H    1.009 --     1 C    0.985
     5   1 H    1.024 --     1 C    0.983
     6   1 H    1.023 --     1 C    0.988
     7   1 H    1.025 --     2 C    0.975
     8   1 H    1.030 --     2 C    0.985
     9   6 C    3.992 --    10 C    1.018    13 H    0.988    14 H    0.988
                            12 H    0.985
    10   6 C    3.987 --     9 C    1.018    15 H    0.987    16 H    0.983
                            11 S    0.965
    11  16 S    2.001 --    10 C    0.965    56 Fe   0.770
    12   1 H    1.008 --     9 C    0.985
    13   1 H    1.028 --     9 C    0.988
    14   1 H    1.031 --     9 C    0.988
    15   1 H    1.028 --    10 C    0.987
    16   1 H    1.019 --    10 C    0.983
    17   6 C    3.989 --    18 C    1.017    21 H    0.989    20 H    0.986
                            22 H    0.973
    18   6 C    3.989 --    17 C    1.017    23 H    0.986    24 H    0.985
                            19 S    0.971
    19  16 S    1.961 --    18 C    0.971    58 Fe   0.728
    20   1 H    1.010 --    17 C    0.986
    21   1 H    1.026 --    17 C    0.989
    22   1 H    1.049 --    17 C    0.973
    23   1 H    1.030 --    18 C    0.986
    24   1 H    1.020 --    18 C    0.985
    25   6 C    3.989 --    26 C    1.017    28 H    0.989    29 H    0.986
                            30 H    0.971
    26   6 C    3.986 --    25 C    1.017    32 H    0.986    31 H    0.985
                            27 S    0.970
    27  16 S    1.968 --    26 C    0.970    59 Fe   0.726
    28   1 H    1.025 --    25 C    0.989
    29   1 H    1.010 --    25 C    0.986
    30   1 H    1.050 --    25 C    0.971
    31   1 H    1.020 --    26 C    0.985
    32   1 H    1.030 --    26 C    0.986
    33   6 C    3.993 --    34 C    1.022    37 H    0.988    38 H    0.985
                            36 H    0.981
    34   6 C    3.983 --    33 C    1.022    40 H    0.987    39 H    0.985
                            35 S    0.936
    35  16 S    2.292 --    34 C    0.936    64 Fe   0.658    57 Fe   0.473
    36   1 H    1.031 --    33 C    0.981
    37   1 H    1.023 --    33 C    0.988
    38   1 H    1.007 --    33 C    0.985
    39   1 H    1.015 --    34 C    0.985
    40   1 H    1.026 --    34 C    0.987
    41   6 C    3.997 --    42 C    1.000    50 H    0.988    49 H    0.987
                            48 H    0.986
    42   6 C    3.997 --    43 C    1.011    41 C    1.000    52 H    0.980
                            51 H    0.976
    43   6 C    3.919 --    47 C    1.602    44 N    1.100    42 C    1.011
    44   7 N    3.255 --    43 C    1.100    45 C    0.980    53 H    0.925
    45   6 C    3.824 --    46 N    1.204    44 N    0.980    54 H    0.953
                            57 Fe   0.553
    46   7 N    3.123 --    47 C    1.207    45 C    1.204    57 Fe   0.555
    47   6 C    3.968 --    43 C    1.602    46 N    1.207    55 H    0.974
    48   1 H    1.012 --    41 C    0.986
    49   1 H    1.016 --    41 C    0.987
    50   1 H    1.007 --    41 C    0.988
    51   1 H    1.009 --    42 C    0.976
    52   1 H    1.010 --    42 C    0.980
    53   1 H    0.974 --    44 N    0.925
    54   1 H    1.035 --    45 C    0.953
    55   1 H    1.012 --    47 C    0.974
    56  26 Fe   5.119 --    61 S    0.837    11 S    0.770    58 Fe   0.713
Note: The following floating-point exceptions are signalling: IEEE_UNDERFLOW_FLAG IEEE_DENORMAL
normal termination of xtb
                            59 Fe   0.706    62 S    0.633    63 S    0.496
                            64 Fe   0.412    57 Fe   0.288
    57  26 Fe   4.395 --     3 S    0.847    62 S    0.726    46 N    0.555
                            45 C    0.553    35 S    0.473    64 Fe   0.382
                            56 Fe   0.288    59 Fe   0.202
    58  26 Fe   5.203 --    61 S    0.832    60 S    0.781    19 S    0.728
                            56 Fe   0.713    59 Fe   0.672    64 Fe   0.630
                            63 S    0.565
    59  26 Fe   5.532 --    61 S    0.836    60 S    0.808    64 Fe   0.735
                            27 S    0.726    56 Fe   0.706    58 Fe   0.672
                            62 S    0.630    57 Fe   0.202
    60  16 S    2.672 --    64 Fe   0.858    59 Fe   0.808    58 Fe   0.781
    61  16 S    2.628 --    56 Fe   0.837    59 Fe   0.836    58 Fe   0.832
    62  16 S    2.771 --    57 Fe   0.726    64 Fe   0.651    56 Fe   0.633
                            59 Fe   0.630
    63  16 S    2.647 --    65 C    0.828    58 Fe   0.565    64 Fe   0.519
                            56 Fe   0.496
    64  26 Fe   5.193 --    60 S    0.858    59 Fe   0.735    35 S    0.658
                            62 S    0.651    58 Fe   0.630    63 S    0.519
                            56 Fe   0.412    57 Fe   0.382
    65   6 C    3.768 --    66 O    1.558    67 O    1.214    63 S    0.828
    66   8 O    1.844 --    65 C    1.558    67 O    0.137
    67   8 O    2.035 --    65 C    1.214    68 H    0.581    66 O    0.137
    68   1 H    0.761 --    67 O    0.581
 ---------------------------------------------------------------------------

Topologies differ in total number of bonds
Writing topology from bond orders to xtbtopo.mol

 dipole moment from electron density (au)
     X       Y       Z   
-301.6166 -63.6583-277.2235  total (Debye): 1053.761


           -------------------------------------------------
          | TOTAL ENERGY             -117.361485523447 Eh   |
          | GRADIENT NORM               0.172253348122 Eh/α |
          | HOMO-LUMO GAP               0.133303248428 eV   |
           -------------------------------------------------

------------------------------------------------------------------------
 * finished run on 2026/09/13 at 13:39:42.921     
------------------------------------------------------------------------
 total:
 * wall-time:     0 d,  0 h,  0 min,  6.694 sec
 *  cpu-time:     0 d,  0 h,  0 min,  8.070 sec
 * ratio c/w:     1.206 speedup
 SCF:
 * wall-time:     0 d,  0 h,  0 min,  6.641 sec
 *  cpu-time:     0 d,  0 h,  0 min,  7.721 sec
 * ratio c/w:     1.163 speedup

