      -----------------------------------------------------------      
     |                   =====================                   |     
     |                           x T B                           |     
     |                   =====================                   |     
     |                         S. Grimme                         |     
     |          Mulliken Center for Theoretical Chemistry        |     
     |                    University of Bonn                     |     
      -----------------------------------------------------------      

   * xtb version 6.6.1 (unknown) compiled by 'builduser@buildhost' on 2023-08-07

   xtb is free software: you can redistribute it and/or modify it under
   the terms of the GNU Lesser General Public License as published by
   the Free Software Foundation, either version 3 of the License, or
   (at your option) any later version.
   
   xtb is distributed in the hope that it will be useful,
   but WITHOUT ANY WARRANTY; without even the implied warranty of
   MERCHANTABILITY or FITNESS FOR A PARTICULAR PURPOSE.  See the
   GNU Lesser General Public License for more details.
   
   Cite this work as:
   * C. Bannwarth, E. Caldeweyher, S. Ehlert, A. Hansen, P. Pracht,
     J. Seibert, S. Spicher, S. Grimme, WIREs Comput. Mol. Sci., 2020, 11,
     e01493. DOI: 10.1002/wcms.1493
   
   for GFN2-xTB:
   * C. Bannwarth, S. Ehlert and S. Grimme., J. Chem. Theory Comput., 2019,
     15, 1652-1671. DOI: 10.1021/acs.jctc.8b01176
   for GFN1-xTB:
   * S. Grimme, C. Bannwarth, P. Shushkov, J. Chem. Theory Comput., 2017,
     13, 1989-2009. DOI: 10.1021/acs.jctc.7b00118
   for GFN0-xTB:
   * P. Pracht, E. Caldeweyher, S. Ehlert, S. Grimme, ChemRxiv, 2019, preprint.
     DOI: 10.26434/chemrxiv.8326202.v1
   for GFN-FF:
   * S. Spicher and S. Grimme, Angew. Chem. Int. Ed., 2020, 59, 15665-15673.
     DOI: 10.1002/anie.202004239
   
   for ALPB and GBSA implicit solvation:
   * S. Ehlert, M. Stahn, S. Spicher, S. Grimme, J. Chem. Theory Comput.,
     2021, 17, 4250-4261. DOI: 10.1021/acs.jctc.1c00471
   
   for DFT-D4:
   * E. Caldeweyher, C. Bannwarth and S. Grimme, J. Chem. Phys., 2017,
     147, 034112. DOI: 10.1063/1.4993215
   * E. Caldeweyher, S. Ehlert, A. Hansen, H. Neugebauer, S. Spicher,
     C. Bannwarth and S. Grimme, J. Chem. Phys., 2019, 150, 154122.
     DOI: 10.1063/1.5090222
   * E. Caldeweyher, J.-M. Mewes, S. Ehlert and S. Grimme, Phys. Chem. Chem. Phys.
     2020, 22, 8499-8512. DOI: 10.1039/D0CP00502A
   
   for sTDA-xTB:
   * S. Grimme and C. Bannwarth, J. Chem. Phys., 2016, 145, 054103.
     DOI: 10.1063/1.4959605
   
   in the mass-spec context:
   * V. Asgeirsson, C. Bauer and S. Grimme, Chem. Sci., 2017, 8, 4879.
     DOI: 10.1039/c7sc00601b
   * J. Koopman and S. Grimme, ACS Omega 2019, 4, 12, 15120-15133.
     DOI: 10.1021/acsomega.9b02011
   
   for metadynamics refer to:
   * S. Grimme, J. Chem. Theory Comput., 2019, 155, 2847-2862
     DOI: 10.1021/acs.jctc.9b00143
   
   for SPH calculations refer to:
   * S. Spicher and S. Grimme, J. Chem. Theory Comput., 2021, 17, 1701-1714
     DOI: 10.1021/acs.jctc.0c01306
   
   with help from (in alphabetical order)
   P. Atkinson, C. Bannwarth, F. Bohle, G. Brandenburg, E. Caldeweyher
   M. Checinski, S. Dohm, S. Ehlert, S. Ehrlich, I. Gerasimov, C. Hölzer
   A. Katbashev, J. Koopman, C. Lavigne, S. Lehtola, F. März, M. Müller,
   F. Musil, H. Neugebauer, J. Pisarek, C. Plett, P. Pracht, F. Pultar,
   J. Seibert, P. Shushkov, S. Spicher, M. Stahn, M. Steiner, T. Strunk,
   J. Stückrath, T. Rose, and J. Unsleber
   
 * started run on 2026/09/12 at 19:28:27.017     

           -------------------------------------------------
          |                Calculation Setup                |
           -------------------------------------------------

          program call               : xtb start.xyz --gfn 1 --chrg -3 --uhf 0 --alpb water --opt loose
          coordinate file            : start.xyz
          omp threads                :                     8

   ID    Z sym.   atoms
    1    6 C      1, 2, 9, 10, 17, 18, 25, 26, 33, 34, 41-43, 45, 47, 65
    2   16 S      3, 11, 19, 27, 35, 60-63
    3    1 H      4-8, 12-16, 20-24, 28-32, 36-40, 48-55
    4    7 N      44, 46
    5   26 Fe     56-59
    6   28 Ni     64
    7    8 O      66, 67

molecular fragmentation (1/2 indicates fragments):
1111111111111111111111111111111111111111111111111111111111111111222
# atoms in fragment 1/2:    64     3
 fragment masses (1/2) :      812.09       44.01
CMA distance (Bohr)    :   6.520
constraining FC (au)   :  0.0500

           -------------------------------------------------
          |                 G F N 1 - x T B                 |
           -------------------------------------------------

        Reference                      10.1021/acs.jctc.7b00118
      * Hamiltonian:
        H0-scaling (s, p, d)           1.850000    2.250000    2.000000
        zeta-weighting                 0.000000
      * Dispersion:
        s8                             2.400000
        a1                             0.630000
        a2                             5.000000
        s9                             0.000000
      * Repulsion:
        kExp                           1.500000
        rExp                           1.000000
      * Coulomb:
        alpha                          2.000000
        third order                    atomic
        anisotropic                    false
      * Halogen bond correction:
        rad-scale                      1.300000
        damping                        0.440000

      * Solvation model:               ALPB
        Solvent                        water
        Parameter file                 internal GFN1-xTB/ALPB
        Dielectric constant                8.0200E+01
        Reference state                gsolv [1 M gas/solution]
        Free energy shift                  4.2456E-03 Eh       2.6642E+00 kcal/mol
        Temperature                        2.9815E+02 K
        Density                            1.0000E+00 kg/L
        Solvent mass                       1.8000E+01 g/mol
        Interaction kernel             P16
        Born radius scaling (c1)           1.9452E+00
        Born radii integrator          GBOBC
        Born offset                        0.0000E+00 a0       0.0000E+00 AA
        H-bond correction              true
        Ion screening                  false
        Surface tension                    1.0000E-05 Eh       1.5569E+01 dyn/cm
        Grid points                               230 per atom

          ...................................................
          :                      SETUP                      :
          :.................................................:
          :  # basis functions                 286          :
          :  # atomic orbitals                 272          :
          :  # shells                          148          :
          :  # electrons                       218          :
          :  # halogen bonds                     0          :
          :  max. iterations                   250          :
          :  Hamiltonian                  GFN1-xTB          :
          :  restarted?                      false          :
          :  GBSA solvation                   true          :
          :  PC potential                    false          :
          :  electronic temp.          300.0000000     K    :
          :  accuracy                    1.0000000          :
          :  -> integral cutoff          0.2500000E+02      :
          :  -> integral neglect         0.1000000E-07      :
          :  -> SCF convergence          0.1000000E-05 Eh   :
          :  -> wf. convergence          0.2000000E-04 e    :
          :  Broyden damping             0.4000000          :
          ...................................................

 iter      E             dE          RMSdq      gap      omega  full diag
   1    -92.5626734 -0.925627E+02  0.147E+01    0.06       0.0  T
   2     33.3248398  0.125888E+03  0.242E+01    0.18       1.0  T
   3    -89.5556953 -0.122881E+03  0.111E+01    0.13       1.0  T
   4    -34.8321453  0.547236E+02  0.151E+01    0.08       1.0  T
   5    -55.2634207 -0.204313E+02  0.138E+01    0.09       1.0  T
   6    -70.0799074 -0.148165E+02  0.119E+01    0.09       1.0  T
   7   -105.9945544 -0.359146E+02  0.791E+00    0.10       1.0  T
   8    -98.7034396  0.729111E+01  0.975E+00    0.03       1.0  T
   9    -87.9345240  0.107689E+02  0.102E+01    0.06       1.0  T
  10    -75.0398135  0.128947E+02  0.115E+01    0.08       1.0  T
  11   -112.3350639 -0.372953E+02  0.521E+00    0.14       1.0  T
  12   -109.3636178  0.297145E+01  0.596E+00    0.22       1.0  T
  13   -105.1020589  0.426156E+01  0.686E+00    0.06       1.0  T
  14   -102.0625133  0.303955E+01  0.757E+00    0.13       1.0  T
  15    -85.8217422  0.162408E+02  0.111E+01    0.09       1.0  T
  16   -103.0232691 -0.172015E+02  0.775E+00    0.12       1.0  T
  17   -102.5455079  0.477761E+00  0.765E+00    0.06       1.0  T
  18   -100.4577020  0.208781E+01  0.810E+00    0.07       1.0  T
  19   -106.1612382 -0.570354E+01  0.684E+00    0.06       1.0  T
  20   -103.7676240  0.239361E+01  0.703E+00    0.15       1.0  T
  21   -109.3571532 -0.558953E+01  0.569E+00    0.07       1.0  T
  22   -108.8106033  0.546550E+00  0.584E+00    0.07       1.0  T
  23   -115.8706922 -0.706009E+01  0.342E+00    0.08       1.0  T
  24   -117.3511856 -0.148049E+01  0.247E+00    0.10       1.0  T
  25   -117.8611590 -0.509973E+00  0.201E+00    0.07       1.0  T
  26   -118.1327320 -0.271573E+00  0.168E+00    0.07       1.0  T
  27   -118.5314226 -0.398691E+00  0.110E+00    0.22       1.0  T
  28   -117.9165566  0.614866E+00  0.188E+00    0.10       1.0  T
  29   -118.2573596 -0.340803E+00  0.144E+00    0.16       1.0  T
  30   -118.5028923 -0.245533E+00  0.108E+00    0.19       1.0  T
  31   -118.7010979 -0.198206E+00  0.707E-01    0.17       1.0  T
  32   -118.8168998 -0.115802E+00  0.237E-01    0.14       1.0  T
  33   -118.7870722  0.298276E-01  0.411E-01    0.12       1.0  T
  34   -118.8272303 -0.401581E-01  0.111E-01    0.13       1.0  T
  35   -118.8290423 -0.181208E-02  0.772E-02    0.13       1.0  T
  36   -118.8274289  0.161349E-02  0.109E-01    0.13       1.0  T
  37   -118.8300757 -0.264684E-02  0.416E-02    0.13       1.0  T
  38   -118.8301718 -0.961013E-04  0.357E-02    0.13       1.0  T
  39   -118.8304640 -0.292230E-03  0.114E-02    0.13       1.1  T
  40   -118.8304820 -0.179881E-04  0.641E-03    0.13       1.9  T
  41   -118.8304797  0.235266E-05  0.689E-03    0.13       1.8  T
  42   -118.8304876 -0.790122E-05  0.373E-03    0.13       3.3  T
  43   -118.8304910 -0.345951E-05  0.982E-04    0.13      12.4  T
  44   -118.8304910  0.693932E-07  0.108E-03    0.13      11.3  T
  45   -118.8304912 -0.283577E-06  0.198E-04    0.13      61.7  T
  46   -118.8304912 -0.639230E-08  0.970E-05    0.13     126.0  T

   *** convergence criteria satisfied after 46 iterations ***

         #    Occupation            Energy/Eh            Energy/eV
      -------------------------------------------------------------
         1        2.0000           -0.7823924             -21.2900
       ...           ...                  ...                  ...
       103        2.0000           -0.2552720              -6.9463
       104        2.0000           -0.2528340              -6.8800
       105        2.0000           -0.2513046              -6.8383
       106        1.9998           -0.2487314              -6.7683
       107        1.9959           -0.2458855              -6.6909
       108        1.9911           -0.2451389              -6.6706
       109        1.8670           -0.2425095              -6.5990 (HOMO)
       110        0.1461           -0.2375863              -6.4651 (LUMO)
       111        0.0001           -0.2307076              -6.2779
       112        0.0000           -0.2260319              -6.1506
       113                         -0.2221914              -6.0461
       114                         -0.2142655              -5.8305
       ...                                ...                  ...
       272                         15.3531469             417.7804
      -------------------------------------------------------------
                  HL-Gap            0.0049232 Eh            0.1340 eV
             Fermi-level           -0.2400000 Eh           -6.5307 eV

 SCC (total)                   0 d,  0 h,  0 min,  5.783 sec
 SCC setup                      ...        0 min,  0.004 sec (  0.070%)
 Dispersion                     ...        0 min,  0.002 sec (  0.037%)
 classical contributions        ...        0 min,  0.001 sec (  0.013%)
 integral evaluation            ...        0 min,  0.040 sec (  0.688%)
 iterations                     ...        0 min,  5.558 sec ( 96.108%)
 molecular gradient             ...        0 min,  0.125 sec (  2.159%)
 printout                       ...        0 min,  0.053 sec (  0.923%)

         :::::::::::::::::::::::::::::::::::::::::::::::::::::
         ::                     SUMMARY                     ::
         :::::::::::::::::::::::::::::::::::::::::::::::::::::
         :: total energy            -117.985776698260 Eh    ::
         :: total w/o Gsasa/hb      -117.982142291146 Eh    ::
         :: gradient norm              0.148572222327 Eh/a0 ::
         :: HOMO-LUMO gap              0.133966072415 eV    ::
         ::.................................................::
         :: SCC energy              -118.830491242372 Eh    ::
         :: -> electrostatic           0.690262745327 Eh    ::
         :: -> Gsolv                  -0.381386808769 Eh    ::
         ::    -> Gelec               -0.377752401655 Eh    ::
         ::    -> Gsasa               -0.005533636931 Eh    ::
         ::    -> Ghb                 -0.002346376854 Eh    ::
         ::    -> Gshift               0.004245606671 Eh    ::
         :: repulsion energy           0.910219171790 Eh    ::
         :: dispersion energy         -0.065504627678 Eh    ::
         :: halogen bond corr.         0.000000000000 Eh    ::
         :: add. restraining           0.000000000000 Eh    ::
         :: total charge              -2.999999999994 e     ::
         :::::::::::::::::::::::::::::::::::::::::::::::::::::

      ----------------------------------------------------------- 
     |                   =====================                   |
     |                        A N C O P T                        |
     |                   =====================                   |
     |               Approximate Normal Coordinate               |
     |                Rational Function Optimizer                |
      ----------------------------------------------------------- 

          ...................................................
          :                      SETUP                      :
          :.................................................:
          :   optimization level             loose          :
          :   max. optcycles                   200          :
          :   ANC micro-cycles                  20          :
          :   degrees of freedom               195          :
          :.................................................:
          :   RF solver                   davidson          :
          :   write xtbopt.log                true          :
          :   linear?                        false          :
          :   energy convergence         0.5000000E-04 Eh   :
          :   grad. convergence          0.4000000E-02 Eh/α :
          :   maxmium RF displ.          1.0000000          :
          :   Hlow (freq-cutoff)         0.1000000E-01      :
          :   Hmax (freq-cutoff)         5.0000000          :
          :   S6 in model hess.         20.0000000          :
          ...................................................

generating ANC from model Hessian ...
Using Lindh-Hessian (1995)
 Shifting diagonal of input Hessian by    1.6611908594586691E-002
 Lowest  eigenvalues of input Hessian
    0.010000    0.015663    0.015937    0.016315    0.016589    0.016610
    0.000000    0.000000    0.000000    0.000000    0.000000    0.000000
    0.016630    0.016675    0.016718    0.016782    0.016813    0.016827
 Highest eigenvalues
    1.581657    1.864377    1.960929    2.044984    2.138403    2.259806


........................................................................
.............................. CYCLE    1 ..............................
........................................................................

 iter      E             dE          RMSdq      gap      omega  full diag
   1   -118.8304912 -0.118830E+03  0.945E-05    0.13       0.0  T
   2   -118.8304882  0.303027E-05  0.330E-03    0.13       3.7  T
   3   -118.8304912 -0.296935E-05  0.464E-04    0.13      26.3  T
   4   -118.8304912 -0.469571E-07  0.241E-04    0.13      50.7  T
   5   -118.8304912 -0.918963E-08  0.159E-04    0.13      76.7  T
   6   -118.8304912 -0.301119E-08  0.123E-04    0.13      99.2  T
     SCC iter.                  ...        0 min,  0.780 sec
     gradient                   ...        0 min,  0.080 sec
 * total energy  :  -117.9857767 Eh     change        0.1664787E-08 Eh
   gradient norm :     0.1485719 Eh/α   predicted     0.0000000E+00 (-100.00%)
   displ. norm   :     0.6138931 α      lambda       -0.6352818E-01
   maximum displ.:     0.2249662 α      in ANC's #64, #85, #77, ...

........................................................................
.............................. CYCLE    2 ..............................
........................................................................

 iter      E             dE          RMSdq      gap      omega  full diag
   1   -118.8728481 -0.118873E+03  0.276E-01    0.14       0.0  T
   2    -95.6121059  0.232607E+02  0.817E+00    0.22       1.0  T
   3   -118.2833218 -0.226712E+02  0.153E+00    0.27       1.0  T
   4   -117.8685285  0.414793E+00  0.192E+00    0.06       1.0  T
   5   -118.7069306 -0.838402E+00  0.834E-01    0.13       1.0  T
   6   -118.8240762 -0.117146E+00  0.492E-01    0.17       1.0  T
   7   -118.6573351  0.166741E+00  0.909E-01    0.16       1.0  T
   8   -118.8886905 -0.231355E+00  0.740E-02    0.15       1.0  T
   9   -118.8861893  0.250126E-02  0.116E-01    0.15       1.0  T
  10   -118.8891013 -0.291207E-02  0.568E-02    0.15       1.0  T
  11   -118.8891286 -0.272566E-04  0.537E-02    0.15       1.0  T
  12   -118.8897290 -0.600413E-03  0.309E-02    0.15       1.0  T
  13   -118.8897565 -0.275078E-04  0.291E-02    0.15       1.0  T
  14   -118.8898016 -0.450292E-04  0.259E-02    0.15       1.0  T
  15   -118.8899186 -0.117042E-03  0.148E-02    0.15       1.0  T
  16   -118.8899630 -0.443751E-04  0.683E-03    0.15       1.8  T
  17   -118.8899682 -0.522567E-05  0.491E-03    0.15       2.5  T
  18   -118.8899718 -0.356847E-05  0.303E-03    0.15       4.0  T
  19   -118.8899740 -0.222279E-05  0.920E-04    0.15      13.3  T
  20   -118.8899742 -0.170736E-06  0.453E-04    0.15      27.0  T
  21   -118.8899742 -0.519856E-07  0.148E-04    0.15      82.6  T
  22   -118.8899742 -0.617148E-08  0.168E-05    0.15     726.5  T
     SCC iter.                  ...        0 min,  2.787 sec
     gradient                   ...        0 min,  0.104 sec
 * total energy  :  -118.0261549 Eh     change       -0.4037825E-01 Eh
   gradient norm :     0.0575196 Eh/α   predicted    -0.4374296E-01 (   8.33%)
   displ. norm   :     0.5028146 α      lambda       -0.1805307E-01
   maximum displ.:     0.1947547 α      in ANC's #64, #54, #52, ...

........................................................................
.............................. CYCLE    3 ..............................
........................................................................

 iter      E             dE          RMSdq      gap      omega  full diag
   1   -118.8988560 -0.118899E+03  0.209E-01    0.16       0.0  T
   2    -99.5433974  0.193555E+02  0.752E+00    0.07       1.0  T
   3   -117.4521259 -0.179087E+02  0.223E+00    0.14       1.0  T
   4   -118.8413005 -0.138917E+01  0.511E-01    0.14       1.0  T
   5   -118.1594609  0.681840E+00  0.165E+00    0.15       1.0  T
   6   -118.7653646 -0.605904E+00  0.757E-01    0.23       1.0  T
   7   -118.9054823 -0.140118E+00  0.137E-01    0.16       1.0  T
   8   -118.9093983 -0.391605E-02  0.575E-02    0.17       1.0  T
   9   -118.9091351  0.263187E-03  0.642E-02    0.17       1.0  T
  10   -118.9098251 -0.689984E-03  0.393E-02    0.17       1.0  T
  11   -118.9100319 -0.206761E-03  0.279E-02    0.17       1.0  T
  12   -118.9101926 -0.160729E-03  0.137E-02    0.16       1.0  T
  13   -118.9102099 -0.173320E-04  0.113E-02    0.16       1.1  T
  14   -118.9102271 -0.171621E-04  0.811E-03    0.16       1.5  T
  15   -118.9102390 -0.118823E-04  0.489E-03    0.16       2.5  T
  16   -118.9102421 -0.306522E-05  0.351E-03    0.16       3.5  T
  17   -118.9102427 -0.666473E-06  0.308E-03    0.16       4.0  T
  18   -118.9102438 -0.110926E-05  0.223E-03    0.16       5.5  T
  19   -118.9102447 -0.829059E-06  0.134E-03    0.16       9.1  T
  20   -118.9102448 -0.187091E-06  0.105E-03    0.16      11.7  T
  21   -118.9102451 -0.242896E-06  0.453E-04    0.16      27.0  T
  22   -118.9102451 -0.538214E-07  0.740E-05    0.16     165.2  T
  23   -118.9102451 -0.116664E-08  0.322E-05    0.16     379.4  T
     SCC iter.                  ...        0 min,  2.972 sec
     gradient                   ...        0 min,  0.090 sec
 * total energy  :  -118.0391178 Eh     change       -0.1296287E-01 Eh
   gradient norm :     0.0331846 Eh/α   predicted    -0.1130866E-01 ( -12.76%)
   displ. norm   :     0.6152586 α      lambda       -0.1486177E-01
   maximum displ.:     0.1905409 α      in ANC's #41, #53, #47, ...

........................................................................
.............................. CYCLE    4 ..............................
........................................................................

 iter      E             dE          RMSdq      gap      omega  full diag
   1   -118.8833450 -0.118883E+03  0.329E-01    0.15       0.0  T
   2    -91.4082697  0.274751E+02  0.878E+00    0.21       1.0  T
   3   -117.5875694 -0.261793E+02  0.221E+00    0.21       1.0  T
   4   -118.6066273 -0.101906E+01  0.106E+00    0.19       1.0  T
   5   -118.8175603 -0.210933E+00  0.611E-01    0.16       1.0  T
   6   -116.8850361  0.193252E+01  0.263E+00    0.13       1.0  T
   7   -118.9077468 -0.202271E+01  0.171E-01    0.18       1.0  T
   8   -118.9088675 -0.112067E-02  0.149E-01    0.18       1.0  T
   9   -118.9090785 -0.211010E-03  0.147E-01    0.19       1.0  T
  10   -118.9109194 -0.184094E-02  0.121E-01    0.19       1.0  T
  11   -118.9134915 -0.257203E-02  0.704E-02    0.19       1.0  T
  12   -118.9147648 -0.127338E-02  0.230E-02    0.18       1.0  T
  13   -118.9147133  0.515462E-04  0.266E-02    0.18       1.0  T
  14   -118.9147667 -0.534479E-04  0.222E-02    0.18       1.0  T
  15   -118.9149011 -0.134328E-03  0.366E-03    0.18       3.3  T
  16   -118.9149039 -0.287856E-05  0.156E-03    0.18       7.8  T
  17   -118.9149040 -0.882029E-07  0.134E-03    0.18       9.1  T
  18   -118.9149042 -0.122188E-06  0.107E-03    0.18      11.4  T
  19   -118.9149044 -0.225847E-06  0.548E-04    0.18      22.3  T
  20   -118.9149044 -0.605499E-07  0.245E-04    0.18      49.8  T
  21   -118.9149045 -0.135279E-07  0.936E-05    0.18     130.5  T
  22   -118.9149045 -0.148111E-08  0.574E-05    0.18     213.0  T
     SCC iter.                  ...        0 min,  2.854 sec
     gradient                   ...        0 min,  0.096 sec
 * total energy  :  -118.0469964 Eh     change       -0.7878639E-02 Eh
   gradient norm :     0.0707989 Eh/α   predicted    -0.1024379E-01 (  30.02%)
   displ. norm   :     0.4435130 α      lambda       -0.8520335E-02
   maximum displ.:     0.1387508 α      in ANC's #36, #40, #52, ...

........................................................................
.............................. CYCLE    5 ..............................
........................................................................

 iter      E             dE          RMSdq      gap      omega  full diag
   1   -118.9230240 -0.118923E+03  0.170E-01    0.19       0.0  T
   2   -110.9948416  0.792818E+01  0.495E+00    0.05       1.0  T
   3   -118.8282947 -0.783345E+01  0.651E-01    0.24       1.0  T
   4   -117.8401522  0.988142E+00  0.195E+00    0.15       1.0  T
   5   -118.8149499 -0.974798E+00  0.650E-01    0.15       1.0  T
   6   -118.9183875 -0.103438E+00  0.196E-01    0.20       1.0  T
   7   -118.5587863  0.359601E+00  0.113E+00    0.15       1.0  T
   8   -118.9277585 -0.368972E+00  0.435E-02    0.19       1.0  T
   9   -118.9277965 -0.380079E-04  0.423E-02    0.19       1.0  T
  10   -118.9281044 -0.307878E-03  0.228E-02    0.19       1.0  T
  11   -118.9282178 -0.113436E-03  0.957E-03    0.19       1.3  T
  12   -118.9282353 -0.175222E-04  0.472E-03    0.19       2.6  T
  13   -118.9282355 -0.204021E-06  0.448E-03    0.19       2.7  T
  14   -118.9282380 -0.244065E-05  0.337E-03    0.19       3.6  T
  15   -118.9282387 -0.744283E-06  0.285E-03    0.19       4.3  T
  16   -118.9282397 -0.988022E-06  0.209E-03    0.19       5.9  T
  17   -118.9282402 -0.503676E-06  0.153E-03    0.19       8.0  T
  18   -118.9282407 -0.473859E-06  0.661E-04    0.19      18.5  T
  19   -118.9282408 -0.958401E-07  0.225E-04    0.19      54.3  T
  20   -118.9282408 -0.752937E-08  0.154E-04    0.19      79.3  T
  21   -118.9282408 -0.549284E-08  0.529E-05    0.19     230.9  T
     SCC iter.                  ...        0 min,  2.619 sec
     gradient                   ...        0 min,  0.081 sec
 * total energy  :  -118.0529957 Eh     change       -0.5999290E-02 Eh
   gradient norm :     0.0290743 Eh/α   predicted    -0.5098212E-02 ( -15.02%)
   displ. norm   :     0.5944820 α      lambda       -0.6526289E-02
   maximum displ.:     0.1853142 α      in ANC's #52, #36, #33, ...

........................................................................
.............................. CYCLE    6 ..............................
........................................................................

 iter      E             dE          RMSdq      gap      omega  full diag
   1   -118.8914258 -0.118891E+03  0.332E-01    0.16       0.0  T
   2    -90.9053931  0.279860E+02  0.888E+00    0.18       1.0  T
   3   -118.0192503 -0.271139E+02  0.190E+00    0.32       1.0  T
   4   -118.3145935 -0.295343E+00  0.148E+00    0.19       1.0  T
   5   -118.8715957 -0.557002E+00  0.460E-01    0.18       1.0  T
   6   -118.1322274  0.739368E+00  0.167E+00    0.23       1.0  T
   7   -118.9231580 -0.790931E+00  0.116E-01    0.19       1.0  T
   8   -118.9236640 -0.506018E-03  0.849E-02    0.19       1.0  T
   9   -118.9243552 -0.691172E-03  0.600E-02    0.20       1.0  T
  10   -118.9249109 -0.555790E-03  0.389E-02    0.20       1.0  T
  11   -118.9249983 -0.873213E-04  0.325E-02    0.19       1.0  T
  12   -118.9251831 -0.184874E-03  0.195E-02    0.19       1.0  T
  13   -118.9252228 -0.396140E-04  0.158E-02    0.19       1.0  T
  14   -118.9252419 -0.191822E-04  0.134E-02    0.19       1.0  T
  15   -118.9252623 -0.203153E-04  0.973E-03    0.19       1.3  T
  16   -118.9252831 -0.208606E-04  0.374E-03    0.19       3.3  T
  17   -118.9252856 -0.245237E-05  0.200E-03    0.19       6.1  T
  18   -118.9252864 -0.796333E-06  0.978E-04    0.19      12.5  T
  19   -118.9252866 -0.238936E-06  0.259E-04    0.19      47.1  T
  20   -118.9252866 -0.750015E-08  0.193E-04    0.19      63.3  T
  21   -118.9252866 -0.690238E-08  0.108E-04    0.19     113.4  T
     SCC iter.                  ...        0 min,  2.672 sec
     gradient                   ...        0 min,  0.076 sec
 * total energy  :  -118.0584936 Eh     change       -0.5497902E-02 Eh
   gradient norm :     0.0245199 Eh/α   predicted    -0.4416433E-02 ( -19.67%)
   displ. norm   :     0.4119129 α      lambda       -0.3551343E-02
   maximum displ.:     0.1093579 α      in ANC's #36, #29, #40, ...

........................................................................
.............................. CYCLE    7 ..............................
........................................................................

 iter      E             dE          RMSdq      gap      omega  full diag
   1   -118.9178241 -0.118918E+03  0.246E-01    0.18       0.0  T
   2    -97.4006142  0.215172E+02  0.791E+00    0.11       1.0  T
   3   -118.3614964 -0.209609E+02  0.159E+00    0.28       1.0  T
   4   -118.6467706 -0.285274E+00  0.102E+00    0.17       1.0  T
   5   -118.8240928 -0.177322E+00  0.630E-01    0.20       1.0  T
   6   -118.9253697 -0.101277E+00  0.188E-01    0.20       1.0  T
   7   -118.7504135  0.174956E+00  0.804E-01    0.18       1.0  T
   8   -118.9330732 -0.182660E+00  0.753E-02    0.20       1.0  T
   9   -118.9342184 -0.114517E-02  0.370E-02    0.20       1.0  T
  10   -118.9344184 -0.199944E-03  0.202E-02    0.20       1.0  T
  11   -118.9344119  0.649338E-05  0.177E-02    0.20       1.0  T
  12   -118.9344700 -0.581497E-04  0.923E-03    0.20       1.3  T
  13   -118.9344872 -0.171421E-04  0.469E-03    0.20       2.6  T
  14   -118.9344918 -0.461274E-05  0.201E-03    0.20       6.1  T
  15   -118.9344924 -0.625672E-06  0.132E-03    0.20       9.2  T
  16   -118.9344928 -0.373285E-06  0.509E-04    0.20      24.0  T
  17   -118.9344928 -0.535546E-07  0.213E-04    0.20      57.2  T
  18   -118.9344928 -0.214582E-08  0.188E-04    0.20      65.0  T
  19   -118.9344928 -0.384635E-08  0.133E-04    0.20      91.8  T
     SCC iter.                  ...        0 min,  2.353 sec
     gradient                   ...        0 min,  0.095 sec
 * total energy  :  -118.0600031 Eh     change       -0.1509466E-02 Eh
   gradient norm :     0.0252891 Eh/α   predicted    -0.2076951E-02 (  37.60%)
   displ. norm   :     0.2221301 α      lambda       -0.1867684E-02
   maximum displ.:     0.0949145 α      in ANC's #1, #30, #29, ...

........................................................................
.............................. CYCLE    8 ..............................
........................................................................

 iter      E             dE          RMSdq      gap      omega  full diag
   1   -118.9283354 -0.118928E+03  0.132E-01    0.19       0.0  T
   2   -115.8090712  0.311926E+01  0.323E+00    0.10       1.0  T
   3   -118.8882044 -0.307913E+01  0.437E-01    0.22       1.0  T
   4   -118.8662866  0.219178E-01  0.483E-01    0.19       1.0  T
   5   -118.8676369 -0.135032E-02  0.488E-01    0.19       1.0  T
   6   -118.8710314 -0.339445E-02  0.464E-01    0.19       1.0  T
   7   -118.9321170 -0.610856E-01  0.516E-02    0.20       1.0  T
   8   -118.9325108 -0.393796E-03  0.312E-02    0.20       1.0  T
   9   -118.9327404 -0.229621E-03  0.123E-02    0.20       1.0  T
  10   -118.9327299  0.105253E-04  0.129E-02    0.20       1.0  T
  11   -118.9327727 -0.428260E-04  0.306E-03    0.20       4.0  T
  12   -118.9327710  0.172961E-05  0.391E-03    0.20       3.1  T
  13   -118.9327716 -0.584633E-06  0.357E-03    0.20       3.4  T
  14   -118.9327733 -0.173359E-05  0.251E-03    0.20       4.9  T
  15   -118.9327748 -0.150526E-05  0.859E-04    0.20      14.2  T
  16   -118.9327750 -0.187722E-06  0.141E-04    0.20      86.7  T
  17   -118.9327750 -0.263140E-08  0.102E-04    0.20     119.8  T
     SCC iter.                  ...        0 min,  2.209 sec
     gradient                   ...        0 min,  0.102 sec
 * total energy  :  -118.0612878 Eh     change       -0.1284742E-02 Eh
   gradient norm :     0.0168782 Eh/α   predicted    -0.9799216E-03 ( -23.73%)
   displ. norm   :     0.3634092 α      lambda       -0.1741500E-02
   maximum displ.:     0.1365982 α      in ANC's #30, #29, #21, ...

........................................................................
.............................. CYCLE    9 ..............................
........................................................................

 iter      E             dE          RMSdq      gap      omega  full diag
   1   -118.9264030 -0.118926E+03  0.130E-01    0.18       0.0  T
   2   -115.6320850  0.329432E+01  0.342E+00    0.05       1.0  T
   3   -118.7534112 -0.312133E+01  0.790E-01    0.24       1.0  T
   4   -118.8583621 -0.104951E+00  0.503E-01    0.18       1.0  T
   5   -118.8941627 -0.358007E-01  0.362E-01    0.17       1.0  T
   6   -118.8982406 -0.407784E-02  0.330E-01    0.20       1.0  T
   7   -118.9253102 -0.270696E-01  0.145E-01    0.20       1.0  T
   8   -118.9294445 -0.413428E-02  0.666E-02    0.19       1.0  T
   9   -118.9301361 -0.691585E-03  0.436E-02    0.19       1.0  T
  10   -118.9304809 -0.344809E-03  0.270E-02    0.19       1.0  T
  11   -118.9306371 -0.156248E-03  0.140E-02    0.19       1.0  T
  12   -118.9306128  0.243362E-04  0.166E-02    0.19       1.0  T
  13   -118.9306562 -0.434406E-04  0.107E-02    0.19       1.1  T
  14   -118.9306746 -0.183356E-04  0.663E-03    0.19       1.8  T
  15   -118.9306857 -0.111240E-04  0.120E-03    0.19      10.2  T
  16   -118.9306860 -0.280101E-06  0.563E-04    0.19      21.7  T
  17   -118.9306860 -0.651086E-07  0.267E-04    0.19      45.7  T
  18   -118.9306861 -0.146527E-07  0.131E-04    0.19      93.5  T
  19   -118.9306861 -0.438270E-08  0.373E-05    0.19     327.2  T
     SCC iter.                  ...        0 min,  2.259 sec
     gradient                   ...        0 min,  0.090 sec
 * total energy  :  -118.0624319 Eh     change       -0.1144093E-02 Eh
   gradient norm :     0.0162298 Eh/α   predicted    -0.9857482E-03 ( -13.84%)
   displ. norm   :     0.4230520 α      lambda       -0.1328944E-02
   maximum displ.:     0.1461316 α      in ANC's #21, #29, #1, ...

........................................................................
.............................. CYCLE   10 ..............................
........................................................................

 iter      E             dE          RMSdq      gap      omega  full diag
   1   -118.9174079 -0.118917E+03  0.211E-01    0.17       0.0  T
   2   -107.3203917  0.115970E+02  0.601E+00    0.03       1.0  T
   3   -118.0269696 -0.107066E+02  0.184E+00    0.21       1.0  T
   4   -118.6760140 -0.649044E+00  0.957E-01    0.20       1.0  T
   5   -118.9230422 -0.247028E+00  0.179E-01    0.18       1.0  T
   6   -118.5673659  0.355676E+00  0.114E+00    0.18       1.0  T
   7   -118.9242531 -0.356887E+00  0.144E-01    0.19       1.0  T
   8   -118.9293923 -0.513925E-02  0.479E-02    0.18       1.0  T
   9   -118.9295464 -0.154029E-03  0.396E-02    0.18       1.0  T
  10   -118.9297051 -0.158715E-03  0.316E-02    0.19       1.0  T
  11   -118.9298175 -0.112368E-03  0.246E-02    0.18       1.0  T
  12   -118.9298714 -0.539214E-04  0.209E-02    0.18       1.0  T
  13   -118.9299051 -0.337626E-04  0.178E-02    0.18       1.0  T
  14   -118.9299654 -0.602453E-04  0.934E-03    0.18       1.3  T
  15   -118.9299834 -0.179720E-04  0.420E-03    0.18       2.9  T
  16   -118.9299853 -0.191979E-05  0.328E-03    0.18       3.7  T
  17   -118.9299866 -0.133262E-05  0.243E-03    0.18       5.0  T
  18   -118.9299877 -0.110947E-05  0.133E-03    0.18       9.2  T
  19   -118.9299882 -0.477476E-06  0.238E-04    0.18      51.2  T
  20   -118.9299882 -0.893732E-08  0.163E-04    0.18      74.8  T
  21   -118.9299882 -0.646160E-08  0.487E-05    0.18     251.0  T
     SCC iter.                  ...        0 min,  2.476 sec
     gradient                   ...        0 min,  0.093 sec
 * total energy  :  -118.0634536 Eh     change       -0.1021609E-02 Eh
   gradient norm :     0.0199635 Eh/α   predicted    -0.7833999E-03 ( -23.32%)
   displ. norm   :     0.5206902 α      lambda       -0.1584795E-02
   maximum displ.:     0.1994983 α      in ANC's #21, #29, #7, ...

........................................................................
.............................. CYCLE   11 ..............................
........................................................................

 iter      E             dE          RMSdq      gap      omega  full diag
   1   -118.9249361 -0.118925E+03  0.150E-01    0.17       0.0  T
   2   -109.6948966  0.923004E+01  0.533E+00    0.02       1.0  T
   3   -118.5492391 -0.885434E+01  0.119E+00    0.23       1.0  T
   4   -118.8218674 -0.272628E+00  0.633E-01    0.19       1.0  T
   5   -118.8925748 -0.707074E-01  0.380E-01    0.18       1.0  T
   6   -118.3348013  0.557774E+00  0.144E+00    0.16       1.0  T
   7   -118.9288149 -0.594014E+00  0.106E-01    0.19       1.0  T
   8   -118.9299704 -0.115549E-02  0.762E-02    0.18       1.0  T
   9   -118.9306956 -0.725197E-03  0.553E-02    0.18       1.0  T
  10   -118.9309854 -0.289856E-03  0.453E-02    0.18       1.0  T
  11   -118.9311800 -0.194627E-03  0.368E-02    0.18       1.0  T
  12   -118.9313608 -0.180803E-03  0.275E-02    0.18       1.0  T
  13   -118.9314019 -0.410614E-04  0.244E-02    0.18       1.0  T
  14   -118.9314777 -0.757867E-04  0.172E-02    0.18       1.0  T
  15   -118.9315370 -0.592673E-04  0.811E-03    0.18       1.5  T
  16   -118.9315497 -0.127566E-04  0.414E-03    0.18       3.0  T
  17   -118.9315519 -0.218667E-05  0.299E-03    0.18       4.1  T
  18   -118.9315539 -0.195207E-05  0.131E-03    0.18       9.3  T
  19   -118.9315543 -0.438402E-06  0.264E-04    0.18      46.2  T
  20   -118.9315543 -0.117307E-07  0.163E-04    0.18      74.8  T
  21   -118.9315543 -0.451668E-08  0.100E-04    0.18     121.7  T
     SCC iter.                  ...        0 min,  2.530 sec
     gradient                   ...        0 min,  0.095 sec
 * total energy  :  -118.0646910 Eh     change       -0.1237432E-02 Eh
   gradient norm :     0.0150706 Eh/α   predicted    -0.1007230E-02 ( -18.60%)
   displ. norm   :     0.5154217 α      lambda       -0.1408378E-02
   maximum displ.:     0.2040301 α      in ANC's #21, #7, #17, ...

........................................................................
.............................. CYCLE   12 ..............................
........................................................................

 iter      E             dE          RMSdq      gap      omega  full diag
   1   -118.9260850 -0.118926E+03  0.179E-01    0.17       0.0  T
   2   -107.9519529  0.109741E+02  0.583E+00    0.02       1.0  T
   3   -118.1790512 -0.102271E+02  0.165E+00    0.21       1.0  T
   4   -118.8220828 -0.643032E+00  0.640E-01    0.19       1.0  T
   5   -118.8668985 -0.448156E-01  0.501E-01    0.18       1.0  T
   6   -118.5647315  0.302167E+00  0.114E+00    0.16       1.0  T
   7   -118.9331957 -0.368464E+00  0.964E-02    0.19       1.0  T
   8   -118.9342446 -0.104887E-02  0.637E-02    0.18       1.0  T
   9   -118.9348852 -0.640630E-03  0.417E-02    0.18       1.0  T
  10   -118.9349691 -0.838635E-04  0.379E-02    0.18       1.0  T
  11   -118.9350351 -0.659557E-04  0.341E-02    0.18       1.0  T
  12   -118.9352160 -0.180980E-03  0.236E-02    0.18       1.0  T
  13   -118.9352496 -0.335253E-04  0.207E-02    0.18       1.0  T
  14   -118.9352958 -0.462199E-04  0.158E-02    0.18       1.0  T
  15   -118.9353442 -0.483877E-04  0.783E-03    0.18       1.6  T
  16   -118.9353579 -0.137414E-04  0.304E-03    0.18       4.0  T
  17   -118.9353599 -0.194848E-05  0.143E-03    0.18       8.6  T
  18   -118.9353603 -0.474559E-06  0.552E-04    0.18      22.1  T
  19   -118.9353604 -0.735924E-07  0.201E-04    0.18      60.8  T
  20   -118.9353604 -0.378967E-08  0.162E-04    0.18      75.4  T
  21   -118.9353604 -0.595654E-08  0.724E-05    0.18     168.7  T
     SCC iter.                  ...        0 min,  2.651 sec
     gradient                   ...        0 min,  0.096 sec
 * total energy  :  -118.0657310 Eh     change       -0.1039984E-02 Eh
   gradient norm :     0.0091828 Eh/α   predicted    -0.8912669E-03 ( -14.30%)
   displ. norm   :     0.4481625 α      lambda       -0.1015705E-02
   maximum displ.:     0.1768155 α      in ANC's #21, #17, #19, ...

........................................................................
.............................. CYCLE   13 ..............................
........................................................................

 iter      E             dE          RMSdq      gap      omega  full diag
   1   -118.9315562 -0.118932E+03  0.141E-01    0.18       0.0  T
   2   -109.3621818  0.956937E+01  0.542E+00    0.02       1.0  T
   3   -118.5780519 -0.921587E+01  0.114E+00    0.22       1.0  T
   4   -118.8620051 -0.283953E+00  0.523E-01    0.19       1.0  T
   5   -118.8689783 -0.697322E-02  0.499E-01    0.19       1.0  T
   6   -118.6479516  0.221027E+00  0.101E+00    0.16       1.0  T
   7   -118.9366676 -0.288716E+00  0.673E-02    0.19       1.0  T
   8   -118.9372619 -0.594283E-03  0.386E-02    0.19       1.0  T
   9   -118.9374092 -0.147296E-03  0.302E-02    0.19       1.0  T
  10   -118.9373919  0.173312E-04  0.311E-02    0.19       1.0  T
  11   -118.9374640 -0.720818E-04  0.266E-02    0.19       1.0  T
  12   -118.9375687 -0.104720E-03  0.188E-02    0.19       1.0  T
  13   -118.9375867 -0.180008E-04  0.169E-02    0.19       1.0  T
  14   -118.9376031 -0.163864E-04  0.148E-02    0.19       1.0  T
  15   -118.9376463 -0.432361E-04  0.744E-03    0.19       1.6  T
  16   -118.9376588 -0.125068E-04  0.276E-03    0.19       4.4  T
  17   -118.9376602 -0.139696E-05  0.158E-03    0.19       7.7  T
  18   -118.9376607 -0.499385E-06  0.784E-04    0.19      15.6  T
  19   -118.9376609 -0.160447E-06  0.191E-04    0.19      63.8  T
  20   -118.9376609 -0.920984E-08  0.599E-05    0.19     203.9  T
     SCC iter.                  ...        0 min,  2.459 sec
     gradient                   ...        0 min,  0.097 sec
 * total energy  :  -118.0665113 Eh     change       -0.7803756E-03 Eh
   gradient norm :     0.0116430 Eh/α   predicted    -0.6098544E-03 ( -21.85%)
   displ. norm   :     0.4502052 α      lambda       -0.1143135E-02
   maximum displ.:     0.1575212 α      in ANC's #21, #22, #19, ...

........................................................................
.............................. CYCLE   14 ..............................
........................................................................

 iter      E             dE          RMSdq      gap      omega  full diag
   1   -118.9364569 -0.118936E+03  0.136E-01    0.18       0.0  T
   2   -112.4274772  0.650898E+01  0.457E+00    0.05       1.0  T
   3   -118.7612624 -0.633379E+01  0.802E-01    0.21       1.0  T
   4   -118.8821214 -0.120859E+00  0.459E-01    0.19       1.0  T
   5   -118.8737501  0.837131E-02  0.499E-01    0.19       1.0  T
   6   -118.8007364  0.730137E-01  0.710E-01    0.16       1.0  T
   7   -118.9406511 -0.139915E+00  0.736E-02    0.19       1.0  T
   8   -118.9418176 -0.116655E-02  0.287E-02    0.19       1.0  T
   9   -118.9418102  0.742011E-05  0.294E-02    0.19       1.0  T
  10   -118.9418056  0.465899E-05  0.292E-02    0.19       1.0  T
  11   -118.9419106 -0.105069E-03  0.219E-02    0.19       1.0  T
  12   -118.9419864 -0.757605E-04  0.145E-02    0.19       1.0  T
  13   -118.9420140 -0.276045E-04  0.104E-02    0.19       1.2  T
  14   -118.9420208 -0.680039E-05  0.893E-03    0.19       1.4  T
  15   -118.9420382 -0.174023E-04  0.374E-03    0.19       3.3  T
  16   -118.9420415 -0.325349E-05  0.116E-03    0.19      10.5  T
  17   -118.9420417 -0.284737E-06  0.526E-04    0.19      23.2  T
  18   -118.9420418 -0.657811E-07  0.191E-04    0.19      63.9  T
  19   -118.9420418 -0.874785E-08  0.687E-05    0.19     177.8  T
     SCC iter.                  ...        0 min,  2.385 sec
     gradient                   ...        0 min,  0.123 sec
 * total energy  :  -118.0674064 Eh     change       -0.8950312E-03 Eh
   gradient norm :     0.0172845 Eh/α   predicted    -0.6874208E-03 ( -23.20%)
   displ. norm   :     0.5592623 α      lambda       -0.1409709E-02
   maximum displ.:     0.1674935 α      in ANC's #21, #22, #20, ...

........................................................................
.............................. CYCLE   15 ..............................
........................................................................

 iter      E             dE          RMSdq      gap      omega  full diag
   1   -118.9318670 -0.118932E+03  0.168E-01    0.18       0.0  T
   2   -107.5135021  0.114184E+02  0.591E+00    0.05       1.0  T
   3   -118.1876535 -0.106742E+02  0.164E+00    0.22       1.0  T
   4   -118.7953467 -0.607693E+00  0.718E-01    0.20       1.0  T
   5   -118.9172049 -0.121858E+00  0.303E-01    0.19       1.0  T
   6   -118.2465310  0.670674E+00  0.157E+00    0.15       1.0  T
   7   -118.9390408 -0.692510E+00  0.791E-02    0.19       1.0  T
   8   -118.9398781 -0.837273E-03  0.482E-02    0.19       1.0  T
   9   -118.9396943  0.183830E-03  0.536E-02    0.19       1.0  T
  10   -118.9398899 -0.195661E-03  0.472E-02    0.19       1.0  T
  11   -118.9400886 -0.198629E-03  0.391E-02    0.19       1.0  T
  12   -118.9403023 -0.213711E-03  0.277E-02    0.19       1.0  T
  13   -118.9403626 -0.603147E-04  0.235E-02    0.19       1.0  T
  14   -118.9404086 -0.460201E-04  0.193E-02    0.19       1.0  T
  15   -118.9404784 -0.697927E-04  0.104E-02    0.19       1.2  T
  16   -118.9405034 -0.250494E-04  0.396E-03    0.19       3.1  T
  17   -118.9405068 -0.335800E-05  0.169E-03    0.19       7.2  T
  18   -118.9405074 -0.590349E-06  0.804E-04    0.19      15.2  T
  19   -118.9405076 -0.154319E-06  0.296E-04    0.19      41.2  T
  20   -118.9405076 -0.886911E-08  0.235E-04    0.19      52.0  T
  21   -118.9405076 -0.122108E-07  0.108E-04    0.19     113.5  T
  22   -118.9405076 -0.294578E-08  0.354E-05    0.19     345.4  T
     SCC iter.                  ...        0 min,  2.882 sec
     gradient                   ...        0 min,  0.089 sec
 * total energy  :  -118.0684755 Eh     change       -0.1069137E-02 Eh
   gradient norm :     0.0162651 Eh/α   predicted    -0.9253189E-03 ( -13.45%)
   displ. norm   :     0.5571759 α      lambda       -0.1602504E-02
   maximum displ.:     0.1622277 α      in ANC's #22, #29, #20, ...

........................................................................
.............................. CYCLE   16 ..............................
........................................................................

 iter      E             dE          RMSdq      gap      omega  full diag
   1   -118.9417258 -0.118942E+03  0.761E-02    0.19       0.0  T
   2   -117.8151482  0.112658E+01  0.196E+00    0.13       1.0  T
   3   -118.9204101 -0.110526E+01  0.279E-01    0.19       1.0  T
   4   -118.9081558  0.122543E-01  0.349E-01    0.18       1.0  T
   5   -118.8806819  0.274739E-01  0.473E-01    0.20       1.0  T
   6   -118.9328381 -0.521562E-01  0.188E-01    0.19       1.0  T
   7   -118.9401229 -0.728476E-02  0.109E-01    0.19       1.0  T
   8   -118.9419373 -0.181444E-02  0.625E-02    0.19       1.0  T
   9   -118.9424060 -0.468704E-03  0.473E-02    0.19       1.0  T
  10   -118.9429059 -0.499915E-03  0.234E-02    0.19       1.0  T
  11   -118.9430570 -0.151093E-03  0.468E-03    0.19       2.6  T
  12   -118.9430611 -0.409670E-05  0.275E-03    0.19       4.4  T
  13   -118.9430608  0.349153E-06  0.290E-03    0.19       4.2  T
  14   -118.9430625 -0.176441E-05  0.135E-03    0.19       9.1  T
  15   -118.9430630 -0.417101E-06  0.476E-04    0.19      25.7  T
  16   -118.9430630 -0.493981E-07  0.196E-04    0.19      62.5  T
  17   -118.9430630 -0.614359E-08  0.122E-04    0.19      99.9  T
     SCC iter.                  ...        0 min,  2.300 sec
     gradient                   ...        0 min,  0.108 sec
 * total energy  :  -118.0695980 Eh     change       -0.1122472E-02 Eh
   gradient norm :     0.0143950 Eh/α   predicted    -0.1050004E-02 (  -6.46%)
   displ. norm   :     0.5555621 α      lambda       -0.1381743E-02
   maximum displ.:     0.1385576 α      in ANC's #22, #20, #4, ...

........................................................................
.............................. CYCLE   17 ..............................
........................................................................

 iter      E             dE          RMSdq      gap      omega  full diag
   1   -118.9367827 -0.118937E+03  0.931E-02    0.17       0.0  T
   2   -117.7117915  0.122499E+01  0.205E+00    0.13       1.0  T
   3   -118.8947757 -0.118298E+01  0.412E-01    0.20       1.0  T
   4   -118.8883634  0.641235E-02  0.426E-01    0.18       1.0  T
   5   -118.9107736 -0.224102E-01  0.317E-01    0.19       1.0  T
   6   -118.8417468  0.690268E-01  0.583E-01    0.16       1.0  T
   7   -118.9380991 -0.963523E-01  0.638E-02    0.18       1.0  T
   8   -118.9377405  0.358603E-03  0.695E-02    0.18       1.0  T
   9   -118.9386000 -0.859472E-03  0.447E-02    0.18       1.0  T
  10   -118.9389657 -0.365654E-03  0.275E-02    0.18       1.0  T
  11   -118.9390806 -0.114913E-03  0.185E-02    0.18       1.0  T
  12   -118.9391331 -0.524873E-04  0.121E-02    0.18       1.0  T
  13   -118.9391626 -0.295192E-04  0.611E-03    0.18       2.0  T
  14   -118.9391727 -0.101468E-04  0.882E-04    0.18      13.8  T
  15   -118.9391726  0.109505E-06  0.107E-03    0.18      11.5  T
  16   -118.9391727 -0.974592E-07  0.874E-04    0.18      14.0  T
  17   -118.9391729 -0.190261E-06  0.282E-04    0.18      43.3  T
  18   -118.9391729 -0.209663E-07  0.591E-05    0.18     206.6  T
  19   -118.9391729 -0.718387E-09  0.241E-05    0.18     506.1  T
     SCC iter.                  ...        0 min,  2.446 sec
     gradient                   ...        0 min,  0.094 sec
 * total energy  :  -118.0704195 Eh     change       -0.8215008E-03 Eh
   gradient norm :     0.0150877 Eh/α   predicted    -0.9041072E-03 (  10.06%)
   displ. norm   :     0.3022877 α      lambda       -0.1268052E-02
   maximum displ.:     0.1195835 α      in ANC's #30, #2, #29, ...

........................................................................
.............................. CYCLE   18 ..............................
........................................................................

 iter      E             dE          RMSdq      gap      omega  full diag
   1   -118.9423700 -0.118942E+03  0.741E-02    0.18       0.0  T
   2   -118.0821540  0.860216E+00  0.174E+00    0.24       1.0  T
   3   -118.9300922 -0.847938E+00  0.230E-01    0.18       1.0  T
   4   -118.9006206  0.294716E-01  0.375E-01    0.18       1.0  T
   5   -118.9194281 -0.188075E-01  0.296E-01    0.20       1.0  T
   6   -118.9148537  0.457435E-02  0.319E-01    0.18       1.0  T
   7   -118.9413802 -0.265265E-01  0.887E-02    0.18       1.0  T
   8   -118.9431710 -0.179085E-02  0.349E-02    0.19       1.0  T
   9   -118.9433388 -0.167726E-03  0.244E-02    0.19       1.0  T
  10   -118.9434150 -0.762774E-04  0.176E-02    0.19       1.0  T
  11   -118.9434937 -0.786285E-04  0.543E-03    0.19       2.3  T
  12   -118.9434995 -0.585426E-05  0.285E-03    0.19       4.3  T
  13   -118.9435012 -0.170399E-05  0.142E-03    0.19       8.6  T
  14   -118.9435016 -0.393258E-06  0.734E-04    0.19      16.6  T
  15   -118.9435018 -0.135984E-06  0.191E-04    0.19      64.0  T
  16   -118.9435018 -0.756012E-08  0.748E-05    0.19     163.3  T
     SCC iter.                  ...        0 min,  2.152 sec
     gradient                   ...        0 min,  0.101 sec
 * total energy  :  -118.0708441 Eh     change       -0.4246215E-03 Eh
   gradient norm :     0.0197692 Eh/α   predicted    -0.6919639E-03 (  62.96%)
   displ. norm   :     0.2032604 α      lambda       -0.7807900E-03
   maximum displ.:     0.0619887 α      in ANC's #1, #3, #4, ...

........................................................................
.............................. CYCLE   19 ..............................
........................................................................

 iter      E             dE          RMSdq      gap      omega  full diag
   1   -118.9437942 -0.118944E+03  0.743E-02    0.20       0.0  T
   2   -116.1931191  0.275068E+01  0.303E+00    0.11       1.0  T
   3   -118.8918340 -0.269871E+01  0.432E-01    0.20       1.0  T
   4   -118.9268559 -0.350219E-01  0.259E-01    0.19       1.0  T
   5   -118.9378323 -0.109764E-01  0.178E-01    0.20       1.0  T
   6   -118.9441420 -0.630974E-02  0.618E-02    0.19       1.0  T
   7   -118.9386122  0.552976E-02  0.151E-01    0.19       1.0  T
   8   -118.9450839 -0.647171E-02  0.221E-02    0.19       1.0  T
   9   -118.9450392  0.447102E-04  0.244E-02    0.19       1.0  T
  10   -118.9451497 -0.110456E-03  0.144E-02    0.19       1.0  T
  11   -118.9451841 -0.344568E-04  0.890E-03    0.19       1.4  T
  12   -118.9451915 -0.738315E-05  0.722E-03    0.19       1.7  T
  13   -118.9451982 -0.668175E-05  0.537E-03    0.19       2.3  T
  14   -118.9452011 -0.285690E-05  0.433E-03    0.19       2.8  T
  15   -118.9452048 -0.368939E-05  0.241E-03    0.19       5.1  T
  16   -118.9452063 -0.158486E-05  0.466E-04    0.19      26.2  T
  17   -118.9452064 -0.603496E-07  0.840E-05    0.19     145.5  T
  18   -118.9452064 -0.884711E-09  0.616E-05    0.19     198.4  T
     SCC iter.                  ...        0 min,  2.214 sec
     gradient                   ...        0 min,  0.118 sec
 * total energy  :  -118.0714086 Eh     change       -0.5644487E-03 Eh
   gradient norm :     0.0115395 Eh/α   predicted    -0.4065259E-03 ( -27.98%)
   displ. norm   :     0.3076901 α      lambda       -0.7305203E-03
   maximum displ.:     0.1248250 α      in ANC's #4, #6, #20, ...

........................................................................
.............................. CYCLE   20 ..............................
........................................................................

 iter      E             dE          RMSdq      gap      omega  full diag
   1   -118.9421903 -0.118942E+03  0.424E-02    0.19       0.0  T
   2   -118.5352652  0.406925E+00  0.115E+00    0.17       1.0  T
   3   -118.9402904 -0.405025E+00  0.945E-02    0.20       1.0  T
   4   -118.9350971  0.519336E-02  0.167E-01    0.19       1.0  T
   5   -118.9290597  0.603738E-02  0.223E-01    0.19       1.0  T
   6   -118.9414127 -0.123530E-01  0.692E-02    0.20       1.0  T
   7   -118.9396810  0.173174E-02  0.104E-01    0.19       1.0  T
   8   -118.9425441 -0.286314E-02  0.255E-02    0.19       1.0  T
   9   -118.9426102 -0.660478E-04  0.204E-02    0.20       1.0  T
  10   -118.9426801 -0.699085E-04  0.127E-02    0.20       1.0  T
  11   -118.9427144 -0.343732E-04  0.616E-03    0.19       2.0  T
  12   -118.9427210 -0.652684E-05  0.388E-03    0.19       3.1  T
  13   -118.9427233 -0.236826E-05  0.261E-03    0.19       4.7  T
  14   -118.9427247 -0.133623E-05  0.141E-03    0.19       8.7  T
  15   -118.9427251 -0.449100E-06  0.621E-04    0.19      19.7  T
  16   -118.9427252 -0.866168E-07  0.276E-04    0.19      44.3  T
  17   -118.9427252 -0.189996E-07  0.865E-05    0.19     141.2  T
  18   -118.9427252 -0.179750E-08  0.372E-05    0.19     328.5  T
     SCC iter.                  ...        0 min,  2.238 sec
     gradient                   ...        0 min,  0.105 sec
 * total energy  :  -118.0718501 Eh     change       -0.4415447E-03 Eh
   gradient norm :     0.0110453 Eh/α   predicted    -0.3998415E-03 (  -9.44%)
   displ. norm   :     0.2958289 α      lambda       -0.6487721E-03
   maximum displ.:     0.1087364 α      in ANC's #4, #2, #6, ...
 * RMSD in coord.:     0.6897002 α      energy gain  -0.8607340E-01 Eh

generating ANC from model Hessian ...
Using Lindh-Hessian (1995)
 Shifting diagonal of input Hessian by    1.3298460593245715E-002
 Lowest  eigenvalues of input Hessian
    0.010000    0.012108    0.012981    0.013271    0.013279    0.013288
    0.013291    0.000000    0.000000    0.000000    0.000000    0.000000
    0.000000    0.013350    0.013382    0.013414    0.013452    0.013491
 Highest eigenvalues
    1.631360    1.870098    1.959730    2.057828    2.150223    2.422273


........................................................................
.............................. CYCLE   21 ..............................
........................................................................

 iter      E             dE          RMSdq      gap      omega  full diag
   1   -118.9409604 -0.118941E+03  0.713E-02    0.19       0.0  T
   2   -117.1346864  0.180627E+01  0.240E+00    0.13       1.0  T
   3   -118.9125726 -0.177789E+01  0.333E-01    0.21       1.0  T
   4   -118.9136845 -0.111185E-02  0.319E-01    0.19       1.0  T
   5   -118.9348178 -0.211334E-01  0.171E-01    0.19       1.0  T
   6   -118.9090899  0.257279E-01  0.347E-01    0.19       1.0  T
   7   -118.9421319 -0.330420E-01  0.389E-02    0.20       1.0  T
   8   -118.9424357 -0.303768E-03  0.147E-02    0.20       1.0  T
   9   -118.9424297  0.604222E-05  0.147E-02    0.20       1.0  T
  10   -118.9424705 -0.408687E-04  0.862E-03    0.20       1.4  T
  11   -118.9424729 -0.235711E-05  0.784E-03    0.20       1.6  T
  12   -118.9424855 -0.126616E-04  0.418E-03    0.20       2.9  T
  13   -118.9424870 -0.144679E-05  0.356E-03    0.20       3.4  T
  14   -118.9424873 -0.361061E-06  0.335E-03    0.20       3.6  T
  15   -118.9424888 -0.147002E-05  0.242E-03    0.20       5.1  T
  16   -118.9424903 -0.147254E-05  0.686E-04    0.20      17.8  T
  17   -118.9424904 -0.122363E-06  0.109E-04    0.20     112.0  T
  18   -118.9424904 -0.260025E-08  0.461E-05    0.20     264.8  T
     SCC iter.                  ...        0 min,  2.329 sec
     gradient                   ...        0 min,  0.083 sec
 * total energy  :  -118.0721438 Eh     change       -0.2937284E-03 Eh
   gradient norm :     0.0119845 Eh/α   predicted     0.0000000E+00 (-100.00%)
   displ. norm   :     0.1907157 α      lambda       -0.9229878E-03
   maximum displ.:     0.1045195 α      in ANC's #2, #33, #3, ...

........................................................................
.............................. CYCLE   22 ..............................
........................................................................

 iter      E             dE          RMSdq      gap      omega  full diag
   1   -118.9418688 -0.118942E+03  0.102E-01    0.20       0.0  T
   2   -113.3865176  0.555535E+01  0.425E+00    0.19       1.0  T
   3   -118.8422856 -0.545577E+01  0.611E-01    0.21       1.0  T
   4   -118.8973380 -0.550524E-01  0.404E-01    0.19       1.0  T
   5   -118.9297146 -0.323767E-01  0.242E-01    0.19       1.0  T
   6   -118.9335312 -0.381653E-02  0.200E-01    0.19       1.0  T
   7   -118.9283085  0.522271E-02  0.241E-01    0.19       1.0  T
   8   -118.9436628 -0.153544E-01  0.589E-02    0.20       1.0  T
   9   -118.9439692 -0.306335E-03  0.478E-02    0.20       1.0  T
  10   -118.9444378 -0.468586E-03  0.241E-02    0.19       1.0  T
  11   -118.9445394 -0.101624E-03  0.136E-02    0.19       1.0  T
  12   -118.9445599 -0.204917E-04  0.102E-02    0.19       1.2  T
  13   -118.9445726 -0.126768E-04  0.774E-03    0.19       1.6  T
  14   -118.9445798 -0.726412E-05  0.583E-03    0.19       2.1  T
  15   -118.9445864 -0.657765E-05  0.325E-03    0.19       3.8  T
  16   -118.9445883 -0.193748E-05  0.193E-03    0.19       6.3  T
  17   -118.9445892 -0.861638E-06  0.781E-04    0.19      15.6  T
  18   -118.9445893 -0.117170E-06  0.434E-04    0.19      28.1  T
  19   -118.9445894 -0.491061E-07  0.106E-04    0.19     115.2  T
  20   -118.9445894 -0.294479E-08  0.220E-05    0.19     554.4  T
     SCC iter.                  ...        0 min,  2.452 sec
     gradient                   ...        0 min,  0.115 sec
 * total energy  :  -118.0709930 Eh     change        0.1150872E-02 Eh
   gradient norm :     0.0064478 Eh/α   predicted    -0.4782825E-03 (-141.56%)
   displ. norm   :     0.2544700 α      lambda       -0.8452443E-03
   maximum displ.:     0.1181663 α      in ANC's #3, #36, #7, ...

........................................................................
.............................. CYCLE   23 ..............................
........................................................................

 iter      E             dE          RMSdq      gap      omega  full diag
   1   -118.9431913 -0.118943E+03  0.125E-01    0.20       0.0  T
   2   -114.7299092  0.421328E+01  0.380E+00    0.08       1.0  T
   3   -118.7260158 -0.399611E+01  0.879E-01    0.21       1.0  T
   4   -118.8195064 -0.934906E-01  0.682E-01    0.18       1.0  T
   5   -118.9061906 -0.866842E-01  0.389E-01    0.20       1.0  T
   6   -118.8812643  0.249263E-01  0.469E-01    0.19       1.0  T
   7   -118.9436792 -0.624148E-01  0.101E-01    0.19       1.0  T
   8   -118.9450377 -0.135853E-02  0.724E-02    0.19       1.0  T
   9   -118.9449876  0.501310E-04  0.725E-02    0.19       1.0  T
  10   -118.9456633 -0.675769E-03  0.524E-02    0.19       1.0  T
  11   -118.9461272 -0.463847E-03  0.315E-02    0.19       1.0  T
  12   -118.9462665 -0.139302E-03  0.213E-02    0.19       1.0  T
  13   -118.9463523 -0.857974E-04  0.119E-02    0.19       1.0  T
  14   -118.9463836 -0.313320E-04  0.517E-03    0.19       2.4  T
  15   -118.9463905 -0.690161E-05  0.102E-03    0.19      11.9  T
  16   -118.9463906 -0.132851E-06  0.714E-04    0.19      17.1  T
  17   -118.9463907 -0.928437E-07  0.413E-04    0.19      29.6  T
  18   -118.9463908 -0.450410E-07  0.901E-05    0.19     135.6  T
  19   -118.9463908 -0.195061E-08  0.325E-05    0.19     376.3  T
     SCC iter.                  ...        0 min,  2.320 sec
     gradient                   ...        0 min,  0.078 sec
 * total energy  :  -118.0713568 Eh     change       -0.3638912E-03 Eh
   gradient norm :     0.0104662 Eh/α   predicted    -0.4499907E-03 (  23.66%)
   displ. norm   :     0.3959234 α      lambda       -0.1169655E-02
   maximum displ.:     0.2154755 α      in ANC's #3, #7, #1, ...

........................................................................
.............................. CYCLE   24 ..............................
........................................................................

 iter      E             dE          RMSdq      gap      omega  full diag
   1   -118.9414280 -0.118941E+03  0.174E-01    0.21       0.0  T
   2   -113.2836674  0.565776E+01  0.436E+00    0.09       1.0  T
   3   -118.4478516 -0.516418E+01  0.132E+00    0.23       1.0  T
   4   -118.5876506 -0.139799E+00  0.114E+00    0.18       1.0  T
   5   -118.8641309 -0.276480E+00  0.575E-01    0.22       1.0  T
   6   -118.7821087  0.820222E-01  0.745E-01    0.19       1.0  T
   7   -118.9457536 -0.163645E+00  0.597E-02    0.20       1.0  T
   8   -118.9441526  0.160103E-02  0.961E-02    0.20       1.0  T
   9   -118.9445298 -0.377224E-03  0.872E-02    0.20       1.0  T
  10   -118.9458328 -0.130301E-02  0.522E-02    0.20       1.0  T
  11   -118.9463530 -0.520205E-03  0.271E-02    0.20       1.0  T
  12   -118.9464083 -0.552603E-04  0.226E-02    0.20       1.0  T
  13   -118.9464696 -0.613929E-04  0.169E-02    0.20       1.0  T
  14   -118.9465282 -0.585455E-04  0.856E-03    0.20       1.4  T
  15   -118.9465473 -0.190822E-04  0.183E-03    0.20       6.7  T
  16   -118.9465481 -0.798711E-06  0.562E-04    0.20      21.7  T
  17   -118.9465481 -0.384702E-07  0.396E-04    0.20      30.9  T
  18   -118.9465481 -0.376947E-07  0.144E-04    0.20      84.8  T
  19   -118.9465482 -0.492997E-08  0.533E-05    0.20     229.2  T
     SCC iter.                  ...        0 min,  2.444 sec
     gradient                   ...        0 min,  0.090 sec
 * total energy  :  -118.0721446 Eh     change       -0.7877922E-03 Eh
   gradient norm :     0.0132882 Eh/α   predicted    -0.6765026E-03 ( -14.13%)
   displ. norm   :     0.6780273 α      lambda       -0.2120146E-02
   maximum displ.:     0.4101762 α      in ANC's #3, #7, #2, ...

........................................................................
.............................. CYCLE   25 ..............................
........................................................................

 iter      E             dE          RMSdq      gap      omega  full diag
   1   -118.9383584 -0.118938E+03  0.201E-01    0.21       0.0  T
   2   -117.7601456  0.117821E+01  0.202E+00    0.15       1.0  T
   3   -118.4260254 -0.665880E+00  0.140E+00    0.17       1.0  T
   4   -118.5389315 -0.112906E+00  0.119E+00    0.21       1.0  T
   5   -118.7331228 -0.194191E+00  0.860E-01    0.21       1.0  T
   6   -118.8899497 -0.156827E+00  0.434E-01    0.22       1.0  T
   7   -118.9408260 -0.508763E-01  0.924E-02    0.21       1.0  T
   8   -118.9409795 -0.153563E-03  0.934E-02    0.21       1.0  T
   9   -118.9416727 -0.693137E-03  0.774E-02    0.21       1.0  T
  10   -118.9428080 -0.113530E-02  0.407E-02    0.21       1.0  T
  11   -118.9432247 -0.416732E-03  0.105E-02    0.21       1.2  T
  12   -118.9432285 -0.381591E-05  0.926E-03    0.21       1.3  T
  13   -118.9432306 -0.212257E-05  0.875E-03    0.21       1.4  T
  14   -118.9432387 -0.808820E-05  0.684E-03    0.21       1.8  T
  15   -118.9432500 -0.113112E-04  0.227E-03    0.21       5.4  T
  16   -118.9432514 -0.136019E-05  0.429E-04    0.21      28.5  T
  17   -118.9432514 -0.352238E-07  0.222E-04    0.21      54.9  T
  18   -118.9432514 -0.931851E-08  0.122E-04    0.21      99.9  T
  19   -118.9432514 -0.404279E-08  0.212E-05    0.21     575.6  T
     SCC iter.                  ...        0 min,  2.508 sec
     gradient                   ...        0 min,  0.072 sec
 * total energy  :  -118.0746167 Eh     change       -0.2472078E-02 Eh
   gradient norm :     0.0196631 Eh/α   predicted    -0.1547412E-02 ( -37.40%)
   displ. norm   :     0.6695737 α      lambda       -0.3427674E-02
   maximum displ.:     0.4400797 α      in ANC's #3, #1, #7, ...

........................................................................
.............................. CYCLE   26 ..............................
........................................................................

 iter      E             dE          RMSdq      gap      omega  full diag
   1   -118.9347867 -0.118935E+03  0.233E-01    0.23       0.0  T
   2   -112.5940347  0.634075E+01  0.455E+00    0.11       1.0  T
   3   -118.5793504 -0.598532E+01  0.119E+00    0.18       1.0  T
   4   -117.3951289  0.118422E+01  0.228E+00    0.05       1.0  T
   5   -118.8195432 -0.142441E+01  0.724E-01    0.25       1.0  T
   6   -118.7721026  0.474406E-01  0.780E-01    0.24       1.0  T
   7   -118.9197726 -0.147670E+00  0.286E-01    0.22       1.0  T
   8   -118.9394606 -0.196880E-01  0.126E-01    0.23       1.0  T
   9   -118.9408285 -0.136792E-02  0.103E-01    0.23       1.0  T
  10   -118.9426041 -0.177556E-02  0.615E-02    0.23       1.0  T
  11   -118.9434568 -0.852756E-03  0.235E-02    0.23       1.0  T
  12   -118.9435633 -0.106499E-03  0.103E-02    0.23       1.2  T
  13   -118.9435789 -0.155417E-04  0.631E-03    0.22       1.9  T
  14   -118.9435851 -0.624102E-05  0.396E-03    0.22       3.1  T
  15   -118.9435888 -0.372202E-05  0.718E-04    0.22      17.0  T
  16   -118.9435889 -0.441985E-07  0.475E-04    0.22      25.7  T
  17   -118.9435889 -0.180256E-07  0.409E-04    0.22      29.9  T
  18   -118.9435889 -0.208178E-07  0.304E-04    0.22      40.2  T
  19   -118.9435889 -0.181906E-07  0.163E-04    0.22      75.1  T
  20   -118.9435889 -0.565993E-08  0.736E-05    0.22     166.0  T
     SCC iter.                  ...        0 min,  2.552 sec
     gradient                   ...        0 min,  0.085 sec
 * total energy  :  -118.0778931 Eh     change       -0.3276357E-02 Eh
   gradient norm :     0.0252006 Eh/α   predicted    -0.2482202E-02 ( -24.24%)
   displ. norm   :     0.6615601 α      lambda       -0.7446127E-02
   maximum displ.:     0.4130202 α      in ANC's #3, #2, #12, ...

........................................................................
.............................. CYCLE   27 ..............................
........................................................................

 iter      E             dE          RMSdq      gap      omega  full diag
   1   -118.9182021 -0.118918E+03  0.413E-01    0.24       0.0  T
   2    -97.3155895  0.216026E+02  0.814E+00    0.17       1.0  T
   3   -114.7987487 -0.174832E+02  0.375E+00    0.11       1.0  T
   4   -118.6107109 -0.381196E+01  0.111E+00    0.18       1.0  T
   5   -118.6335528 -0.228419E-01  0.107E+00    0.16       1.0  T
   6   -118.9073969 -0.273844E+00  0.419E-01    0.24       1.0  T
   7   -118.9270045 -0.196076E-01  0.376E-01    0.24       1.0  T
   8   -118.9526922 -0.256877E-01  0.151E-01    0.23       1.0  T
   9   -118.9558465 -0.315432E-02  0.112E-01    0.23       1.0  T
  10   -118.9555395  0.306962E-03  0.112E-01    0.23       1.0  T
  11   -118.9551379  0.401585E-03  0.110E-01    0.23       1.0  T
  12   -118.9582573 -0.311932E-02  0.193E-02    0.23       1.0  T
  13   -118.9582985 -0.412683E-04  0.144E-02    0.23       1.0  T
  14   -118.9583080 -0.944353E-05  0.129E-02    0.23       1.0  T
  15   -118.9583437 -0.357350E-04  0.601E-03    0.23       2.0  T
  16   -118.9583508 -0.704225E-05  0.312E-03    0.23       3.9  T
  17   -118.9583527 -0.191699E-05  0.170E-03    0.23       7.2  T
  18   -118.9583533 -0.655523E-06  0.789E-04    0.23      15.5  T
  19   -118.9583535 -0.167104E-06  0.164E-04    0.23      74.7  T
  20   -118.9583535 -0.584117E-08  0.755E-05    0.23     161.9  T
     SCC iter.                  ...        0 min,  2.485 sec
     gradient                   ...        0 min,  0.130 sec
 * total energy  :  -118.0801705 Eh     change       -0.2277437E-02 Eh
   gradient norm :     0.0413040 Eh/α   predicted    -0.5352505E-02 ( 135.02%)
   displ. norm   :     0.3335875 α      lambda       -0.5477973E-02
   maximum displ.:     0.2250587 α      in ANC's #1, #3, #59, ...

........................................................................
.............................. CYCLE   28 ..............................
........................................................................

 iter      E             dE          RMSdq      gap      omega  full diag
   1   -118.9413082 -0.118941E+03  0.272E-01    0.20       0.0  T
   2   -107.7153814  0.112259E+02  0.594E+00    0.15       1.0  T
   3   -118.3307294 -0.106153E+02  0.166E+00    0.19       1.0  T
   4   -117.8596890  0.471040E+00  0.197E+00    0.16       1.0  T
   5   -118.7874326 -0.927744E+00  0.787E-01    0.21       1.0  T
   6   -118.0871919  0.700241E+00  0.176E+00    0.08       1.0  T
   7   -118.9406172 -0.853425E+00  0.243E-01    0.21       1.0  T
   8   -118.9451540 -0.453679E-02  0.199E-01    0.20       1.0  T
   9   -118.9509251 -0.577114E-02  0.137E-01    0.20       1.0  T
  10   -118.9531612 -0.223608E-02  0.104E-01    0.20       1.0  T
  11   -118.9539753 -0.814118E-03  0.876E-02    0.20       1.0  T
  12   -118.9553061 -0.133073E-02  0.545E-02    0.20       1.0  T
  13   -118.9557883 -0.482241E-03  0.345E-02    0.20       1.0  T
  14   -118.9559008 -0.112497E-03  0.274E-02    0.20       1.0  T
  15   -118.9560526 -0.151778E-03  0.124E-02    0.21       1.0  T
  16   -118.9560836 -0.310195E-04  0.465E-03    0.21       2.6  T
  17   -118.9560836 -0.463690E-07  0.438E-03    0.21       2.8  T
  18   -118.9560876 -0.400682E-05  0.212E-03    0.21       5.7  T
  19   -118.9560887 -0.107170E-05  0.688E-04    0.21      17.8  T
  20   -118.9560888 -0.109406E-06  0.273E-04    0.21      44.7  T
  21   -118.9560888 -0.179789E-07  0.961E-05    0.21     127.1  T
  22   -118.9560888 -0.204376E-08  0.425E-05    0.21     287.1  T
     SCC iter.                  ...        0 min,  2.807 sec
     gradient                   ...        0 min,  0.147 sec
 * total energy  :  -118.0821849 Eh     change       -0.2014412E-02 Eh
   gradient norm :     0.0224724 Eh/α   predicted    -0.3043786E-02 (  51.10%)
   displ. norm   :     0.4891210 α      lambda       -0.3088338E-02
   maximum displ.:     0.2444623 α      in ANC's #3, #27, #37, ...

........................................................................
.............................. CYCLE   29 ..............................
........................................................................

 iter      E             dE          RMSdq      gap      omega  full diag
   1   -118.9403342 -0.118940E+03  0.137E-01    0.21       0.0  T
   2   -115.1161730  0.382416E+01  0.358E+00    0.19       1.0  T
   3   -118.9136443 -0.379747E+01  0.370E-01    0.24       1.0  T
   4   -118.9237145 -0.100702E-01  0.302E-01    0.21       1.0  T
   5   -118.7641428  0.159572E+00  0.792E-01    0.21       1.0  T
   6   -118.9385610 -0.174418E+00  0.144E-01    0.22       1.0  T
   7   -118.8733605  0.652005E-01  0.500E-01    0.24       1.0  T
   8   -118.9434972 -0.701367E-01  0.573E-02    0.22       1.0  T
   9   -118.9441818 -0.684551E-03  0.302E-02    0.22       1.0  T
  10   -118.9443015 -0.119742E-03  0.210E-02    0.22       1.0  T
  11   -118.9443687 -0.672255E-04  0.128E-02    0.22       1.0  T
  12   -118.9444067 -0.379637E-04  0.530E-03    0.22       2.3  T
  13   -118.9444081 -0.142913E-05  0.463E-03    0.22       2.6  T
  14   -118.9444113 -0.312874E-05  0.320E-03    0.22       3.8  T
  15   -118.9444129 -0.165875E-05  0.193E-03    0.22       6.3  T
  16   -118.9444137 -0.743905E-06  0.930E-04    0.22      13.1  T
  17   -118.9444139 -0.182223E-06  0.402E-04    0.22      30.4  T
  18   -118.9444139 -0.372441E-07  0.132E-04    0.22      92.9  T
  19   -118.9444139 -0.436908E-08  0.229E-05    0.22     534.3  T
     SCC iter.                  ...        0 min,  2.527 sec
     gradient                   ...        0 min,  0.101 sec
 * total energy  :  -118.0830416 Eh     change       -0.8566534E-03 Eh
   gradient norm :     0.0241425 Eh/α   predicted    -0.1913598E-02 ( 123.38%)
   displ. norm   :     0.2414862 α      lambda       -0.2080188E-02
   maximum displ.:     0.0874777 α      in ANC's #3, #33, #34, ...

........................................................................
.............................. CYCLE   30 ..............................
........................................................................

 iter      E             dE          RMSdq      gap      omega  full diag
   1   -118.9477394 -0.118948E+03  0.143E-01    0.22       0.0  T
   2   -111.1173965  0.783034E+01  0.504E+00    0.04       1.0  T
   3   -118.5457180 -0.742832E+01  0.119E+00    0.21       1.0  T
   4   -118.9139075 -0.368190E+00  0.365E-01    0.20       1.0  T
   5   -118.9166175 -0.271003E-02  0.387E-01    0.25       1.0  T
   6   -118.8376668  0.789508E-01  0.633E-01    0.18       1.0  T
   7   -118.9527972 -0.115130E+00  0.421E-02    0.22       1.0  T
   8   -118.9527298  0.674044E-04  0.416E-02    0.22       1.0  T
   9   -118.9531576 -0.427877E-03  0.135E-02    0.22       1.0  T
  10   -118.9531083  0.493717E-04  0.180E-02    0.22       1.0  T
  11   -118.9531529 -0.445892E-04  0.119E-02    0.22       1.0  T
  12   -118.9531693 -0.163887E-04  0.841E-03    0.22       1.5  T
  13   -118.9531810 -0.117735E-04  0.534E-03    0.22       2.3  T
  14   -118.9531856 -0.454303E-05  0.350E-03    0.22       3.5  T
  15   -118.9531880 -0.242649E-05  0.187E-03    0.22       6.5  T
  16   -118.9531887 -0.723587E-06  0.949E-04    0.22      12.9  T
  17   -118.9531889 -0.227560E-06  0.269E-04    0.22      45.4  T
  18   -118.9531890 -0.168249E-07  0.106E-04    0.22     115.2  T
  19   -118.9531890 -0.280127E-08  0.279E-05    0.22     437.6  T
     SCC iter.                  ...        0 min,  2.613 sec
     gradient                   ...        0 min,  0.095 sec
 * total energy  :  -118.0844321 Eh     change       -0.1390564E-02 Eh
   gradient norm :     0.0089281 Eh/α   predicted    -0.1100749E-02 ( -20.84%)
   displ. norm   :     0.3799770 α      lambda       -0.1200462E-02
   maximum displ.:     0.1996976 α      in ANC's #3, #1, #14, ...

........................................................................
.............................. CYCLE   31 ..............................
........................................................................

 iter      E             dE          RMSdq      gap      omega  full diag
   1   -118.9465670 -0.118947E+03  0.196E-01    0.22       0.0  T
   2   -106.9828026  0.119638E+02  0.624E+00    0.07       1.0  T
   3   -118.5538439 -0.115710E+02  0.122E+00    0.25       1.0  T
   4   -118.7778371 -0.223993E+00  0.808E-01    0.19       1.0  T
   5   -118.9387066 -0.160870E+00  0.258E-01    0.22       1.0  T
   6   -118.5301381  0.408568E+00  0.120E+00    0.23       1.0  T
   7   -118.9552674 -0.425129E+00  0.783E-02    0.23       1.0  T
   8   -118.9553473 -0.798955E-04  0.722E-02    0.23       1.0  T
   9   -118.9561775 -0.830154E-03  0.476E-02    0.23       1.0  T
  10   -118.9565376 -0.360116E-03  0.316E-02    0.23       1.0  T
  11   -118.9566919 -0.154332E-03  0.202E-02    0.23       1.0  T
  12   -118.9567931 -0.101216E-03  0.618E-03    0.23       2.0  T
  13   -118.9567970 -0.388730E-05  0.473E-03    0.23       2.6  T
  14   -118.9568009 -0.385170E-05  0.287E-03    0.23       4.3  T
  15   -118.9568023 -0.147565E-05  0.166E-03    0.23       7.3  T
  16   -118.9568027 -0.395839E-06  0.116E-03    0.23      10.5  T
  17   -118.9568030 -0.279594E-06  0.570E-04    0.23      21.4  T
  18   -118.9568031 -0.888523E-07  0.564E-05    0.23     216.4  T
  19   -118.9568031 -0.736890E-09  0.202E-05    0.23     605.2  T
     SCC iter.                  ...        0 min,  2.420 sec
     gradient                   ...        0 min,  0.095 sec
 * total energy  :  -118.0852446 Eh     change       -0.8124948E-03 Eh
   gradient norm :     0.0053264 Eh/α   predicted    -0.6868946E-03 ( -15.46%)
   displ. norm   :     0.4009890 α      lambda       -0.8651981E-03
   maximum displ.:     0.1761301 α      in ANC's #31, #3, #14, ...

........................................................................
.............................. CYCLE   32 ..............................
........................................................................

 iter      E             dE          RMSdq      gap      omega  full diag
   1   -118.9576952 -0.118958E+03  0.887E-02    0.22       0.0  T
   2   -116.1476223  0.281007E+01  0.309E+00    0.15       1.0  T
   3   -118.9364399 -0.278882E+01  0.293E-01    0.23       1.0  T
   4   -118.8536571  0.827828E-01  0.605E-01    0.25       1.0  T
   5   -118.9365833 -0.829261E-01  0.294E-01    0.20       1.0  T
   6   -118.8821607  0.544225E-01  0.511E-01    0.22       1.0  T
   7   -118.9588833 -0.767226E-01  0.466E-02    0.23       1.0  T
   8   -118.9589249 -0.416225E-04  0.423E-02    0.23       1.0  T
   9   -118.9591614 -0.236416E-03  0.307E-02    0.23       1.0  T
  10   -118.9592991 -0.137708E-03  0.205E-02    0.23       1.0  T
  11   -118.9593765 -0.773854E-04  0.117E-02    0.23       1.0  T
  12   -118.9594070 -0.304972E-04  0.500E-03    0.23       2.4  T
  13   -118.9594084 -0.146051E-05  0.427E-03    0.23       2.9  T
  14   -118.9594112 -0.278758E-05  0.281E-03    0.23       4.3  T
  15   -118.9594132 -0.199087E-05  0.589E-04    0.23      20.8  T
  16   -118.9594133 -0.837358E-07  0.154E-04    0.23      79.2  T
  17   -118.9594133 -0.581571E-08  0.297E-05    0.23     411.9  T
     SCC iter.                  ...        0 min,  2.238 sec
     gradient                   ...        0 min,  0.092 sec
 * total energy  :  -118.0857644 Eh     change       -0.5197896E-03 Eh
   gradient norm :     0.0057376 Eh/α   predicted    -0.5021588E-03 (  -3.39%)
   displ. norm   :     0.2939338 α      lambda       -0.4373317E-03
   maximum displ.:     0.1287180 α      in ANC's #3, #14, #31, ...

........................................................................
.............................. CYCLE   33 ..............................
........................................................................

 iter      E             dE          RMSdq      gap      omega  full diag
   1   -118.9576272 -0.118958E+03  0.743E-02    0.22       0.0  T
   2   -118.3863551  0.571272E+00  0.145E+00    0.24       1.0  T
   3   -118.8593116 -0.472957E+00  0.608E-01    0.24       1.0  T
   4   -118.9203380 -0.610264E-01  0.366E-01    0.21       1.0  T
   5   -118.9559536 -0.356155E-01  0.101E-01    0.23       1.0  T
   6   -118.9576023 -0.164869E-02  0.660E-02    0.23       1.0  T
   7   -118.9567555  0.846776E-03  0.841E-02    0.22       1.0  T
   8   -118.9582889 -0.153346E-02  0.431E-02    0.23       1.0  T
   9   -118.9586369 -0.347966E-03  0.252E-02    0.23       1.0  T
  10   -118.9587648 -0.127883E-03  0.130E-02    0.23       1.0  T
  11   -118.9588073 -0.425463E-04  0.430E-03    0.23       2.8  T
  12   -118.9588118 -0.443224E-05  0.158E-03    0.23       7.7  T
  13   -118.9588122 -0.405072E-06  0.988E-04    0.23      12.4  T
  14   -118.9588124 -0.195736E-06  0.515E-04    0.23      23.7  T
  15   -118.9588124 -0.672312E-07  0.134E-04    0.23      91.3  T
  16   -118.9588124 -0.362563E-08  0.659E-05    0.23     185.3  T
     SCC iter.                  ...        0 min,  2.111 sec
     gradient                   ...        0 min,  0.094 sec
 * total energy  :  -118.0860530 Eh     change       -0.2885778E-03 Eh
   gradient norm :     0.0056596 Eh/α   predicted    -0.2375619E-03 ( -17.68%)
   displ. norm   :     0.3163115 α      lambda       -0.4450004E-03
   maximum displ.:     0.1043154 α      in ANC's #14, #31, #3, ...

........................................................................
.............................. CYCLE   34 ..............................
........................................................................

 iter      E             dE          RMSdq      gap      omega  full diag
   1   -118.9583831 -0.118958E+03  0.624E-02    0.23       0.0  T
   2   -116.9226399  0.203574E+01  0.262E+00    0.13       1.0  T
   3   -118.9502548 -0.202761E+01  0.193E-01    0.24       1.0  T
   4   -118.9540653 -0.381049E-02  0.138E-01    0.24       1.0  T
   5   -118.9191837  0.348817E-01  0.375E-01    0.22       1.0  T
   6   -118.9546368 -0.354531E-01  0.131E-01    0.23       1.0  T
   7   -118.9587696 -0.413288E-02  0.487E-02    0.23       1.0  T
   8   -118.9593592 -0.589606E-03  0.181E-02    0.23       1.0  T
   9   -118.9593840 -0.247250E-04  0.151E-02    0.23       1.0  T
  10   -118.9594216 -0.376037E-04  0.977E-03    0.23       1.3  T
  11   -118.9594302 -0.867390E-05  0.790E-03    0.23       1.5  T
  12   -118.9594427 -0.124126E-04  0.424E-03    0.23       2.9  T
  13   -118.9594449 -0.220431E-05  0.315E-03    0.23       3.9  T
  14   -118.9594465 -0.159140E-05  0.202E-03    0.23       6.1  T
  15   -118.9594474 -0.959951E-06  0.731E-04    0.23      16.7  T
  16   -118.9594475 -0.127820E-06  0.266E-04    0.23      46.0  T
  17   -118.9594476 -0.145639E-07  0.123E-04    0.23      99.1  T
  18   -118.9594476 -0.372017E-08  0.383E-05    0.23     319.1  T
     SCC iter.                  ...        0 min,  2.285 sec
     gradient                   ...        0 min,  0.093 sec
 * total energy  :  -118.0863981 Eh     change       -0.3450519E-03 Eh
   gradient norm :     0.0046616 Eh/α   predicted    -0.2447634E-03 ( -29.06%)
   displ. norm   :     0.4564291 α      lambda       -0.5851501E-03
   maximum displ.:     0.1547980 α      in ANC's #14, #18, #5, ...

........................................................................
.............................. CYCLE   35 ..............................
........................................................................

 iter      E             dE          RMSdq      gap      omega  full diag
   1   -118.9578877 -0.118958E+03  0.546E-02    0.23       0.0  T
   2   -118.0420350  0.915853E+00  0.181E+00    0.16       1.0  T
   3   -118.9397292 -0.897694E+00  0.257E-01    0.24       1.0  T
   4   -118.9442828 -0.455363E-02  0.224E-01    0.23       1.0  T
   5   -118.9472666 -0.298382E-02  0.202E-01    0.23       1.0  T
   6   -118.9444556  0.281098E-02  0.223E-01    0.22       1.0  T
   7   -118.9584033 -0.139476E-01  0.297E-02    0.23       1.0  T
   8   -118.9584062 -0.293718E-05  0.279E-02    0.23       1.0  T
   9   -118.9585632 -0.156966E-03  0.147E-02    0.23       1.0  T
  10   -118.9586070 -0.437816E-04  0.709E-03    0.23       1.7  T
  11   -118.9586160 -0.906220E-05  0.396E-03    0.23       3.1  T
  12   -118.9586177 -0.169338E-05  0.302E-03    0.23       4.0  T
  13   -118.9586190 -0.123989E-05  0.215E-03    0.23       5.7  T
  14   -118.9586199 -0.922083E-06  0.112E-03    0.23      10.9  T
  15   -118.9586202 -0.315077E-06  0.328E-04    0.23      37.3  T
  16   -118.9586202 -0.266102E-07  0.101E-04    0.23     121.0  T
  17   -118.9586202 -0.211959E-08  0.493E-05    0.23     247.7  T
     SCC iter.                  ...        0 min,  2.156 sec
     gradient                   ...        0 min,  0.100 sec
 * total energy  :  -118.0868162 Eh     change       -0.4181608E-03 Eh
   gradient norm :     0.0070172 Eh/α   predicted    -0.3535286E-03 ( -15.46%)
   displ. norm   :     0.4758552 α      lambda       -0.4839555E-03
   maximum displ.:     0.1634108 α      in ANC's #14, #5, #15, ...

........................................................................
.............................. CYCLE   36 ..............................
........................................................................

 iter      E             dE          RMSdq      gap      omega  full diag
   1   -118.9563440 -0.118956E+03  0.495E-02    0.24       0.0  T
   2   -118.1108662  0.845478E+00  0.168E+00    0.17       1.0  T
   3   -118.9318464 -0.820980E+00  0.298E-01    0.25       1.0  T
   4   -118.9516113 -0.197649E-01  0.137E-01    0.23       1.0  T
   5   -118.9552183 -0.360694E-02  0.799E-02    0.24       1.0  T
   6   -118.9517880  0.343030E-02  0.136E-01    0.24       1.0  T
   7   -118.9561827 -0.439478E-02  0.550E-02    0.24       1.0  T
   8   -118.9568809 -0.698206E-03  0.169E-02    0.24       1.0  T
   9   -118.9569105 -0.295413E-04  0.130E-02    0.24       1.0  T
  10   -118.9569401 -0.296309E-04  0.778E-03    0.24       1.6  T
  11   -118.9569493 -0.914897E-05  0.483E-03    0.24       2.5  T
  12   -118.9569536 -0.437913E-05  0.265E-03    0.24       4.6  T
  13   -118.9569548 -0.117778E-05  0.161E-03    0.24       7.6  T
  14   -118.9569552 -0.336582E-06  0.116E-03    0.24      10.6  T
  15   -118.9569554 -0.272019E-06  0.569E-04    0.24      21.5  T
  16   -118.9569555 -0.730772E-07  0.231E-04    0.24      52.9  T
  17   -118.9569555 -0.116260E-07  0.995E-05    0.24     122.8  T
  18   -118.9569555 -0.261569E-08  0.161E-05    0.24     758.8  T
     SCC iter.                  ...        0 min,  2.473 sec
     gradient                   ...        0 min,  0.126 sec
 * total energy  :  -118.0871824 Eh     change       -0.3661460E-03 Eh
   gradient norm :     0.0085312 Eh/α   predicted    -0.2967756E-03 ( -18.95%)
   displ. norm   :     0.4889979 α      lambda       -0.5579782E-03
   maximum displ.:     0.1698535 α      in ANC's #14, #15, #5, ...

........................................................................
.............................. CYCLE   37 ..............................
........................................................................

 iter      E             dE          RMSdq      gap      omega  full diag
   1   -118.9572767 -0.118957E+03  0.422E-02    0.24       0.0  T
   2   -118.6075641  0.349713E+00  0.109E+00    0.19       1.0  T
   3   -118.9383804 -0.330816E+00  0.265E-01    0.25       1.0  T
   4   -118.9341449  0.423555E-02  0.293E-01    0.23       1.0  T
   5   -118.9541365 -0.199916E-01  0.115E-01    0.24       1.0  T
   6   -118.9375429  0.165936E-01  0.267E-01    0.25       1.0  T
   7   -118.9574870 -0.199441E-01  0.306E-02    0.24       1.0  T
   8   -118.9575962 -0.109151E-03  0.220E-02    0.24       1.0  T
   9   -118.9576510 -0.548157E-04  0.164E-02    0.24       1.0  T
  10   -118.9577042 -0.531782E-04  0.887E-03    0.24       1.4  T
  11   -118.9577230 -0.188290E-04  0.289E-03    0.24       4.2  T
  12   -118.9577248 -0.180476E-05  0.138E-03    0.24       8.8  T
  13   -118.9577251 -0.282637E-06  0.951E-04    0.24      12.8  T
  14   -118.9577252 -0.142553E-06  0.612E-04    0.24      20.0  T
  15   -118.9577253 -0.667274E-07  0.359E-04    0.24      34.0  T
  16   -118.9577253 -0.271164E-07  0.169E-04    0.24      72.4  T
  17   -118.9577253 -0.644354E-08  0.678E-05    0.24     180.3  T
     SCC iter.                  ...        0 min,  2.219 sec
     gradient                   ...        0 min,  0.160 sec
 * total energy  :  -118.0876163 Eh     change       -0.4339039E-03 Eh
   gradient norm :     0.0072344 Eh/α   predicted    -0.3457060E-03 ( -20.33%)
   displ. norm   :     0.4862862 α      lambda       -0.5834893E-03
   maximum displ.:     0.1708793 α      in ANC's #5, #14, #15, ...

........................................................................
.............................. CYCLE   38 ..............................
........................................................................

 iter      E             dE          RMSdq      gap      omega  full diag
   1   -118.9567499 -0.118957E+03  0.642E-02    0.26       0.0  T
   2   -117.9122062  0.104454E+01  0.189E+00    0.15       1.0  T
   3   -118.9249884 -0.101278E+01  0.339E-01    0.27       1.0  T
   4   -118.9496504 -0.246620E-01  0.176E-01    0.24       1.0  T
   5   -118.9485859  0.106446E-02  0.189E-01    0.26       1.0  T
   6   -118.9162550  0.323310E-01  0.382E-01    0.25       1.0  T
   7   -118.9574569 -0.412020E-01  0.410E-02    0.26       1.0  T
   8   -118.9576995 -0.242626E-03  0.279E-02    0.26       1.0  T
   9   -118.9578146 -0.115032E-03  0.186E-02    0.26       1.0  T
  10   -118.9578783 -0.637639E-04  0.109E-02    0.26       1.1  T
  11   -118.9579075 -0.291751E-04  0.388E-03    0.26       3.1  T
  12   -118.9579108 -0.331660E-05  0.184E-03    0.26       6.6  T
  13   -118.9579113 -0.467675E-06  0.130E-03    0.26       9.4  T
  14   -118.9579115 -0.243797E-06  0.871E-04    0.26      14.0  T
  15   -118.9579117 -0.161655E-06  0.387E-04    0.26      31.5  T
  16   -118.9579117 -0.339300E-07  0.147E-04    0.26      83.3  T
  17   -118.9579117 -0.403162E-08  0.800E-05    0.26     152.7  T
     SCC iter.                  ...        0 min,  2.028 sec
     gradient                   ...        0 min,  0.134 sec
 * total energy  :  -118.0880380 Eh     change       -0.4217772E-03 Eh
   gradient norm :     0.0062625 Eh/α   predicted    -0.3607366E-03 ( -14.47%)
   displ. norm   :     0.4143191 α      lambda       -0.4744198E-03
   maximum displ.:     0.1487617 α      in ANC's #5, #15, #14, ...

........................................................................
.............................. CYCLE   39 ..............................
........................................................................

 iter      E             dE          RMSdq      gap      omega  full diag
   1   -118.9588605 -0.118959E+03  0.775E-02    0.27       0.0  T
   2   -116.2400765  0.271878E+01  0.301E+00    0.12       1.0  T
   3   -118.8110770 -0.257100E+01  0.729E-01    0.28       1.0  T
   4   -118.9517108 -0.140634E+00  0.177E-01    0.26       1.0  T
   5   -118.8521590  0.995518E-01  0.618E-01    0.25       1.0  T
   6   -118.9606305 -0.108471E+00  0.178E-02    0.27       1.0  T
   7   -118.9603147  0.315742E-03  0.357E-02    0.27       1.0  T
   8   -118.9604620 -0.147245E-03  0.277E-02    0.27       1.0  T
   9   -118.9604924 -0.304340E-04  0.253E-02    0.27       1.0  T
  10   -118.9606045 -0.112101E-03  0.157E-02    0.27       1.0  T
  11   -118.9606315 -0.270298E-04  0.122E-02    0.27       1.0  T
  12   -118.9606589 -0.273916E-04  0.713E-03    0.27       1.7  T
  13   -118.9606632 -0.424686E-05  0.592E-03    0.27       2.1  T
  14   -118.9606688 -0.565711E-05  0.372E-03    0.27       3.3  T
  15   -118.9606717 -0.290902E-05  0.174E-03    0.27       7.0  T
  16   -118.9606725 -0.756665E-06  0.453E-04    0.27      27.0  T
  17   -118.9606725 -0.462008E-07  0.189E-04    0.27      64.8  T
  18   -118.9606725 -0.834414E-08  0.732E-05    0.27     167.0  T
     SCC iter.                  ...        0 min,  2.460 sec
     gradient                   ...        0 min,  0.108 sec
 * total energy  :  -118.0883698 Eh     change       -0.3317100E-03 Eh
   gradient norm :     0.0064982 Eh/α   predicted    -0.2779312E-03 ( -16.21%)
   displ. norm   :     0.5182601 α      lambda       -0.5092616E-03
   maximum displ.:     0.1842665 α      in ANC's #5, #14, #15, ...

........................................................................
.............................. CYCLE   40 ..............................
........................................................................

 iter      E             dE          RMSdq      gap      omega  full diag
   1   -118.9539646 -0.118954E+03  0.103E-01    0.28       0.0  T
   2   -112.3015702  0.665239E+01  0.465E+00    0.23       1.0  T
   3   -118.7580977 -0.645653E+01  0.846E-01    0.27       1.0  T
   4   -118.9064678 -0.148370E+00  0.424E-01    0.28       1.0  T
   5   -118.9482849 -0.418171E-01  0.191E-01    0.27       1.0  T
   6   -118.8854812  0.628038E-01  0.500E-01    0.29       1.0  T
   7   -118.9557257 -0.702445E-01  0.721E-02    0.28       1.0  T
   8   -118.9569320 -0.120634E-02  0.284E-02    0.28       1.0  T
   9   -118.9568917  0.402988E-04  0.303E-02    0.28       1.0  T
  10   -118.9569900 -0.983007E-04  0.240E-02    0.28       1.0  T
  11   -118.9570790 -0.889616E-04  0.160E-02    0.28       1.0  T
  12   -118.9571281 -0.491424E-04  0.887E-03    0.28       1.4  T
  13   -118.9571328 -0.470788E-05  0.779E-03    0.28       1.6  T
  14   -118.9571415 -0.871754E-05  0.531E-03    0.28       2.3  T
  15   -118.9571476 -0.606670E-05  0.233E-03    0.28       5.2  T
  16   -118.9571489 -0.123733E-05  0.900E-04    0.28      13.6  T
  17   -118.9571490 -0.159761E-06  0.457E-04    0.28      26.7  T
  18   -118.9571491 -0.468751E-07  0.179E-04    0.28      68.2  T
  19   -118.9571491 -0.737711E-08  0.685E-05    0.28     178.5  T
     SCC iter.                  ...        0 min,  2.433 sec
     gradient                   ...        0 min,  0.083 sec
 * total energy  :  -118.0887177 Eh     change       -0.3479083E-03 Eh
   gradient norm :     0.0071911 Eh/α   predicted    -0.3230271E-03 (  -7.15%)
   displ. norm   :     0.4104247 α      lambda       -0.5404286E-03
   maximum displ.:     0.1468215 α      in ANC's #28, #5, #4, ...

........................................................................
.............................. CYCLE   41 ..............................
........................................................................

 iter      E             dE          RMSdq      gap      omega  full diag
   1   -118.9568147 -0.118957E+03  0.125E-01    0.29       0.0  T
   2   -108.8555607  0.101013E+02  0.565E+00    0.35       1.0  T
   3   -118.8548980 -0.999934E+01  0.622E-01    0.28       1.0  T
   4   -118.8595165 -0.461848E-02  0.602E-01    0.29       1.0  T
   5   -118.9317405 -0.722240E-01  0.334E-01    0.28       1.0  T
   6   -118.7626910  0.169050E+00  0.828E-01    0.24       1.0  T
   7   -118.9600873 -0.197396E+00  0.685E-02    0.29       1.0  T
   8   -118.9610580 -0.970675E-03  0.310E-02    0.28       1.0  T
   9   -118.9611864 -0.128409E-03  0.224E-02    0.28       1.0  T
  10   -118.9612136 -0.271932E-04  0.199E-02    0.28       1.0  T
  11   -118.9612676 -0.540108E-04  0.140E-02    0.28       1.0  T
  12   -118.9613071 -0.394818E-04  0.701E-03    0.29       1.7  T
  13   -118.9613068  0.264048E-06  0.698E-03    0.29       1.8  T
  14   -118.9613119 -0.506457E-05  0.547E-03    0.29       2.2  T
  15   -118.9613169 -0.506601E-05  0.325E-03    0.29       3.8  T
  16   -118.9613194 -0.247304E-05  0.113E-03    0.29      10.8  T
  17   -118.9613197 -0.278394E-06  0.464E-04    0.29      26.3  T
  18   -118.9613197 -0.343039E-07  0.297E-04    0.29      41.2  T
  19   -118.9613198 -0.225719E-07  0.768E-05    0.29     159.0  T
  20   -118.9613198 -0.135238E-08  0.325E-05    0.29     376.3  T
     SCC iter.                  ...        0 min,  2.508 sec
     gradient                   ...        0 min,  0.145 sec
 * total energy  :  -118.0890045 Eh     change       -0.2868063E-03 Eh
   gradient norm :     0.0086219 Eh/α   predicted    -0.3157348E-03 (  10.09%)
   displ. norm   :     0.4905664 α      lambda       -0.4434148E-03
   maximum displ.:     0.1754133 α      in ANC's #5, #14, #4, ...

........................................................................
.............................. CYCLE   42 ..............................
........................................................................

 iter      E             dE          RMSdq      gap      omega  full diag
   1   -118.9524669 -0.118952E+03  0.924E-02    0.29       0.0  T
   2   -114.3147941  0.463767E+01  0.392E+00    0.20       1.0  T
   3   -118.8752882 -0.456049E+01  0.545E-01    0.31       1.0  T
   4   -118.8808927 -0.560458E-02  0.514E-01    0.30       1.0  T
   5   -118.9441433 -0.632506E-01  0.201E-01    0.29       1.0  T
   6   -118.8541828  0.899605E-01  0.590E-01    0.26       1.0  T
   7   -118.9540180 -0.998352E-01  0.568E-02    0.29       1.0  T
   8   -118.9545596 -0.541588E-03  0.365E-02    0.29       1.0  T
   9   -118.9547944 -0.234770E-03  0.214E-02    0.29       1.0  T
  10   -118.9548839 -0.895677E-04  0.117E-02    0.29       1.0  T
  11   -118.9549124 -0.284958E-04  0.530E-03    0.29       2.3  T
  12   -118.9549185 -0.609236E-05  0.234E-03    0.29       5.2  T
  13   -118.9549189 -0.346785E-06  0.204E-03    0.29       6.0  T
  14   -118.9549194 -0.555832E-06  0.147E-03    0.29       8.3  T
  15   -118.9549197 -0.310515E-06  0.989E-04    0.29      12.4  T
  16   -118.9549199 -0.176181E-06  0.570E-04    0.29      21.4  T
  17   -118.9549200 -0.610751E-07  0.309E-04    0.29      39.5  T
  18   -118.9549200 -0.173487E-07  0.173E-04    0.29      70.8  T
  19   -118.9549200 -0.692538E-08  0.635E-05    0.29     192.5  T
     SCC iter.                  ...        0 min,  2.451 sec
     gradient                   ...        0 min,  0.089 sec
 * total energy  :  -118.0892047 Eh     change       -0.2001853E-03 Eh
   gradient norm :     0.0082650 Eh/α   predicted    -0.2750681E-03 (  37.41%)
   displ. norm   :     0.1884334 α      lambda       -0.2863620E-03
   maximum displ.:     0.0674103 α      in ANC's #4, #5, #7, ...
 * RMSD in coord.:     0.7551782 α      energy gain  -0.1735455E-01 Eh

generating ANC from model Hessian ...
Using Lindh-Hessian (1995)
 Shifting diagonal of input Hessian by    1.4507313775853304E-002
 Lowest  eigenvalues of input Hessian
    0.010000    0.013886    0.014244    0.014321    0.014489    0.000000
    0.000000    0.000000    0.000000    0.000000    0.000000    0.014509
    0.014535    0.014580    0.014602    0.014629    0.014705    0.014785
 Highest eigenvalues
    1.657179    1.873862    1.955991    2.062712    2.161891    2.430141


........................................................................
.............................. CYCLE   43 ..............................
........................................................................

 iter      E             dE          RMSdq      gap      omega  full diag
   1   -118.9573917 -0.118957E+03  0.476E-02    0.29       0.0  T
   2   -118.2018555  0.755536E+00  0.162E+00    0.27       1.0  T
   3   -118.9471198 -0.745264E+00  0.196E-01    0.28       1.0  T
   4   -118.9467076  0.412197E-03  0.204E-01    0.31       1.0  T
   5   -118.9454932  0.121438E-02  0.206E-01    0.29       1.0  T
   6   -118.9563153 -0.108221E-01  0.757E-02    0.29       1.0  T
   7   -118.9573858 -0.107046E-02  0.498E-02    0.29       1.0  T
   8   -118.9579336 -0.547800E-03  0.113E-02    0.29       1.1  T
   9   -118.9579535 -0.199636E-04  0.740E-03    0.29       1.7  T
  10   -118.9579655 -0.119398E-04  0.321E-03    0.29       3.8  T
  11   -118.9579672 -0.178072E-05  0.171E-03    0.29       7.1  T
  12   -118.9579679 -0.624247E-06  0.818E-04    0.29      14.9  T
  13   -118.9579679 -0.122351E-07  0.771E-04    0.29      15.8  T
  14   -118.9579680 -0.957904E-07  0.492E-04    0.29      24.8  T
  15   -118.9579680 -0.438828E-07  0.277E-04    0.29      44.1  T
  16   -118.9579680 -0.157506E-07  0.133E-04    0.29      92.0  T
  17   -118.9579680 -0.368073E-08  0.628E-05    0.29     194.5  T
     SCC iter.                  ...        0 min,  2.165 sec
     gradient                   ...        0 min,  0.103 sec
 * total energy  :  -118.0893975 Eh     change       -0.1928272E-03 Eh
   gradient norm :     0.0047084 Eh/α   predicted     0.0000000E+00 (-100.00%)
   displ. norm   :     0.0680570 α      lambda       -0.1278220E-03
   maximum displ.:     0.0286064 α      in ANC's #22, #27, #5, ...

........................................................................
.............................. CYCLE   44 ..............................
........................................................................

 iter      E             dE          RMSdq      gap      omega  full diag
   1   -118.9598509 -0.118960E+03  0.244E-02    0.29       0.0  T
   2   -118.7307490  0.229102E+00  0.901E-01    0.33       1.0  T
   3   -118.9593772 -0.228628E+00  0.481E-02    0.29       1.0  T
   4   -118.9536709  0.570627E-02  0.150E-01    0.29       1.0  T
   5   -118.9590824 -0.541150E-02  0.610E-02    0.30       1.0  T
   6   -118.9598423 -0.759916E-03  0.251E-02    0.29       1.0  T
   7   -118.9589727  0.869616E-03  0.600E-02    0.29       1.0  T
   8   -118.9599787 -0.100599E-02  0.124E-02    0.29       1.0  T
   9   -118.9600019 -0.231595E-04  0.829E-03    0.29       1.5  T
  10   -118.9600173 -0.154706E-04  0.354E-03    0.29       3.4  T
  11   -118.9600201 -0.274643E-05  0.151E-03    0.29       8.1  T
  12   -118.9600207 -0.577030E-06  0.421E-04    0.29      29.0  T
  13   -118.9600207 -0.209703E-07  0.322E-04    0.29      38.0  T
  14   -118.9600207 -0.155384E-07  0.215E-04    0.29      56.7  T
  15   -118.9600207 -0.115134E-07  0.667E-05    0.29     183.2  T
  16   -118.9600207 -0.937717E-09  0.310E-05    0.29     394.0  T
     SCC iter.                  ...        0 min,  1.955 sec
     gradient                   ...        0 min,  0.088 sec
 * total energy  :  -118.0894934 Eh     change       -0.9596473E-04 Eh
   gradient norm :     0.0023153 Eh/α   predicted    -0.6456019E-04 ( -32.73%)
   displ. norm   :     0.1565341 α      lambda       -0.1625754E-03
   maximum displ.:     0.0738155 α      in ANC's #22, #27, #5, ...

........................................................................
.............................. CYCLE   45 ..............................
........................................................................

 iter      E             dE          RMSdq      gap      omega  full diag
   1   -118.9613352 -0.118961E+03  0.518E-02    0.29       0.0  T
   2   -118.0453936  0.915942E+00  0.179E+00    0.32       1.0  T
   3   -118.9421941 -0.896800E+00  0.262E-01    0.28       1.0  T
   4   -118.9592062 -0.170121E-01  0.101E-01    0.28       1.0  T
   5   -118.9260676  0.331385E-01  0.357E-01    0.31       1.0  T
   6   -118.9614263 -0.353586E-01  0.524E-02    0.29       1.0  T
   7   -118.9618646 -0.438300E-03  0.316E-02    0.29       1.0  T
   8   -118.9620138 -0.149265E-03  0.189E-02    0.29       1.0  T
   9   -118.9620787 -0.648485E-04  0.109E-02    0.29       1.1  T
  10   -118.9621001 -0.214532E-04  0.636E-03    0.29       1.9  T
  11   -118.9621108 -0.107198E-04  0.892E-04    0.29      13.7  T
  12   -118.9621110 -0.175434E-06  0.350E-04    0.29      34.9  T
  13   -118.9621110 -0.773706E-08  0.292E-04    0.29      41.8  T
  14   -118.9621110 -0.186740E-07  0.121E-04    0.29     100.8  T
  15   -118.9621110 -0.241531E-08  0.662E-05    0.29     184.6  T
     SCC iter.                  ...        0 min,  2.081 sec
     gradient                   ...        0 min,  0.079 sec
 * total energy  :  -118.0895833 Eh     change       -0.8984945E-04 Eh
   gradient norm :     0.0034379 Eh/α   predicted    -0.8328912E-04 (  -7.30%)
   displ. norm   :     0.2573106 α      lambda       -0.2246605E-03
   maximum displ.:     0.1239549 α      in ANC's #22, #5, #27, ...

........................................................................
.............................. CYCLE   46 ..............................
........................................................................

 iter      E             dE          RMSdq      gap      omega  full diag
   1   -118.9620859 -0.118962E+03  0.553E-02    0.28       0.0  T
   2   -118.0613425  0.900743E+00  0.179E+00    0.35       1.0  T
   3   -118.9511761 -0.889834E+00  0.201E-01    0.29       1.0  T
   4   -118.9517145 -0.538422E-03  0.198E-01    0.28       1.0  T
   5   -118.9234927  0.282218E-01  0.370E-01    0.29       1.0  T
   6   -118.9624869 -0.389941E-01  0.394E-02    0.28       1.0  T
   7   -118.9622744  0.212437E-03  0.502E-02    0.29       1.0  T
   8   -118.9626994 -0.424946E-03  0.258E-02    0.29       1.0  T
   9   -118.9628179 -0.118499E-03  0.154E-02    0.29       1.0  T
  10   -118.9628635 -0.456751E-04  0.844E-03    0.28       1.4  T
  11   -118.9628810 -0.174577E-04  0.269E-03    0.28       4.5  T
  12   -118.9628810  0.424843E-07  0.259E-03    0.28       4.7  T
  13   -118.9628820 -0.108042E-05  0.173E-03    0.28       7.1  T
  14   -118.9628827 -0.645646E-06  0.793E-04    0.28      15.4  T
  15   -118.9628829 -0.175945E-06  0.905E-05    0.28     135.0  T
  16   -118.9628829 -0.170793E-08  0.384E-05    0.28     318.3  T
     SCC iter.                  ...        0 min,  2.128 sec
     gradient                   ...        0 min,  0.091 sec
 * total energy  :  -118.0895990 Eh     change       -0.1566825E-04 Eh
   gradient norm :     0.0070602 Eh/α   predicted    -0.1197699E-03 ( 664.41%)
   displ. norm   :     0.0522744 α      lambda       -0.1939873E-03
   maximum displ.:     0.0160841 α      in ANC's #5, #3, #48, ...

........................................................................
.............................. CYCLE   47 ..............................
........................................................................

 iter      E             dE          RMSdq      gap      omega  full diag
   1   -118.9616675 -0.118962E+03  0.142E-02    0.28       0.0  T
   2   -118.9569500  0.471759E-02  0.133E-01    0.29       1.0  T
   3   -118.9558049  0.114504E-02  0.147E-01    0.29       1.0  T
   4   -118.9608703 -0.506534E-02  0.539E-02    0.28       1.0  T
   5   -118.9590670  0.180321E-02  0.945E-02    0.28       1.0  T
   6   -118.9615017 -0.243464E-02  0.272E-02    0.28       1.0  T
   7   -118.9615018 -0.120554E-06  0.267E-02    0.29       1.0  T
   8   -118.9616815 -0.179694E-03  0.882E-03    0.28       1.4  T
   9   -118.9616952 -0.137240E-04  0.510E-03    0.28       2.4  T
  10   -118.9617008 -0.562250E-05  0.227E-03    0.28       5.4  T
  11   -118.9617021 -0.124334E-05  0.698E-04    0.28      17.5  T
  12   -118.9617022 -0.125478E-06  0.937E-05    0.28     130.3  T
  13   -118.9617022 -0.171815E-08  0.411E-05    0.28     297.2  T
     SCC iter.                  ...        0 min,  1.642 sec
     gradient                   ...        0 min,  0.099 sec
 * total energy  :  -118.0897304 Eh     change       -0.1314296E-03 Eh
   gradient norm :     0.0032608 Eh/α   predicted    -0.9726019E-04 ( -26.00%)
   displ. norm   :     0.1549723 α      lambda       -0.1256071E-03
   maximum displ.:     0.0652978 α      in ANC's #5, #22, #9, ...

........................................................................
.............................. CYCLE   48 ..............................
........................................................................

 iter      E             dE          RMSdq      gap      omega  full diag
   1   -118.9600299 -0.118960E+03  0.246E-02    0.28       0.0  T
   2   -118.7456748  0.214355E+00  0.877E-01    0.23       1.0  T
   3   -118.9570457 -0.211371E+00  0.103E-01    0.28       1.0  T
   4   -118.9593714 -0.232577E-02  0.532E-02    0.28       1.0  T
   5   -118.9588212  0.550264E-03  0.718E-02    0.28       1.0  T
   6   -118.9571143  0.170684E-02  0.105E-01    0.28       1.0  T
   7   -118.9601784 -0.306410E-02  0.107E-02    0.28       1.1  T
   8   -118.9601840 -0.553787E-05  0.830E-03    0.28       1.5  T
   9   -118.9601967 -0.126808E-04  0.476E-03    0.28       2.6  T
  10   -118.9602006 -0.395617E-05  0.288E-03    0.28       4.2  T
  11   -118.9602026 -0.193365E-05  0.108E-03    0.28      11.3  T
  12   -118.9602028 -0.295167E-06  0.277E-04    0.28      44.2  T
  13   -118.9602029 -0.776443E-08  0.213E-04    0.28      57.3  T
  14   -118.9602029 -0.961744E-08  0.963E-05    0.28     126.9  T
  15   -118.9602029 -0.180636E-08  0.459E-05    0.28     266.2  T
     SCC iter.                  ...        0 min,  2.107 sec
     gradient                   ...        0 min,  0.084 sec
 * total energy  :  -118.0898184 Eh     change       -0.8796514E-04 Eh
   gradient norm :     0.0021785 Eh/α   predicted    -0.6431443E-04 ( -26.89%)
   displ. norm   :     0.2900681 α      lambda       -0.1352113E-03
   maximum displ.:     0.1267191 α      in ANC's #5, #22, #9, ...

........................................................................
.............................. CYCLE   49 ..............................
........................................................................

 iter      E             dE          RMSdq      gap      omega  full diag
   1   -118.9576555 -0.118958E+03  0.482E-02    0.28       0.0  T
   2   -118.4255839  0.532072E+00  0.138E+00    0.34       1.0  T
   3   -118.9455072 -0.519923E+00  0.219E-01    0.29       1.0  T
   4   -118.9450670  0.440193E-03  0.214E-01    0.28       1.0  T
   5   -118.9559303 -0.108633E-01  0.922E-02    0.28       1.0  T
   6   -118.9435973  0.123329E-01  0.227E-01    0.27       1.0  T
   7   -118.9579116 -0.143143E-01  0.360E-02    0.29       1.0  T
   8   -118.9581923 -0.280688E-03  0.164E-02    0.28       1.0  T
   9   -118.9582220 -0.296807E-04  0.126E-02    0.28       1.0  T
  10   -118.9582607 -0.387068E-04  0.463E-03    0.28       2.6  T
  11   -118.9582654 -0.469840E-05  0.211E-03    0.28       5.8  T
  12   -118.9582650  0.454431E-06  0.245E-03    0.28       5.0  T
  13   -118.9582659 -0.910276E-06  0.164E-03    0.28       7.4  T
  14   -118.9582666 -0.744532E-06  0.295E-04    0.28      41.4  T
  15   -118.9582666 -0.233421E-07  0.445E-05    0.28     274.6  T
  16   -118.9582666  0.721343E-09  0.661E-05    0.28     184.7  T
     SCC iter.                  ...        0 min,  2.039 sec
     gradient                   ...        0 min,  0.113 sec
 * total energy  :  -118.0898960 Eh     change       -0.7767113E-04 Eh
   gradient norm :     0.0042255 Eh/α   predicted    -0.7329435E-04 (  -5.64%)
   displ. norm   :     0.2264976 α      lambda       -0.1016284E-03
   maximum displ.:     0.1057252 α      in ANC's #5, #22, #9, ...

........................................................................
.............................. CYCLE   50 ..............................
........................................................................

 iter      E             dE          RMSdq      gap      omega  full diag
   1   -118.9579293 -0.118958E+03  0.248E-02    0.28       0.0  T
   2   -118.7652363  0.192693E+00  0.833E-01    0.23       1.0  T
   3   -118.9544697 -0.189233E+00  0.111E-01    0.28       1.0  T
   4   -118.9568007 -0.233103E-02  0.672E-02    0.28       1.0  T
   5   -118.9533896  0.341108E-02  0.130E-01    0.28       1.0  T
   6   -118.9565174 -0.312781E-02  0.756E-02    0.28       1.0  T
   7   -118.9580760 -0.155855E-02  0.817E-03    0.28       1.5  T
   8   -118.9580801 -0.408550E-05  0.642E-03    0.28       1.9  T
   9   -118.9580879 -0.778947E-05  0.364E-03    0.28       3.4  T
  10   -118.9580903 -0.246796E-05  0.202E-03    0.28       6.0  T
  11   -118.9580909 -0.576090E-06  0.134E-03    0.28       9.1  T
  12   -118.9580914 -0.481680E-06  0.250E-04    0.28      48.9  T
  13   -118.9580914 -0.511299E-08  0.203E-04    0.28      60.3  T
  14   -118.9580914 -0.671560E-08  0.121E-04    0.28     101.3  T
  15   -118.9580914 -0.323109E-08  0.499E-05    0.28     244.9  T
     SCC iter.                  ...        0 min,  2.196 sec
     gradient                   ...        0 min,  0.083 sec
 * total energy  :  -118.0899692 Eh     change       -0.7313455E-04 Eh
   gradient norm :     0.0044947 Eh/α   predicted    -0.5343157E-04 ( -26.94%)
   displ. norm   :     0.2626187 α      lambda       -0.1348860E-03
   maximum displ.:     0.1316476 α      in ANC's #5, #9, #4, ...

........................................................................
.............................. CYCLE   51 ..............................
........................................................................

 iter      E             dE          RMSdq      gap      omega  full diag
   1   -118.9595804 -0.118960E+03  0.190E-02    0.29       0.0  T
   2   -118.8666256  0.929548E-01  0.571E-01    0.26       1.0  T
   3   -118.9582669 -0.916412E-01  0.717E-02    0.28       1.0  T
   4   -118.9579003  0.366548E-03  0.794E-02    0.29       1.0  T
   5   -118.9574820  0.418270E-03  0.881E-02    0.28       1.0  T
   6   -118.9585849 -0.110283E-02  0.627E-02    0.29       1.0  T
   7   -118.9596709 -0.108604E-02  0.542E-03    0.28       2.3  T
   8   -118.9596635  0.736213E-05  0.698E-03    0.28       1.8  T
   9   -118.9596732 -0.966913E-05  0.371E-03    0.28       3.3  T
  10   -118.9596758 -0.259314E-05  0.202E-03    0.28       6.0  T
  11   -118.9596768 -0.941296E-06  0.711E-04    0.28      17.2  T
  12   -118.9596769 -0.125202E-06  0.202E-04    0.28      60.4  T
  13   -118.9596769 -0.806746E-08  0.105E-04    0.28     116.8  T
  14   -118.9596769 -0.221209E-08  0.516E-05    0.28     236.8  T
     SCC iter.                  ...        0 min,  1.918 sec
     gradient                   ...        0 min,  0.082 sec
 * total energy  :  -118.0900709 Eh     change       -0.1017354E-03 Eh
   gradient norm :     0.0031866 Eh/α   predicted    -0.7209648E-04 ( -29.13%)
   displ. norm   :     0.3438763 α      lambda       -0.1333003E-03
   maximum displ.:     0.1745661 α      in ANC's #5, #4, #9, ...

........................................................................
.............................. CYCLE   52 ..............................
........................................................................

 iter      E             dE          RMSdq      gap      omega  full diag
   1   -118.9604872 -0.118960E+03  0.266E-02    0.29       0.0  T
   2   -118.6863081  0.274179E+00  0.979E-01    0.29       1.0  T
   3   -118.9589983 -0.272690E+00  0.762E-02    0.28       1.0  T
   4   -118.9581577  0.840603E-03  0.938E-02    0.29       1.0  T
   5   -118.9543655  0.379224E-02  0.149E-01    0.28       1.0  T
   6   -118.9605683 -0.620284E-02  0.197E-02    0.29       1.0  T
   7   -118.9606093 -0.409581E-04  0.176E-02    0.29       1.0  T
   8   -118.9606691 -0.598030E-04  0.607E-03    0.29       2.0  T
   9   -118.9606772 -0.805623E-05  0.294E-03    0.29       4.2  T
  10   -118.9606778 -0.612160E-06  0.232E-03    0.29       5.3  T
  11   -118.9606790 -0.119452E-05  0.977E-04    0.29      12.5  T
  12   -118.9606792 -0.199182E-06  0.401E-04    0.29      30.5  T
  13   -118.9606792 -0.332129E-07  0.197E-04    0.29      62.1  T
  14   -118.9606792 -0.493664E-08  0.141E-04    0.29      86.7  T
     SCC iter.                  ...        0 min,  1.994 sec
     gradient                   ...        0 min,  0.090 sec
 * total energy  :  -118.0901702 Eh     change       -0.9925697E-04 Eh
   gradient norm :     0.0025316 Eh/α   predicted    -0.7453520E-04 ( -24.91%)
   displ. norm   :     0.3305569 α      lambda       -0.1184059E-03
   maximum displ.:     0.1677712 α      in ANC's #5, #4, #19, ...

........................................................................
.............................. CYCLE   53 ..............................
........................................................................

 iter      E             dE          RMSdq      gap      omega  full diag
   1   -118.9618947 -0.118962E+03  0.201E-02    0.29       0.0  T
   2   -118.8665547  0.953400E-01  0.582E-01    0.27       1.0  T
   3   -118.9607991 -0.942444E-01  0.668E-02    0.28       1.0  T
   4   -118.9575509  0.324816E-02  0.126E-01    0.30       1.0  T
   5   -118.9601779 -0.262699E-02  0.800E-02    0.29       1.0  T
   6   -118.9598655  0.312435E-03  0.859E-02    0.29       1.0  T
   7   -118.9619749 -0.210948E-02  0.656E-03    0.29       1.9  T
   8   -118.9619785 -0.353490E-05  0.520E-03    0.29       2.3  T
   9   -118.9619847 -0.620196E-05  0.231E-03    0.29       5.3  T
  10   -118.9619854 -0.762955E-06  0.129E-03    0.29       9.4  T
  11   -118.9619858 -0.399781E-06  0.363E-04    0.29      33.6  T
  12   -118.9619859 -0.319773E-07  0.897E-05    0.29     136.2  T
  13   -118.9619859 -0.675371E-09  0.702E-05    0.29     174.0  T
     SCC iter.                  ...        0 min,  1.972 sec
     gradient                   ...        0 min,  0.092 sec
 * total energy  :  -118.0902584 Eh     change       -0.8822438E-04 Eh
   gradient norm :     0.0024650 Eh/α   predicted    -0.6567433E-04 ( -25.56%)
   displ. norm   :     0.4456564 α      lambda       -0.1143960E-03
   maximum displ.:     0.2238451 α      in ANC's #5, #19, #9, ...

........................................................................
.............................. CYCLE   54 ..............................
........................................................................

 iter      E             dE          RMSdq      gap      omega  full diag
   1   -118.9600225 -0.118960E+03  0.194E-02    0.29       0.0  T
   2   -118.8616717  0.983508E-01  0.592E-01    0.27       1.0  T
   3   -118.9597869 -0.981152E-01  0.341E-02    0.29       1.0  T
   4   -118.9538519  0.593496E-02  0.150E-01    0.30       1.0  T
   5   -118.9574936 -0.364166E-02  0.943E-02    0.29       1.0  T
   6   -118.9600253 -0.253177E-02  0.170E-02    0.29       1.0  T
   7   -118.9600928 -0.674489E-04  0.869E-03    0.29       1.4  T
   8   -118.9601055 -0.127461E-04  0.446E-03    0.29       2.7  T
   9   -118.9601092 -0.364581E-05  0.251E-03    0.29       4.9  T
  10   -118.9601103 -0.110703E-05  0.115E-03    0.29      10.6  T
  11   -118.9601105 -0.216531E-06  0.489E-04    0.29      25.0  T
  12   -118.9601106 -0.614030E-07  0.796E-05    0.29     153.5  T
  13   -118.9601106 -0.327347E-09  0.645E-05    0.29     189.3  T
     SCC iter.                  ...        0 min,  1.849 sec
     gradient                   ...        0 min,  0.110 sec
 * total energy  :  -118.0903345 Eh     change       -0.7613072E-04 Eh
   gradient norm :     0.0037374 Eh/α   predicted    -0.6855914E-04 (  -9.95%)
   displ. norm   :     0.3661324 α      lambda       -0.1673666E-03
   maximum displ.:     0.1524664 α      in ANC's #5, #11, #17, ...

........................................................................
.............................. CYCLE   55 ..............................
........................................................................

 iter      E             dE          RMSdq      gap      omega  full diag
   1   -118.9615621 -0.118962E+03  0.433E-02    0.30       0.0  T
   2   -117.9545112  0.100705E+01  0.185E+00    0.20       1.0  T
   3   -118.9530650 -0.998554E+00  0.178E-01    0.30       1.0  T
   4   -118.9550509 -0.198583E-02  0.158E-01    0.29       1.0  T
   5   -118.9368147  0.182362E-01  0.300E-01    0.29       1.0  T
   6   -118.9588838 -0.220691E-01  0.110E-01    0.30       1.0  T
   7   -118.9619690 -0.308519E-02  0.203E-02    0.29       1.0  T
   8   -118.9620557 -0.867336E-04  0.947E-03    0.29       1.3  T
   9   -118.9620756 -0.199350E-04  0.442E-03    0.29       2.8  T
  10   -118.9620767 -0.109329E-05  0.374E-03    0.29       3.3  T
  11   -118.9620796 -0.289268E-05  0.179E-03    0.29       6.8  T
  12   -118.9620802 -0.563770E-06  0.106E-03    0.29      11.6  T
  13   -118.9620804 -0.188669E-06  0.675E-04    0.29      18.1  T
  14   -118.9620804 -0.533142E-08  0.651E-04    0.29      18.8  T
  15   -118.9620805 -0.764426E-07  0.381E-04    0.29      32.1  T
  16   -118.9620805 -0.201196E-07  0.267E-04    0.29      45.8  T
  17   -118.9620805 -0.149420E-07  0.128E-04    0.29      95.6  T
  18   -118.9620805 -0.407672E-08  0.342E-05    0.29     357.4  T
     SCC iter.                  ...        0 min,  2.559 sec
     gradient                   ...        0 min,  0.100 sec
 * total energy  :  -118.0904163 Eh     change       -0.8177696E-04 Eh
   gradient norm :     0.0049307 Eh/α   predicted    -0.9490262E-04 (  16.05%)
   displ. norm   :     0.3205777 α      lambda       -0.9667357E-04
   maximum displ.:     0.1537576 α      in ANC's #5, #19, #17, ...

........................................................................
.............................. CYCLE   56 ..............................
........................................................................

 iter      E             dE          RMSdq      gap      omega  full diag
   1   -118.9595724 -0.118960E+03  0.195E-02    0.30       0.0  T
   2   -118.8140637  0.145509E+00  0.717E-01    0.25       1.0  T
   3   -118.9588311 -0.144767E+00  0.546E-02    0.29       1.0  T
   4   -118.9572984  0.153271E-02  0.916E-02    0.29       1.0  T
   5   -118.9582607 -0.962357E-03  0.715E-02    0.30       1.0  T
   6   -118.9588814 -0.620626E-03  0.524E-02    0.29       1.0  T
   7   -118.9596631 -0.781754E-03  0.610E-03    0.29       2.0  T
   8   -118.9596696 -0.653614E-05  0.283E-03    0.30       4.3  T
   9   -118.9596711 -0.148101E-05  0.131E-03    0.30       9.3  T
  10   -118.9596709  0.179040E-06  0.143E-03    0.30       8.5  T
  11   -118.9596715 -0.549236E-06  0.276E-04    0.30      44.3  T
  12   -118.9596715 -0.137181E-07  0.103E-04    0.30     119.0  T
  13   -118.9596715 -0.216096E-08  0.281E-05    0.30     435.4  T
     SCC iter.                  ...        0 min,  1.856 sec
     gradient                   ...        0 min,  0.150 sec
 * total energy  :  -118.0904840 Eh     change       -0.6768831E-04 Eh
   gradient norm :     0.0040983 Eh/α   predicted    -0.5330525E-04 ( -21.25%)
   displ. norm   :     0.1906205 α      lambda       -0.1085406E-03
   maximum displ.:     0.0728497 α      in ANC's #17, #5, #11, ...

........................................................................
.............................. CYCLE   57 ..............................
........................................................................

 iter      E             dE          RMSdq      gap      omega  full diag
   1   -118.9590929 -0.118959E+03  0.234E-02    0.30       0.0  T
   2   -118.7650680  0.194025E+00  0.817E-01    0.25       1.0  T
   3   -118.9575712 -0.192503E+00  0.763E-02    0.30       1.0  T
   4   -118.9564025  0.116872E-02  0.993E-02    0.29       1.0  T
   5   -118.9585035 -0.210101E-02  0.529E-02    0.29       1.0  T
   6   -118.9571713  0.133220E-02  0.854E-02    0.30       1.0  T
   7   -118.9591784 -0.200705E-02  0.127E-02    0.30       1.0  T
   8   -118.9592216 -0.432234E-04  0.324E-03    0.29       3.8  T
   9   -118.9592222 -0.651878E-06  0.245E-03    0.29       5.0  T
  10   -118.9592232 -0.974278E-06  0.147E-03    0.29       8.3  T
  11   -118.9592235 -0.326180E-06  0.873E-04    0.29      14.0  T
  12   -118.9592237 -0.179891E-06  0.326E-04    0.29      37.5  T
  13   -118.9592237 -0.220510E-07  0.153E-04    0.29      79.6  T
  14   -118.9592237 -0.235634E-08  0.120E-04    0.29     101.8  T
     SCC iter.                  ...        0 min,  2.249 sec
     gradient                   ...        0 min,  0.086 sec
 * total energy  :  -118.0905579 Eh     change       -0.7390093E-04 Eh
   gradient norm :     0.0026133 Eh/α   predicted    -0.5624360E-04 ( -23.89%)
   displ. norm   :     0.1800360 α      lambda       -0.5745253E-04
   maximum displ.:     0.0698349 α      in ANC's #17, #11, #5, ...

........................................................................
.............................. CYCLE   58 ..............................
........................................................................

 iter      E             dE          RMSdq      gap      omega  full diag
   1   -118.9591768 -0.118959E+03  0.189E-02    0.30       0.0  T
   2   -118.8584985  0.100678E+00  0.584E-01    0.27       1.0  T
   3   -118.9554466 -0.969481E-01  0.116E-01    0.30       1.0  T
   4   -118.9588901 -0.344354E-02  0.376E-02    0.29       1.0  T
   5   -118.9559353  0.295485E-02  0.109E-01    0.29       1.0  T
   6   -118.9590769 -0.314159E-02  0.262E-02    0.30       1.0  T
   7   -118.9592163 -0.139480E-03  0.156E-02    0.29       1.0  T
   8   -118.9592671 -0.507607E-04  0.421E-03    0.30       2.9  T
   9   -118.9592683 -0.124405E-05  0.358E-03    0.30       3.4  T
  10   -118.9592708 -0.244454E-05  0.200E-03    0.30       6.1  T
  11   -118.9592715 -0.676543E-06  0.113E-03    0.30      10.8  T
  12   -118.9592717 -0.286676E-06  0.503E-04    0.30      24.3  T
  13   -118.9592718 -0.429968E-07  0.296E-04    0.30      41.3  T
  14   -118.9592718 -0.176709E-07  0.152E-04    0.30      80.3  T
  15   -118.9592718 -0.331420E-08  0.101E-04    0.30     120.7  T
     SCC iter.                  ...        0 min,  1.979 sec
     gradient                   ...        0 min,  0.082 sec
 * total energy  :  -118.0905971 Eh     change       -0.3920782E-04 Eh
   gradient norm :     0.0019091 Eh/α   predicted    -0.2965957E-04 ( -24.35%)
   displ. norm   :     0.2297973 α      lambda       -0.3722194E-04
   maximum displ.:     0.0902106 α      in ANC's #17, #11, #5, ...

   *** GEOMETRY OPTIMIZATION CONVERGED AFTER 58 ITERATIONS ***

------------------------------------------------------------------------
 total energy gain   :        -0.1048204 Eh      -65.7758 kcal/mol
 total RMSD          :         1.2151388 a0        0.6430 Å
 total power (kW/mol):        -4.7449290 (step)   -1.9031 (real)
------------------------------------------------------------------------

 ANCopt (total)                0 d,  0 h,  2 min, 24.613 sec
 optimizer setup                ...        0 min,  0.000 sec (  0.000%)
 model hessian                  ...        0 min,  0.077 sec (  0.053%)
 ANC generation                 ...        0 min,  0.080 sec (  0.056%)
 coordinate transformation      ...        0 min,  0.010 sec (  0.007%)
 single point calculation       ...        2 min, 24.287 sec ( 99.775%)
 optimization log               ...        0 min,  0.019 sec (  0.013%)
 hessian update                 ...        0 min,  0.028 sec (  0.020%)
 rational function              ...        0 min,  0.047 sec (  0.032%)

================
 final structure:
================
67
 xtb: 6.6.1 (unknown)
C           53.22554091942078       14.27613945019307       53.20481443180664
C           53.47975613050427       15.21138420980985       52.02395873795804
S           54.47614703051060       14.41118031620853       50.72532596402947
H           52.69173170259406       14.79109686911840       54.01020253387360
H           52.62857181276379       13.41424942781536       52.88444170964417
H           54.17611954261722       13.90512142444915       53.59731356830815
H           52.51881084883544       15.59448874051545       51.65257740543029
H           54.05919093903775       16.07652544840813       52.37272565004182
C           47.76626344495592        8.95178867791098       50.29919422844569
C           49.12211154729339        9.56925417174830       50.62766897536949
S           49.75715330384731       10.36589001955263       49.11573915219285
H           47.32279939344603        8.46693572639358       51.17370969640741
H           47.08329023196281        9.72533841006079       49.94293080709407
H           47.87899682857149        8.21003051046288       49.50567469480190
H           48.99899458625766       10.30435114937269       51.43443146070015
H           49.79633564489438        8.78299579998199       50.98910199881133
C           56.44208422324221        7.31738807717563       47.67967909606672
C           55.27791929294558        7.48752464387076       46.70745875750369
S           55.03554501271007        9.22970184146581       46.24350729652234
H           56.62734854607556        6.26054179233893       47.89449110101371
H           57.35169467177639        7.75083267473054       47.25588960875110
H           56.22280717496527        7.83088757677108       48.61995757625729
H           55.49654355884373        6.93361140223417       45.78574745411408
H           54.36982695804535        7.05712721371864       47.14912731924490
C           57.85514624700635       10.41885212492854       51.06994917963265
C           56.95472247836216        9.32014742533787       51.63233900273629
S           55.36224901075224        9.96257541199416       52.23506583614714
H           58.04483939826824       11.17283205356365       51.83836490947932
H           58.81519430197861       10.01109180561287       50.73710798551279
H           57.36842872437170       10.91209136436675       50.22039871887345
H           56.81790776156799        8.53520471100831       50.87563095104693
H           57.45510150063627        8.85738958834217       52.49292691046992
C           57.32369539409316       16.59067513379184       47.91237066044351
C           55.96304429940313       15.90683561153409       47.82202459264994
S           56.16954149196426       14.39128318554212       46.83164795373378
H           58.04675572919479       15.92415103215949       48.39118818024559
H           57.69499928213165       16.82548963100555       46.91099488201826
H           57.26861672793765       17.51806768058044       48.48991651132238
H           55.59751325493502       15.69303403618318       48.84002253450141
H           55.24530017819994       16.59141363544734       47.34725547883469
C           49.77004374946366       18.07314368206710       50.39961712849045
C           50.01720102427314       17.44722548376792       49.02071274756243
C           50.50246706955050       16.04097013144867       49.15415619674766
N           49.64107613096351       14.98296621960887       49.32890961829808
C           50.38686301746748       13.86329490676431       49.50765835121425
N           51.66731496899798       14.15805010239245       49.45566743657623
C           51.75557999368113       15.50909600421364       49.23509139723431
H           49.02227207281862       17.49811948215356       50.94683275084593
H           50.69247366861807       18.08686608759185       50.98294456139971
H           49.40974537888187       19.09542518614442       50.28968402005508
H           49.08538433431256       17.47131887055795       48.44731555868663
H           50.76140107689911       18.04368611079529       48.48223212346902
H           48.64159088654020       15.04390850968571       49.34651326515355
H           49.95528923703300       12.87590049792018       49.63802449998296
H           52.70697010560829       16.01054663410322       49.13004062206942
Fe          51.99129859254264       10.63029067622595       49.23646032437335
Fe          53.22351897126163       12.84142675693067       49.60962252489951
Fe          54.15007682381599       10.31722687676834       47.92856299001835
Fe          54.19656672287983       10.56654407164419       50.39680479611071
S           55.21263069657058       11.89153798473360       49.02408404532553
S           53.31793655480557        8.90388289836366       49.31685986862987
S           52.41021004602429       11.52997735289105       51.15096929115564
S           52.59552677675755       11.86490272180899       47.51701597698770
Ni          54.35246154661231       13.13260873476250       47.25474927319326
C           53.55992866886298       14.38868459546280       46.17495610804950
O           53.10227898732572       15.46105318649465       46.56836852326011
O           53.53287826014439       13.82176045885329       45.07398823858657

 Bond Distances (Angstroems)
 ---------------------------
C1-C2=1.5277         C1-H4=1.0949         C1-H5=1.0963         C1-H6=1.0933         C2-C1=1.5277         C2-S3=1.8220         
C2-H7=1.0991         C2-H8=1.0981         S3-C2=1.8220         S3-Fe57=2.2974       H4-C1=1.0949         H5-C1=1.0963         
H6-C1=1.0933         H7-C2=1.0991         H8-C2=1.0981         C9-C10=1.5256        C9-H12=1.0939        C9-H13=1.0917        
C9-H14=1.0921        C10-C9=1.5256        C10-S11=1.8231       C10-H15=1.0984       C10-H16=1.0970       S11-C10=1.8231       
S11-Fe56=2.2530      H12-C9=1.0939        H13-C9=1.0917        H14-C9=1.0921        H15-C10=1.0984       H16-C10=1.0970       
C17-C18=1.5263       C17-H20=1.0943       C17-H21=1.0931       C17-H22=1.0936       C18-C17=1.5263       C18-S19=1.8191       
C18-H23=1.0973       C18-H24=1.0977       S19-C18=1.8191       S19-Fe58=2.1923      H20-C17=1.0943       H21-C17=1.0931       
H22-C17=1.0936       H23-C18=1.0973       H24-C18=1.0977       C25-C26=1.5278       C25-H28=1.0931       C25-H29=1.0949       
C25-H30=1.0963       C26-C25=1.5278       C26-S27=1.8199       C26-H31=1.0988       C26-H32=1.0978       S27-C26=1.8199       
S27-Fe59=2.2589      H28-C25=1.0931       H29-C25=1.0949       H30-C25=1.0963       H31-C26=1.0988       H32-C26=1.0978       
C33-C34=1.5255       C33-H36=1.0938       C33-H37=1.0935       C33-H38=1.0939       C34-C33=1.5255       C34-S35=1.8222       
C34-H39=1.1026       C34-H40=1.0996       S35-C34=1.8222       S35-Ni64=2.2506      H36-C33=1.0938       H37-C33=1.0935       
H38-C33=1.0939       H39-C34=1.1026       H40-C34=1.0996       C41-C42=1.5344       C41-H48=1.0905       C41-H49=1.0915       
C41-H50=1.0895       C42-C41=1.5344       C42-C43=1.4936       C42-H51=1.0944       C42-H52=1.0952       C43-C42=1.4936       
C43-N44=1.3755       C43-C47=1.3637       N44-C43=1.3755       N44-C45=1.3571       N44-H53=1.0015       C45-N44=1.3571       
C45-N46=1.3150       C45-H54=1.0854       N46-C45=1.3150       N46-C47=1.3718       N46-Fe57=2.0443      C47-C43=1.3637       
C47-N46=1.3718       C47-H55=1.0806       H48-C41=1.0905       H49-C41=1.0915       H50-C41=1.0895       H51-C42=1.0944       
H52-C42=1.0952       H53-N44=1.0015       H54-C45=1.0854       H55-C47=1.0806       Fe56-S11=2.2530      Fe56-Fe57=2.5587     
Fe56-Fe58=2.5434     Fe56-Fe59=2.4927     Fe56-S61=2.1787      Fe56-S62=2.1564      Fe56-S63=2.2013      Fe57-S3=2.2974       
Fe57-N46=2.0443      Fe57-Fe56=2.5587     Fe57-Fe58=3.1711     Fe57-Fe59=2.5965     Fe57-S60=2.2807      Fe57-S62=2.1811      
Fe57-S63=2.3931      Fe57-Ni64=2.6277     Fe58-S19=2.1923      Fe58-Fe56=2.5434     Fe58-Fe57=3.1711     Fe58-Fe59=2.4812     
Fe58-S60=2.1926      Fe58-S61=2.1488      Fe58-S63=2.2319      Fe58-Ni64=2.9020     Fe59-S27=2.2589      Fe59-Fe56=2.4927     
Fe59-Fe57=2.5965     Fe59-Fe58=2.4812     Fe59-S60=2.1616      Fe59-S61=2.1686      Fe59-S62=2.1652      S60-Fe57=2.2807      
S60-Fe58=2.1926      S60-Fe59=2.1616      S60-Ni64=2.3261      S61-Fe56=2.1787      S61-Fe58=2.1488      S61-Fe59=2.1686      
S62-Fe56=2.1564      S62-Fe57=2.1811      S62-Fe59=2.1652      S63-Fe56=2.2013      S63-Fe57=2.3931      S63-Fe58=2.2319      
S63-Ni64=2.1824      Ni64-S35=2.2506      Ni64-Fe57=2.6277     Ni64-Fe58=2.9020     Ni64-S60=2.3261      Ni64-S63=2.1824      
Ni64-C65=1.8362      C65-Ni64=1.8362      C65-O66=1.2305       C65-O67=1.2387       O66-C65=1.2305       O67-C65=1.2387       
 C  H  Rav=1.0944 sigma=0.0041  Rmin=1.0806  Rmax=1.1026    32
 C  C  Rav=1.5031 sigma=0.0539  Rmin=1.3637  Rmax=1.5344     8
 N  H  Rav=1.0015 sigma=0.0000  Rmin=1.0015  Rmax=1.0015     1
 N  C  Rav=1.3548 sigma=0.0240  Rmin=1.3150  Rmax=1.3755     4
 O  C  Rav=1.2346 sigma=0.0041  Rmin=1.2305  Rmax=1.2387     2
 S  C  Rav=1.8213 sigma=0.0015  Rmin=1.8191  Rmax=1.8231     5
 Fe N  Rav=2.0443 sigma=0.0000  Rmin=2.0443  Rmax=2.0443     1
 Fe S  Rav=2.2164 sigma=0.0639  Rmin=2.1488  Rmax=2.3931    16
 Fe Fe Rav=2.6406 sigma=0.2404  Rmin=2.4812  Rmax=3.1711     6
 Ni C  Rav=1.8362 sigma=0.0000  Rmin=1.8362  Rmax=1.8362     1
 Ni S  Rav=2.2530 sigma=0.0587  Rmin=2.1824  Rmax=2.3261     3
 Ni Fe Rav=2.7648 sigma=0.1371  Rmin=2.6277  Rmax=2.9020     2

 selected bond angles (degree)
 --------------------
H4-C1-C2=111.21                H5-C1-C2=110.24                H5-C1-H4=108.62                H6-C1-C2=109.91                
H6-C1-H4=108.63                H6-C1-H5=108.15                S3-C2-C1=111.91                H7-C2-C1=109.21                
H7-C2-S3=112.98                H8-C2-C1=108.94                H8-C2-S3=106.49                H8-C2-H7=107.10                
Fe57-S3-C2=110.37              H12-C9-C10=111.57              H13-C9-C10=109.85              H13-C9-H12=108.74              
H14-C9-C10=109.85              H14-C9-H12=108.77              H14-C9-H13=107.98              S11-C10-C9=107.93              
H15-C10-C9=109.23              H15-C10-S11=110.84             H16-C10-C9=109.09              H16-C10-S11=111.86             
H16-C10-H15=107.85             

 selected dihedral angles (degree)
 ---------------------------------
S3-C2-C1-H4=175.70            S3-C2-C1-H5=296.24            S3-C2-C1-H6= 55.37            H7-C2-C1-H4=301.56            
H7-C2-C1-H5= 62.09            H7-C2-C1-H6=181.22            H8-C2-C1-H4= 58.22            H8-C2-C1-H5=178.76            
H8-C2-C1-H6=297.89            Fe57-S3-C2-C1= 72.36          Fe57-S3-C2-H7=308.60          Fe57-S3-C2-H8=191.31          
S11-C10-C9-H12=180.78         S11-C10-C9-H13=301.44         S11-C10-C9-H14= 60.08         H15-C10-C9-H12=301.37         
H15-C10-C9-H13= 62.03         H15-C10-C9-H14=180.67         H16-C10-C9-H12= 59.04         H16-C10-C9-H13=179.70         
H16-C10-C9-H14=298.34         

 CMA Distance (Angstroems)
 ---------------------------
R(CMA):  4.2024
           -------------------------------------------------
          |                Final Singlepoint                |
           -------------------------------------------------

          ...................................................
          :                      SETUP                      :
          :.................................................:
          :  # basis functions                 286          :
          :  # atomic orbitals                 272          :
          :  # shells                          148          :
          :  # electrons                       218          :
          :  # halogen bonds                     0          :
          :  max. iterations                   250          :
          :  Hamiltonian                  GFN1-xTB          :
          :  restarted?                      false          :
          :  GBSA solvation                   true          :
          :  PC potential                    false          :
          :  electronic temp.          300.0000000     K    :
          :  accuracy                    1.0000000          :
          :  -> integral cutoff          0.2500000E+02      :
          :  -> integral neglect         0.1000000E-07      :
          :  -> SCF convergence          0.1000000E-05 Eh   :
          :  -> wf. convergence          0.2000000E-04 e    :
          :  Broyden damping             0.4000000          :
          ...................................................

 iter      E             dE          RMSdq      gap      omega  full diag
   1   -118.9592718 -0.118959E+03  0.482E-05    0.30       0.0  T
   2   -118.9592709  0.896717E-06  0.178E-03    0.30       6.9  T
   3   -118.9592718 -0.896099E-06  0.673E-05    0.30     181.7  T
   4   -118.9592718 -0.250381E-09  0.597E-05    0.30     204.6  T

   *** convergence criteria satisfied after 4 iterations ***

         #    Occupation            Energy/Eh            Energy/eV
      -------------------------------------------------------------
         1        2.0000           -0.7767168             -21.1355
       ...           ...                  ...                  ...
       103        2.0000           -0.2566418              -6.9836
       104        2.0000           -0.2559142              -6.9638
       105        2.0000           -0.2545147              -6.9257
       106        2.0000           -0.2507328              -6.8228
       107        2.0000           -0.2483468              -6.7579
       108        1.9986           -0.2446494              -6.6572
       109        1.9936           -0.2432094              -6.6181 (HOMO)
       110        0.0068           -0.2323529              -6.3226 (LUMO)
       111        0.0011           -0.2305928              -6.2747
       112        0.0000           -0.2257528              -6.1430
       113                         -0.2178920              -5.9291
       114                         -0.2108465              -5.7374
       ...                                ...                  ...
       272                         14.7764400             402.0874
      -------------------------------------------------------------
                  HL-Gap            0.0108565 Eh            0.2954 eV
             Fermi-level           -0.2377544 Eh           -6.4696 eV

 SCC (total)                   0 d,  0 h,  0 min,  0.698 sec
 SCC setup                      ...        0 min,  0.002 sec (  0.326%)
 Dispersion                     ...        0 min,  0.001 sec (  0.201%)
 classical contributions        ...        0 min,  0.000 sec (  0.029%)
 integral evaluation            ...        0 min,  0.030 sec (  4.273%)
 iterations                     ...        0 min,  0.529 sec ( 75.727%)
 molecular gradient             ...        0 min,  0.098 sec ( 14.080%)
 printout                       ...        0 min,  0.037 sec (  5.354%)

         :::::::::::::::::::::::::::::::::::::::::::::::::::::
         ::                     SUMMARY                     ::
         :::::::::::::::::::::::::::::::::::::::::::::::::::::
         :: total energy            -118.090597084627 Eh    ::
         :: total w/o Gsasa/hb      -118.086963041784 Eh    ::
         :: gradient norm              0.001909702707 Eh/a0 ::
         :: HOMO-LUMO gap              0.295419776146 eV    ::
         ::.................................................::
         :: SCC energy              -118.959271811136 Eh    ::
         :: -> electrostatic           0.700539946874 Eh    ::
         :: -> Gsolv                  -0.385145417861 Eh    ::
         ::    -> Gelec               -0.381511375017 Eh    ::
         ::    -> Gsasa               -0.005090836584 Eh    ::
         ::    -> Ghb                 -0.002788812930 Eh    ::
         ::    -> Gshift               0.004245606671 Eh    ::
         :: repulsion energy           0.936837516158 Eh    ::
         :: dispersion energy         -0.068162789650 Eh    ::
         :: halogen bond corr.         0.000000000000 Eh    ::
         :: add. restraining           0.000000000000 Eh    ::
         :: total charge              -3.000000000000 e     ::
         :::::::::::::::::::::::::::::::::::::::::::::::::::::

           -------------------------------------------------
          |                Property Printout                |
           -------------------------------------------------

    * Orbital Energies and Occupations

         #    Occupation            Energy/Eh            Energy/eV
      -------------------------------------------------------------
         1        2.0000           -0.7767168             -21.1355
       ...           ...                  ...                  ...
        97        2.0000           -0.2679852              -7.2922
        98        2.0000           -0.2658056              -7.2329
        99        2.0000           -0.2638169              -7.1788
       100        2.0000           -0.2628686              -7.1530
       101        2.0000           -0.2610800              -7.1043
       102        2.0000           -0.2594105              -7.0589
       103        2.0000           -0.2566418              -6.9836
       104        2.0000           -0.2559142              -6.9638
       105        2.0000           -0.2545147              -6.9257
       106        2.0000           -0.2507328              -6.8228
       107        2.0000           -0.2483468              -6.7579
       108        1.9986           -0.2446494              -6.6572
       109        1.9936           -0.2432094              -6.6181 (HOMO)
       110        0.0068           -0.2323529              -6.3226 (LUMO)
       111        0.0011           -0.2305928              -6.2747
       112        0.0000           -0.2257528              -6.1430
       113                         -0.2178920              -5.9291
       114                         -0.2108465              -5.7374
       115                         -0.2037208              -5.5435
       116                         -0.2003316              -5.4513
       117                         -0.1991825              -5.4200
       118                         -0.1923699              -5.2347
       119                         -0.1905396              -5.1848
       120                         -0.1653422              -4.4992
       ...                                ...                  ...
       272                         14.7764400             402.0874
      -------------------------------------------------------------
                  HL-Gap            0.0108565 Eh            0.2954 eV
             Fermi-level           -0.2377544 Eh           -6.4696 eV

  Mulliken/CM5 charges         n(s)   n(p)   n(d)
     1C    -0.06197 -0.20969   1.003  3.059  0.000
     2C     0.01408 -0.07961   1.026  2.960  0.000
     3S    -0.26130 -0.34525   1.905  4.366 -0.010
     4H    -0.01381  0.03686   1.014  0.000  0.000
     5H     0.00159  0.05657   0.998  0.000  0.000
     6H    -0.00563  0.04662   1.006  0.000  0.000
     7H    -0.02447  0.03420   1.024  0.000  0.000
     8H    -0.03054  0.02488   1.031  0.000  0.000
     9C    -0.07387 -0.22207   1.005  3.069  0.000
    10C     0.02263 -0.07177   1.025  2.953  0.000
    11S    -0.31773 -0.40575   1.899  4.429 -0.010
    12H    -0.00184  0.04890   1.002  0.000  0.000
    13H    -0.00149  0.05099   1.001  0.000  0.000
    14H    -0.00022  0.05216   1.000  0.000  0.000
    15H    -0.02118  0.03364   1.021  0.000  0.000
    16H    -0.01197  0.04295   1.012  0.000  0.000
    17C    -0.06384 -0.21239   1.004  3.060  0.000
    18C     0.02126 -0.07320   1.026  2.953  0.000
    19S    -0.29080 -0.38585   1.894  4.405 -0.009
    20H    -0.00653  0.04420   1.007  0.000  0.000
    21H    -0.00467  0.04745   1.005  0.000  0.000
    22H     0.01533  0.06822   0.985  0.000  0.000
    23H    -0.03140  0.02391   1.031  0.000  0.000
    24H    -0.01508  0.04052   1.015  0.000  0.000
    25C    -0.06240 -0.21049   1.004  3.059  0.000
    26C     0.02271 -0.07183   1.024  2.953  0.000
    27S    -0.31999 -0.40397   1.897  4.433 -0.011
    28H    -0.00830  0.04375   1.008  0.000  0.000
    29H    -0.01026  0.04039   1.010  0.000  0.000
    30H     0.00510  0.05927   0.995  0.000  0.000
    31H    -0.01512  0.03963   1.015  0.000  0.000
    32H    -0.03340  0.02192   1.033  0.000  0.000
    33C    -0.06809 -0.21578   1.003  3.065  0.000
    34C     0.02828 -0.06504   1.027  2.945  0.000
    35S    -0.30561 -0.38121   1.884  4.435 -0.013
    36H    -0.00616  0.04604   1.006  0.000  0.000
    37H    -0.00948  0.04274   1.009  0.000  0.000
    38H    -0.00700  0.04376   1.007  0.000  0.000
    39H    -0.02002  0.03808   1.020  0.000  0.000
    40H    -0.02171  0.03664   1.022  0.000  0.000
    41C    -0.07692 -0.22650   1.006  3.071  0.000
    42C    -0.03771 -0.13885   1.022  3.016  0.000
    43C     0.05950  0.11987   1.046  2.894  0.000
    44N    -0.28563 -0.64480   1.430  3.856  0.000
    45C     0.21089  0.30565   0.989  2.800  0.000
    46N    -0.23390 -0.51183   1.530  3.704  0.000
    47C     0.07991  0.10383   1.020  2.900  0.000
    48H     0.02286  0.07598   0.977  0.000  0.000
    49H     0.02552  0.07775   0.974  0.000  0.000
    50H     0.02721  0.07860   0.973  0.000  0.000
    51H     0.02276  0.08014   0.977  0.000  0.000
    52H     0.02885  0.08447   0.971  0.000  0.000
    53H     0.23718  0.43429   0.763  0.000  0.000
    54H     0.01811  0.09325   0.982  0.000  0.000
    55H     0.01958  0.08875   0.980  0.000  0.000
    56Fe   -0.02660  0.25965   0.142  0.962  6.923
    57Fe   -0.00103  0.32108   0.100  0.941  6.960
    58Fe   -0.02574  0.26078   0.150  0.950  6.926
    59Fe   -0.02249  0.26899   0.150  0.976  6.897
    60S     0.03396 -0.21680   1.867  4.115 -0.017
    61S    -0.13162 -0.36009   1.866  4.284 -0.019
    62S    -0.11023 -0.33900   1.867  4.262 -0.019
    63S    -0.00317 -0.24000   1.857  4.165 -0.019
    64Ni   -0.15613  0.08383   0.558  0.679  8.919
    65C     0.59487  0.60953   0.963  2.442  0.000
    66O    -0.63858 -0.68970   1.747  4.891  0.000
    67O    -0.63654 -0.68927   1.742  4.894  0.000

Wiberg/Mayer (AO) data.
largest (>0.10) Wiberg bond orders for each atom

 ---------------------------------------------------------------------------
     #   Z sym  total        # sym  WBO       # sym  WBO       # sym  WBO
 ---------------------------------------------------------------------------
     1   6 C    3.988 --     2 C    1.017     6 H    0.988     4 H    0.986
                             5 H    0.975
     2   6 C    3.987 --     1 C    1.017     8 H    0.984     7 H    0.980
                             3 S    0.966
     3  16 S    2.068 --     2 C    0.966    57 Fe   0.724
     4   1 H    1.010 --     1 C    0.986
     5   1 H    1.047 --     1 C    0.975
     6   1 H    1.026 --     1 C    0.988
     7   1 H    1.025 --     2 C    0.980
     8   1 H    1.027 --     2 C    0.984
     9   6 C    3.991 --    10 C    1.019    13 H    0.988    14 H    0.988
                            12 H    0.985
    10   6 C    3.988 --     9 C    1.019    15 H    0.987    16 H    0.986
                            11 S    0.964
    11  16 S    2.023 --    10 C    0.964    56 Fe   0.697
    12   1 H    1.008 --     9 C    0.985
    13   1 H    1.026 --     9 C    0.988
    14   1 H    1.027 --     9 C    0.988
    15   1 H    1.024 --    10 C    0.987
    16   1 H    1.020 --    10 C    0.986
    17   6 C    3.993 --    18 C    1.018    21 H    0.988    20 H    0.985
                            22 H    0.978
    18   6 C    3.991 --    17 C    1.018    23 H    0.986    24 H    0.984
                            19 S    0.963
    19  16 S    2.097 --    18 C    0.963    58 Fe   0.825
    20   1 H    1.009 --    17 C    0.985
    21   1 H    1.025 --    17 C    0.988
    22   1 H    1.027 --    17 C    0.978
    23   1 H    1.030 --    18 C    0.986
    24   1 H    1.029 --    18 C    0.984
    25   6 C    3.990 --    26 C    1.017    28 H    0.989    29 H    0.986
                            30 H    0.974
    26   6 C    3.988 --    25 C    1.017    32 H    0.985    31 H    0.980
                            27 S    0.971
    27  16 S    2.000 --    26 C    0.971    59 Fe   0.724
    28   1 H    1.025 --    25 C    0.989
    29   1 H    1.010 --    25 C    0.986
    30   1 H    1.044 --    25 C    0.974
    31   1 H    1.020 --    26 C    0.980
    32   1 H    1.030 --    26 C    0.985
    33   6 C    3.992 --    34 C    1.018    37 H    0.988    36 H    0.988
                            38 H    0.986
    34   6 C    3.990 --    33 C    1.018    40 H    0.984    35 S    0.977
                            39 H    0.970
    35  16 S    1.971 --    34 C    0.977    64 Ni   0.653
    36   1 H    1.028 --    33 C    0.988
    37   1 H    1.025 --    33 C    0.988
    38   1 H    1.009 --    33 C    0.986
    39   1 H    1.058 --    34 C    0.970
    40   1 H    1.034 --    34 C    0.984
    41   6 C    3.997 --    42 C    1.000    48 H    0.989    49 H    0.988
                            50 H    0.988
    42   6 C    3.998 --    43 C    1.015    41 C    1.000    52 H    0.977
                            51 H    0.977
    43   6 C    3.914 --    47 C    1.575    44 N    1.142    42 C    1.015
                            45 C    0.107
    44   7 N    3.450 --    45 C    1.214    43 C    1.142    53 H    0.911
    45   6 C    3.913 --    46 N    1.505    44 N    1.214    54 H    0.949
                            43 C    0.107
    46   7 N    3.311 --    45 C    1.505    47 C    1.234    57 Fe   0.393
    47   6 C    3.961 --    43 C    1.575    46 N    1.234    55 H    0.972
    48   1 H    1.007 --    41 C    0.989
    49   1 H    1.009 --    41 C    0.988
    50   1 H    1.005 --    41 C    0.988
    51   1 H    1.006 --    42 C    0.977
    52   1 H    1.007 --    42 C    0.977
    53   1 H    0.947 --    44 N    0.911
    54   1 H    1.061 --    45 C    0.949
    55   1 H    1.038 --    47 C    0.972
    56  26 Fe   5.779 --    62 S    0.856    58 Fe   0.817    61 S    0.801
                            59 Fe   0.768    63 S    0.699    11 S    0.697
                            57 Fe   0.667    64 Ni   0.155
    57  26 Fe   4.995 --    62 S    0.791     3 S    0.724    56 Fe   0.667
                            59 Fe   0.618    60 S    0.567    63 S    0.479
                            46 N    0.393    64 Ni   0.235    58 Fe   0.211
    58  26 Fe   5.531 --    59 Fe   0.882    61 S    0.841    19 S    0.825
                            56 Fe   0.817    60 S    0.756    63 S    0.739
                            57 Fe   0.211    64 Ni   0.165
    59  26 Fe   5.786 --    58 Fe   0.882    61 S    0.820    62 S    0.815
                            60 S    0.769    56 Fe   0.768    27 S    0.724
                            57 Fe   0.618    64 Ni   0.127
    60  16 S    2.791 --    59 Fe   0.769    58 Fe   0.756    57 Fe   0.567
                            64 Ni   0.465
    61  16 S    2.657 --    58 Fe   0.841    59 Fe   0.820    56 Fe   0.801
    62  16 S    2.677 --    56 Fe   0.856    59 Fe   0.815    57 Fe   0.791
    63  16 S    2.766 --    58 Fe   0.739    56 Fe   0.699    64 Ni   0.614
                            57 Fe   0.479
    64  28 Ni   3.550 --    65 C    0.679    35 S    0.653    63 S    0.614
                            60 S    0.465    57 Fe   0.235    67 O    0.203
                            58 Fe   0.165    56 Fe   0.155    66 O    0.142
                            59 Fe   0.127
    65   6 C    3.806 --    66 O    1.496    67 O    1.459    64 Ni   0.679
    66   8 O    1.898 --    65 C    1.496    67 O    0.152    64 Ni   0.142
    67   8 O    1.909 --    65 C    1.459    64 Ni   0.203    66 O    0.152
 ---------------------------------------------------------------------------

Topologies differ in total number of bonds
Writing topology from bond orders to xtbtopo.mol

 dipole moment from electron density (au)
     X       Y       Z   
-307.3197 -68.6334-274.3437  total (Debye): 1061.527

           -------------------------------------------------
          |                Geometry Summary                 |
           -------------------------------------------------

      molecular mass/u    :      856.1030469
   center of mass at/Å    :       53.4369484      12.1061719      49.0492138
  moments of inertia/u·Å² :        0.6382995E+04   0.7956608E+04   0.9503779E+04
rotational constants/cm⁻¹ :        0.2641022E-02   0.2118696E-02   0.1773782E-02

 * 65 selected distances

     #   Z          #   Z                                           value/Å
     1   6 C        2   6 C                                       1.5276547
     1   6 C        4   1 H                                       1.0948898
     1   6 C        5   1 H                                       1.0962962
     1   6 C        6   1 H                                       1.0933023
     2   6 C        7   1 H                                       1.0991402
     2   6 C        8   1 H                                       1.0981132
     9   6 C       10   6 C                                       1.5256093
     9   6 C       12   1 H                                       1.0938557
     9   6 C       13   1 H                                       1.0916755
     9   6 C       14   1 H                                       1.0920565
    10   6 C       15   1 H                                       1.0983584
    10   6 C       16   1 H                                       1.0970025
    17   6 C       18   6 C                                       1.5262501
    17   6 C       20   1 H                                       1.0942538
    17   6 C       21   1 H                                       1.0930980
    17   6 C       22   1 H                                       1.0935666
    18   6 C       23   1 H                                       1.0973461
    18   6 C       24   1 H                                       1.0976999
    25   6 C       26   6 C                                       1.5278081
    25   6 C       28   1 H                                       1.0931295
    25   6 C       29   1 H                                       1.0948718
    25   6 C       30   1 H                                       1.0963189
    26   6 C       31   1 H                                       1.0988451
    26   6 C       32   1 H                                       1.0977868
    33   6 C       34   6 C                                       1.5255067
    33   6 C       36   1 H                                       1.0937719
    33   6 C       37   1 H                                       1.0935072
    33   6 C       38   1 H                                       1.0939150
    34   6 C       39   1 H                                       1.1025625
    34   6 C       40   1 H                                       1.0996407
    41   6 C       42   6 C                                       1.5343526
    42   6 C       43   6 C                                       1.4936013
    43   6 C       44   7 N                                       1.3754656
    44   7 N       45   6 C                                       1.3571343
    45   6 C       46   7 N                                       1.3149681
    43   6 C       47   6 C                                       1.3637203
    46   7 N       47   6 C                                       1.3717762
    41   6 C       48   1 H                                       1.0905322
    41   6 C       49   1 H                                       1.0914836
    41   6 C       50   1 H                                       1.0894769
    42   6 C       51   1 H                                       1.0943708
    42   6 C       52   1 H                                       1.0952445
    44   7 N       53   1 H                                       1.0014963 (min)
    45   6 C       54   1 H                                       1.0854488
    47   6 C       55   1 H                                       1.0805701
    11  16 S       56  26 Fe                                      2.2529730
    19  16 S       58  26 Fe                                      2.1922998
    27  16 S       59  26 Fe                                      2.2589373
    56  26 Fe      59  26 Fe                                      2.4927237 (max)
    58  26 Fe      59  26 Fe                                      2.4812374
    57  26 Fe      60  16 S                                       2.2807259
    58  26 Fe      60  16 S                                       2.1926339
    59  26 Fe      60  16 S                                       2.1615638
    56  26 Fe      61  16 S                                       2.1787421
    58  26 Fe      61  16 S                                       2.1488061
    59  26 Fe      61  16 S                                       2.1685744
    56  26 Fe      62  16 S                                       2.1564481
    57  26 Fe      62  16 S                                       2.1810827
    59  26 Fe      62  16 S                                       2.1651879
    56  26 Fe      63  16 S                                       2.2013288
    58  26 Fe      63  16 S                                       2.2318822
    63  16 S       64  28 Ni                                      2.1823572
    64  28 Ni      65   6 C                                       1.8362431
    65   6 C       66   8 O                                       1.2305248
    65   6 C       67   8 O                                       1.2386546

 * 9 distinct bonds (by element types)

   Z      Z             #   av. dist./Å        max./Å        min./Å
   1 H    6 C          32     1.0944416     1.1025625     1.0805701
   6 C    6 C           8     1.5030629     1.5343526     1.3637203
   1 H    7 N           1     1.0014963     1.0014963     1.0014963
   6 C    7 N           4     1.3548361     1.3754656     1.3149681
   6 C    8 O           2     1.2345897     1.2386546     1.2305248
Note: The following floating-point exceptions are signalling: IEEE_UNDERFLOW_FLAG IEEE_DENORMAL
normal termination of xtb
  16 S   26 Fe         14     2.1979419     2.2807259     2.1488061
  26 Fe  26 Fe          2     2.4869806     2.4927237     2.4812374
   6 C   28 Ni          1     1.8362431     1.8362431     1.8362431
  16 S   28 Ni          1     2.1823572     2.1823572     2.1823572


optimized geometry written to: xtbopt.xyz


           -------------------------------------------------
          | TOTAL ENERGY             -118.090597084627 Eh   |
          | GRADIENT NORM               0.001909702707 Eh/α |
          | HOMO-LUMO GAP               0.295419776146 eV   |
           -------------------------------------------------

------------------------------------------------------------------------
 * finished run on 2026/09/12 at 19:30:59.823     
------------------------------------------------------------------------
 total:
 * wall-time:     0 d,  0 h,  2 min, 31.156 sec
 *  cpu-time:     0 d,  0 h,  3 min, 34.972 sec
 * ratio c/w:     1.422 speedup
 SCF:
 * wall-time:     0 d,  0 h,  0 min,  5.785 sec
 *  cpu-time:     0 d,  0 h,  0 min,  7.148 sec
 * ratio c/w:     1.236 speedup
 ANC optimizer:
 * wall-time:     0 d,  0 h,  2 min, 25.315 sec
 *  cpu-time:     0 d,  0 h,  3 min, 27.453 sec
 * ratio c/w:     1.428 speedup

