67
 energy: -118.090597084627 gnorm: 0.001909702707 xtb: 6.6.1 (unknown)
C           53.22554091942078       14.27613945019307       53.20481443180664
C           53.47975613050427       15.21138420980985       52.02395873795804
S           54.47614703051060       14.41118031620853       50.72532596402947
H           52.69173170259406       14.79109686911840       54.01020253387360
H           52.62857181276379       13.41424942781536       52.88444170964417
H           54.17611954261722       13.90512142444915       53.59731356830815
H           52.51881084883544       15.59448874051545       51.65257740543029
H           54.05919093903775       16.07652544840813       52.37272565004182
C           47.76626344495592        8.95178867791098       50.29919422844569
C           49.12211154729339        9.56925417174830       50.62766897536949
S           49.75715330384731       10.36589001955263       49.11573915219285
H           47.32279939344603        8.46693572639358       51.17370969640741
H           47.08329023196281        9.72533841006079       49.94293080709407
H           47.87899682857149        8.21003051046288       49.50567469480190
H           48.99899458625766       10.30435114937269       51.43443146070015
H           49.79633564489438        8.78299579998199       50.98910199881133
C           56.44208422324221        7.31738807717563       47.67967909606672
C           55.27791929294558        7.48752464387076       46.70745875750369
S           55.03554501271007        9.22970184146581       46.24350729652234
H           56.62734854607556        6.26054179233893       47.89449110101371
H           57.35169467177639        7.75083267473054       47.25588960875110
H           56.22280717496527        7.83088757677108       48.61995757625729
H           55.49654355884373        6.93361140223417       45.78574745411408
H           54.36982695804535        7.05712721371864       47.14912731924490
C           57.85514624700635       10.41885212492854       51.06994917963265
C           56.95472247836216        9.32014742533787       51.63233900273629
S           55.36224901075224        9.96257541199416       52.23506583614714
H           58.04483939826824       11.17283205356365       51.83836490947932
H           58.81519430197861       10.01109180561287       50.73710798551279
H           57.36842872437170       10.91209136436675       50.22039871887345
H           56.81790776156799        8.53520471100831       50.87563095104693
H           57.45510150063627        8.85738958834217       52.49292691046992
C           57.32369539409316       16.59067513379184       47.91237066044351
C           55.96304429940313       15.90683561153409       47.82202459264994
S           56.16954149196426       14.39128318554212       46.83164795373378
H           58.04675572919479       15.92415103215949       48.39118818024559
H           57.69499928213165       16.82548963100555       46.91099488201826
H           57.26861672793765       17.51806768058044       48.48991651132238
H           55.59751325493502       15.69303403618318       48.84002253450141
H           55.24530017819994       16.59141363544734       47.34725547883469
C           49.77004374946366       18.07314368206710       50.39961712849045
C           50.01720102427314       17.44722548376792       49.02071274756243
C           50.50246706955050       16.04097013144867       49.15415619674766
N           49.64107613096351       14.98296621960887       49.32890961829808
C           50.38686301746748       13.86329490676431       49.50765835121425
N           51.66731496899798       14.15805010239245       49.45566743657623
C           51.75557999368113       15.50909600421364       49.23509139723431
H           49.02227207281862       17.49811948215356       50.94683275084593
H           50.69247366861807       18.08686608759185       50.98294456139971
H           49.40974537888187       19.09542518614442       50.28968402005508
H           49.08538433431256       17.47131887055795       48.44731555868663
H           50.76140107689911       18.04368611079529       48.48223212346902
H           48.64159088654020       15.04390850968571       49.34651326515355
H           49.95528923703300       12.87590049792018       49.63802449998296
H           52.70697010560829       16.01054663410322       49.13004062206942
Fe          51.99129859254264       10.63029067622595       49.23646032437335
Fe          53.22351897126163       12.84142675693067       49.60962252489951
Fe          54.15007682381599       10.31722687676834       47.92856299001835
Fe          54.19656672287983       10.56654407164419       50.39680479611071
S           55.21263069657058       11.89153798473360       49.02408404532553
S           53.31793655480557        8.90388289836366       49.31685986862987
S           52.41021004602429       11.52997735289105       51.15096929115564
S           52.59552677675755       11.86490272180899       47.51701597698770
Ni          54.35246154661231       13.13260873476250       47.25474927319326
C           53.55992866886298       14.38868459546280       46.17495610804950
O           53.10227898732572       15.46105318649465       46.56836852326011
O           53.53287826014439       13.82176045885329       45.07398823858657
