      -----------------------------------------------------------      
     |                   =====================                   |     
     |                           x T B                           |     
     |                   =====================                   |     
     |                         S. Grimme                         |     
     |          Mulliken Center for Theoretical Chemistry        |     
     |                    University of Bonn                     |     
      -----------------------------------------------------------      

   * xtb version 6.6.1 (unknown) compiled by 'builduser@buildhost' on 2023-08-07

   xtb is free software: you can redistribute it and/or modify it under
   the terms of the GNU Lesser General Public License as published by
   the Free Software Foundation, either version 3 of the License, or
   (at your option) any later version.
   
   xtb is distributed in the hope that it will be useful,
   but WITHOUT ANY WARRANTY; without even the implied warranty of
   MERCHANTABILITY or FITNESS FOR A PARTICULAR PURPOSE.  See the
   GNU Lesser General Public License for more details.
   
   Cite this work as:
   * C. Bannwarth, E. Caldeweyher, S. Ehlert, A. Hansen, P. Pracht,
     J. Seibert, S. Spicher, S. Grimme, WIREs Comput. Mol. Sci., 2020, 11,
     e01493. DOI: 10.1002/wcms.1493
   
   for GFN2-xTB:
   * C. Bannwarth, S. Ehlert and S. Grimme., J. Chem. Theory Comput., 2019,
     15, 1652-1671. DOI: 10.1021/acs.jctc.8b01176
   for GFN1-xTB:
   * S. Grimme, C. Bannwarth, P. Shushkov, J. Chem. Theory Comput., 2017,
     13, 1989-2009. DOI: 10.1021/acs.jctc.7b00118
   for GFN0-xTB:
   * P. Pracht, E. Caldeweyher, S. Ehlert, S. Grimme, ChemRxiv, 2019, preprint.
     DOI: 10.26434/chemrxiv.8326202.v1
   for GFN-FF:
   * S. Spicher and S. Grimme, Angew. Chem. Int. Ed., 2020, 59, 15665-15673.
     DOI: 10.1002/anie.202004239
   
   for ALPB and GBSA implicit solvation:
   * S. Ehlert, M. Stahn, S. Spicher, S. Grimme, J. Chem. Theory Comput.,
     2021, 17, 4250-4261. DOI: 10.1021/acs.jctc.1c00471
   
   for DFT-D4:
   * E. Caldeweyher, C. Bannwarth and S. Grimme, J. Chem. Phys., 2017,
     147, 034112. DOI: 10.1063/1.4993215
   * E. Caldeweyher, S. Ehlert, A. Hansen, H. Neugebauer, S. Spicher,
     C. Bannwarth and S. Grimme, J. Chem. Phys., 2019, 150, 154122.
     DOI: 10.1063/1.5090222
   * E. Caldeweyher, J.-M. Mewes, S. Ehlert and S. Grimme, Phys. Chem. Chem. Phys.
     2020, 22, 8499-8512. DOI: 10.1039/D0CP00502A
   
   for sTDA-xTB:
   * S. Grimme and C. Bannwarth, J. Chem. Phys., 2016, 145, 054103.
     DOI: 10.1063/1.4959605
   
   in the mass-spec context:
   * V. Asgeirsson, C. Bauer and S. Grimme, Chem. Sci., 2017, 8, 4879.
     DOI: 10.1039/c7sc00601b
   * J. Koopman and S. Grimme, ACS Omega 2019, 4, 12, 15120-15133.
     DOI: 10.1021/acsomega.9b02011
   
   for metadynamics refer to:
   * S. Grimme, J. Chem. Theory Comput., 2019, 155, 2847-2862
     DOI: 10.1021/acs.jctc.9b00143
   
   for SPH calculations refer to:
   * S. Spicher and S. Grimme, J. Chem. Theory Comput., 2021, 17, 1701-1714
     DOI: 10.1021/acs.jctc.0c01306
   
   with help from (in alphabetical order)
   P. Atkinson, C. Bannwarth, F. Bohle, G. Brandenburg, E. Caldeweyher
   M. Checinski, S. Dohm, S. Ehlert, S. Ehrlich, I. Gerasimov, C. Hölzer
   A. Katbashev, J. Koopman, C. Lavigne, S. Lehtola, F. März, M. Müller,
   F. Musil, H. Neugebauer, J. Pisarek, C. Plett, P. Pracht, F. Pultar,
   J. Seibert, P. Shushkov, S. Spicher, M. Stahn, M. Steiner, T. Strunk,
   J. Stückrath, T. Rose, and J. Unsleber
   
 * started run on 2026/09/13 at 13:41:45.658     

           -------------------------------------------------
          |                Calculation Setup                |
           -------------------------------------------------

          program call               : xtb start.xyz --gfn 1 --chrg -3 --uhf 1 --alpb water --opt loose
          coordinate file            : start.xyz
          omp threads                :                     8

   ID    Z sym.   atoms
    1    6 C      1, 2, 9, 10, 17, 18, 25, 26, 33, 34, 41-43, 45, 47, 65
    2   16 S      3, 11, 19, 27, 35, 60-63
    3    1 H      4-8, 12-16, 20-24, 28-32, 36-40, 48-55, 68
    4    7 N      44, 46
    5   26 Fe     56-59
    6   28 Ni     64
    7    8 O      66, 67

molecular fragmentation (1/2 indicates fragments):
11111111111111111111111111111111111111112222222222222221111111212222
# atoms in fragment 1/2:    48    20
 fragment masses (1/2) :      683.90      173.21
CMA distance (Bohr)    :   8.053
constraining FC (au)   :  0.0500

           -------------------------------------------------
          |                 G F N 1 - x T B                 |
           -------------------------------------------------

        Reference                      10.1021/acs.jctc.7b00118
      * Hamiltonian:
        H0-scaling (s, p, d)           1.850000    2.250000    2.000000
        zeta-weighting                 0.000000
      * Dispersion:
        s8                             2.400000
        a1                             0.630000
        a2                             5.000000
        s9                             0.000000
      * Repulsion:
        kExp                           1.500000
        rExp                           1.000000
      * Coulomb:
        alpha                          2.000000
        third order                    atomic
        anisotropic                    false
      * Halogen bond correction:
        rad-scale                      1.300000
        damping                        0.440000

      * Solvation model:               ALPB
        Solvent                        water
        Parameter file                 internal GFN1-xTB/ALPB
        Dielectric constant                8.0200E+01
        Reference state                gsolv [1 M gas/solution]
        Free energy shift                  4.2456E-03 Eh       2.6642E+00 kcal/mol
        Temperature                        2.9815E+02 K
        Density                            1.0000E+00 kg/L
        Solvent mass                       1.8000E+01 g/mol
        Interaction kernel             P16
        Born radius scaling (c1)           1.9452E+00
        Born radii integrator          GBOBC
        Born offset                        0.0000E+00 a0       0.0000E+00 AA
        H-bond correction              true
        Ion screening                  false
        Surface tension                    1.0000E-05 Eh       1.5569E+01 dyn/cm
        Grid points                               230 per atom

          ...................................................
          :                      SETUP                      :
          :.................................................:
          :  # basis functions                 288          :
          :  # atomic orbitals                 274          :
          :  # shells                          150          :
          :  # electrons                       219          :
          :  # halogen bonds                     0          :
          :  max. iterations                   250          :
          :  Hamiltonian                  GFN1-xTB          :
          :  restarted?                      false          :
          :  GBSA solvation                   true          :
          :  PC potential                    false          :
          :  electronic temp.          300.0000000     K    :
          :  accuracy                    1.0000000          :
          :  -> integral cutoff          0.2500000E+02      :
          :  -> integral neglect         0.1000000E-07      :
          :  -> SCF convergence          0.1000000E-05 Eh   :
          :  -> wf. convergence          0.2000000E-04 e    :
          :  Broyden damping             0.4000000          :
          ...................................................

 iter      E             dE          RMSdq      gap      omega  full diag
   1    -93.6157445 -0.936157E+02  0.144E+01    0.39       0.0  T
   2     29.1953167  0.122811E+03  0.252E+01    0.15       1.0  T
   3    -79.3231897 -0.108519E+03  0.125E+01    0.22       1.0  T
   4    -51.8220270  0.275012E+02  0.140E+01    0.09       1.0  T
   5    -58.1613845 -0.633936E+01  0.133E+01    0.11       1.0  T
   6    -75.0688240 -0.169074E+02  0.112E+01    0.20       1.0  T
   7   -110.6535876 -0.355848E+02  0.743E+00    0.17       1.0  T
   8    -93.3291349  0.173245E+02  0.946E+00    0.22       1.0  T
   9    -78.2944768  0.150347E+02  0.110E+01    0.20       1.0  T
  10    -94.5191166 -0.162246E+02  0.887E+00    0.31       1.0  T
  11   -101.2262910 -0.670717E+01  0.773E+00    0.23       1.0  T
  12   -104.1010043 -0.287471E+01  0.672E+00    0.14       1.0  T
  13   -112.9452669 -0.884426E+01  0.556E+00    0.09       1.0  T
  14    -89.7709182  0.231743E+02  0.103E+01    0.15       1.0  T
  15    -89.6814721  0.894460E-01  0.103E+01    0.15       1.0  T
  16    -94.0115474 -0.433008E+01  0.946E+00    0.12       1.0  T
  17    -95.4107449 -0.139920E+01  0.925E+00    0.16       1.0  T
  18    -97.0873687 -0.167662E+01  0.906E+00    0.11       1.0  T
  19    -89.7368797  0.735049E+01  0.101E+01    0.31       1.0  T
  20    -89.6889025  0.479772E-01  0.101E+01    0.31       1.0  T
  21    -87.7518884  0.193701E+01  0.104E+01    0.31       1.0  T
  22    -96.5414943 -0.878961E+01  0.901E+00    0.16       1.0  T
  23   -104.8030323 -0.826154E+01  0.738E+00    0.12       1.0  T
  24   -104.1747817  0.628251E+00  0.752E+00    0.12       1.0  T
  25   -104.0494611  0.125321E+00  0.754E+00    0.12       1.0  T
  26   -105.2589478 -0.120949E+01  0.724E+00    0.19       1.0  T
  27   -107.6279942 -0.236905E+01  0.674E+00    0.15       1.0  T
  28   -103.2927756  0.433522E+01  0.756E+00    0.01       1.0  T
  29   -100.9324736  0.236030E+01  0.802E+00    0.20       1.0  T
  30   -108.9664504 -0.803398E+01  0.626E+00    0.04       1.0  T
  31   -115.2258716 -0.625942E+01  0.411E+00    0.06       1.0  T
  32   -115.7971503 -0.571279E+00  0.379E+00    0.12       1.0  T
  33   -116.2580471 -0.460897E+00  0.358E+00    0.15       1.0  T
  34   -116.7471922 -0.489145E+00  0.320E+00    0.16       1.0  T
  35   -118.2149369 -0.146774E+01  0.214E+00    0.20       1.0  T
  36   -119.3152019 -0.110027E+01  0.607E-01    0.15       1.0  T
  37   -119.3042329  0.109690E-01  0.638E-01    0.11       1.0  T
  38   -119.2260093  0.782236E-01  0.813E-01    0.11       1.0  T
  39   -119.3502335 -0.124224E+00  0.470E-01    0.14       1.0  T
  40   -119.3388502  0.113833E-01  0.522E-01    0.16       1.0  T
  41   -119.3936169 -0.547668E-01  0.255E-01    0.16       1.0  T
  42   -119.4069369 -0.133200E-01  0.109E-01    0.17       1.0  T
  43   -119.4088923 -0.195535E-02  0.599E-02    0.16       1.0  T
  44   -119.4090682 -0.175910E-03  0.552E-02    0.16       1.0  T
  45   -119.4094496 -0.381468E-03  0.393E-02    0.16       1.0  T
  46   -119.4095635 -0.113866E-03  0.333E-02    0.16       1.0  T
  47   -119.4096274 -0.639439E-04  0.279E-02    0.16       1.0  T
  48   -119.4096406 -0.131663E-04  0.245E-02    0.16       1.0  T
  49   -119.4097090 -0.684018E-04  0.174E-02    0.16       1.0  T
  50   -119.4097274 -0.183788E-04  0.145E-02    0.16       1.0  T
  51   -119.4097666 -0.392121E-04  0.663E-03    0.16       1.8  T
  52   -119.4097748 -0.823521E-05  0.330E-03    0.16       3.7  T
  53   -119.4097764 -0.156419E-05  0.182E-03    0.16       6.7  T
  54   -119.4097767 -0.303040E-06  0.129E-03    0.16       9.4  T
  55   -119.4097770 -0.261754E-06  0.688E-04    0.16      17.6  T
  56   -119.4097771 -0.852728E-07  0.364E-04    0.16      33.3  T
  57   -119.4097771 -0.277536E-07  0.159E-04    0.16      76.1  T
  58   -119.4097771 -0.623301E-08  0.480E-05    0.16     252.7  T

   *** convergence criteria satisfied after 58 iterations ***

         #    Occupation            Energy/Eh            Energy/eV
      -------------------------------------------------------------
         1        2.0000           -0.8052875             -21.9130
       ...           ...                  ...                  ...
       104        2.0000           -0.2410789              -6.5601
       105        2.0000           -0.2397375              -6.5236
       106        1.9997           -0.2375373              -6.4637
       107        1.9989           -0.2364259              -6.4335
       108        1.9893           -0.2342273              -6.3736
       109        1.8612           -0.2316607              -6.3038
       110        1.1072           -0.2282626              -6.2113 (HOMO)
       111        0.0392           -0.2222434              -6.0476 (LUMO)
       112        0.0044           -0.2201419              -5.9904
       113                         -0.2090305              -5.6880
       114                         -0.2063516              -5.6151
       115                         -0.2041833              -5.5561
       ...                                ...                  ...
       274                         13.9811790             380.4472
      -------------------------------------------------------------
                  HL-Gap            0.0060192 Eh            0.1638 eV
             Fermi-level           -0.2276037 Eh           -6.1934 eV

 SCC (total)                   0 d,  0 h,  0 min,  6.831 sec
 SCC setup                      ...        0 min,  0.003 sec (  0.046%)
 Dispersion                     ...        0 min,  0.001 sec (  0.017%)
 classical contributions        ...        0 min,  0.000 sec (  0.004%)
 integral evaluation            ...        0 min,  0.025 sec (  0.368%)
 iterations                     ...        0 min,  6.614 sec ( 96.821%)
 molecular gradient             ...        0 min,  0.078 sec (  1.149%)
 printout                       ...        0 min,  0.109 sec (  1.593%)

         :::::::::::::::::::::::::::::::::::::::::::::::::::::
         ::                     SUMMARY                     ::
         :::::::::::::::::::::::::::::::::::::::::::::::::::::
         :: total energy            -118.540662364102 Eh    ::
         :: total w/o Gsasa/hb      -118.532200560353 Eh    ::
         :: gradient norm              0.182102652370 Eh/a0 ::
         :: HOMO-LUMO gap              0.163790373837 eV    ::
         ::.................................................::
         :: SCC energy              -119.409777091907 Eh    ::
         :: -> electrostatic           0.705098503822 Eh    ::
         :: -> Gsolv                  -0.390246356338 Eh    ::
         ::    -> Gelec               -0.381784552589 Eh    ::
         ::    -> Gsasa               -0.005741008709 Eh    ::
         ::    -> Ghb                 -0.006966401711 Eh    ::
         ::    -> Gshift               0.004245606671 Eh    ::
         :: repulsion energy           0.934351934377 Eh    ::
         :: dispersion energy         -0.065237206572 Eh    ::
         :: halogen bond corr.         0.000000000000 Eh    ::
         :: add. restraining           0.000000000000 Eh    ::
         :: total charge              -2.999999999991 e     ::
         :::::::::::::::::::::::::::::::::::::::::::::::::::::

      ----------------------------------------------------------- 
     |                   =====================                   |
     |                        A N C O P T                        |
     |                   =====================                   |
     |               Approximate Normal Coordinate               |
     |                Rational Function Optimizer                |
      ----------------------------------------------------------- 

          ...................................................
          :                      SETUP                      :
          :.................................................:
          :   optimization level             loose          :
          :   max. optcycles                   200          :
          :   ANC micro-cycles                  20          :
          :   degrees of freedom               198          :
          :.................................................:
          :   RF solver                   davidson          :
          :   write xtbopt.log                true          :
          :   linear?                        false          :
          :   energy convergence         0.5000000E-04 Eh   :
          :   grad. convergence          0.4000000E-02 Eh/α :
          :   maxmium RF displ.          1.0000000          :
          :   Hlow (freq-cutoff)         0.1000000E-01      :
          :   Hmax (freq-cutoff)         5.0000000          :
          :   S6 in model hess.         20.0000000          :
          ...................................................

generating ANC from model Hessian ...
Using Lindh-Hessian (1995)
 Shifting diagonal of input Hessian by    1.0697194295353143E-002
 Lowest  eigenvalues of input Hessian
    0.010000    0.010119    0.010592    0.010654    0.010689    0.000000
    0.000000    0.000000    0.000000    0.000000    0.000000    0.010714
    0.010732    0.010766    0.010793    0.010812    0.010862    0.010967
 Highest eigenvalues
    1.862041    1.873731    1.929881    2.037308    2.155677    2.556652


........................................................................
.............................. CYCLE    1 ..............................
........................................................................

 iter      E             dE          RMSdq      gap      omega  full diag
   1   -119.4097771 -0.119410E+03  0.344E-05    0.16       0.0  T
   2   -119.4097765  0.548208E-06  0.139E-03    0.16       8.7  T
   3   -119.4097771 -0.546132E-06  0.949E-05    0.16     127.8  T
   4   -119.4097771  0.660521E-10  0.926E-05    0.16     130.9  T
     SCC iter.                  ...        0 min,  0.472 sec
     gradient                   ...        0 min,  0.063 sec
 * total energy  :  -118.5406624 Eh     change        0.1880380E-08 Eh
   gradient norm :     0.1821034 Eh/α   predicted     0.0000000E+00 (-100.00%)
   displ. norm   :     0.1673176 α      lambda       -0.1619033E-01
   maximum displ.:     0.0636318 α      in ANC's #198, #98, #45, ...

........................................................................
.............................. CYCLE    2 ..............................
........................................................................

 iter      E             dE          RMSdq      gap      omega  full diag
   1   -119.4190276 -0.119419E+03  0.204E-01    0.16       0.0  T
   2   -110.2822483  0.913678E+01  0.545E+00    0.12       1.0  T
   3   -117.9890747 -0.770683E+01  0.223E+00    0.04       1.0  T
   4   -119.3457794 -0.135670E+01  0.559E-01    0.21       1.0  T
   5   -119.2818389  0.639405E-01  0.750E-01    0.14       1.0  T
   6   -119.2119511  0.698879E-01  0.873E-01    0.16       1.0  T
   7   -119.4082203 -0.196269E+00  0.292E-01    0.19       1.0  T
   8   -119.4281086 -0.198882E-01  0.528E-02    0.17       1.0  T
   9   -119.4268174  0.129115E-02  0.882E-02    0.17       1.0  T
  10   -119.4282193 -0.140188E-02  0.459E-02    0.17       1.0  T
  11   -119.4286025 -0.383217E-03  0.194E-02    0.17       1.0  T
  12   -119.4286869 -0.844020E-04  0.794E-03    0.17       1.5  T
  13   -119.4286991 -0.121736E-04  0.376E-03    0.17       3.2  T
  14   -119.4287022 -0.314815E-05  0.193E-03    0.17       6.3  T
  15   -119.4287028 -0.603157E-06  0.932E-04    0.17      13.0  T
  16   -119.4287029 -0.486231E-07  0.770E-04    0.17      15.8  T
  17   -119.4287029 -0.366854E-07  0.667E-04    0.17      18.2  T
  18   -119.4287030 -0.748130E-07  0.365E-04    0.17      33.2  T
  19   -119.4287030 -0.311858E-07  0.122E-04    0.17      99.1  T
  20   -119.4287030 -0.334613E-08  0.549E-05    0.17     220.8  T
     SCC iter.                  ...        0 min,  2.221 sec
     gradient                   ...        0 min,  0.065 sec
 * total energy  :  -118.5525748 Eh     change       -0.1191243E-01 Eh
   gradient norm :     0.0869977 Eh/α   predicted    -0.8321829E-02 ( -30.14%)
   displ. norm   :     0.2341253 α      lambda       -0.9620305E-02
   maximum displ.:     0.0640809 α      in ANC's #198, #133, #41, ...

........................................................................
.............................. CYCLE    3 ..............................
........................................................................

 iter      E             dE          RMSdq      gap      omega  full diag
   1   -119.4249307 -0.119425E+03  0.251E-01    0.10       0.0  T
   2   -105.1094068  0.143155E+02  0.684E+00    0.09       1.0  T
   3   -119.0531065 -0.139437E+02  0.134E+00    0.21       1.0  T
   4   -119.1655076 -0.112401E+00  0.986E-01    0.15       1.0  T
   5   -119.1674184 -0.191084E-02  0.980E-01    0.07       1.0  T
   6   -118.6478749  0.519544E+00  0.165E+00    0.13       1.0  T
   7   -119.4380148 -0.790140E+00  0.110E-01    0.11       1.0  T
   8   -119.4387682 -0.753432E-03  0.960E-02    0.12       1.0  T
   9   -119.4406318 -0.186352E-02  0.501E-02    0.12       1.0  T
  10   -119.4405271  0.104641E-03  0.534E-02    0.12       1.0  T
  11   -119.4412016 -0.674419E-03  0.180E-02    0.12       1.0  T
  12   -119.4412193 -0.177023E-04  0.161E-02    0.12       1.0  T
  13   -119.4412168  0.242242E-05  0.163E-02    0.12       1.0  T
  14   -119.4412805 -0.636391E-04  0.592E-03    0.12       2.0  T
  15   -119.4412896 -0.909879E-05  0.159E-03    0.12       7.6  T
  16   -119.4412900 -0.421051E-06  0.888E-04    0.12      13.6  T
  17   -119.4412901 -0.720813E-07  0.620E-04    0.12      19.6  T
  18   -119.4412901 -0.691296E-07  0.250E-04    0.12      48.4  T
  19   -119.4412901 -0.137989E-07  0.123E-04    0.12      98.9  T
  20   -119.4412901 -0.222767E-08  0.775E-05    0.12     156.6  T
     SCC iter.                  ...        0 min,  2.201 sec
     gradient                   ...        0 min,  0.064 sec
 * total energy  :  -118.5580339 Eh     change       -0.5459082E-02 Eh
   gradient norm :     0.0296161 Eh/α   predicted    -0.5074752E-02 (  -7.04%)
   displ. norm   :     0.3095633 α      lambda       -0.4033033E-02
   maximum displ.:     0.1726941 α      in ANC's #42, #45, #46, ...

........................................................................
.............................. CYCLE    4 ..............................
........................................................................

 iter      E             dE          RMSdq      gap      omega  full diag
   1   -119.4185220 -0.119419E+03  0.272E-01    0.19       0.0  T
   2   -103.0639794  0.163545E+02  0.706E+00    0.14       1.0  T
   3   -118.6042638 -0.155403E+02  0.186E+00    0.22       1.0  T
   4   -119.0006259 -0.396362E+00  0.127E+00    0.28       1.0  T
   5   -118.9046482  0.959777E-01  0.137E+00    0.16       1.0  T
   6   -118.1164553  0.788193E+00  0.211E+00    0.17       1.0  T
   7   -119.4155417 -0.129909E+01  0.287E-01    0.21       1.0  T
   8   -119.4338983 -0.183567E-01  0.141E-01    0.20       1.0  T
   9   -119.4355750 -0.167661E-02  0.112E-01    0.20       1.0  T
  10   -119.4366352 -0.106024E-02  0.899E-02    0.20       1.0  T
  11   -119.4381844 -0.154924E-02  0.485E-02    0.20       1.0  T
  12   -119.4384947 -0.310283E-03  0.349E-02    0.20       1.0  T
  13   -119.4387571 -0.262430E-03  0.176E-02    0.20       1.0  T
  14   -119.4387774 -0.202239E-04  0.150E-02    0.20       1.0  T
  15   -119.4388289 -0.514880E-04  0.539E-03    0.20       2.3  T
  16   -119.4388347 -0.584572E-05  0.223E-03    0.20       5.4  T
  17   -119.4388349 -0.165019E-06  0.190E-03    0.20       6.4  T
  18   -119.4388357 -0.795321E-06  0.783E-04    0.20      15.5  T
  19   -119.4388358 -0.147137E-06  0.219E-04    0.20      55.3  T
  20   -119.4388358 -0.308761E-08  0.192E-04    0.20      63.3  T
  21   -119.4388358 -0.930578E-08  0.626E-05    0.20     193.8  T
     SCC iter.                  ...        0 min,  2.389 sec
     gradient                   ...        0 min,  0.067 sec
 * total energy  :  -118.5587055 Eh     change       -0.6715839E-03 Eh
   gradient norm :     0.0325926 Eh/α   predicted    -0.2209763E-02 ( 229.04%)
   displ. norm   :     0.2130773 α      lambda       -0.3283682E-02
   maximum displ.:     0.1183717 α      in ANC's #42, #35, #41, ...

........................................................................
.............................. CYCLE    5 ..............................
........................................................................

 iter      E             dE          RMSdq      gap      omega  full diag
   1   -119.4348965 -0.119435E+03  0.156E-01    0.15       0.0  T
   2   -105.7766947  0.136582E+02  0.656E+00    0.09       1.0  T
   3   -118.8818602 -0.131052E+02  0.138E+00    0.10       1.0  T
   4   -119.4020408 -0.520181E+00  0.369E-01    0.15       1.0  T
   5   -118.3663847  0.103566E+01  0.192E+00    0.08       1.0  T
   6   -119.4120994 -0.104571E+01  0.372E-01    0.17       1.0  T
   7   -119.4409926 -0.288932E-01  0.598E-02    0.14       1.0  T
   8   -119.4396355  0.135703E-02  0.885E-02    0.14       1.0  T
   9   -119.4410507 -0.141512E-02  0.494E-02    0.14       1.0  T
  10   -119.4411359 -0.852464E-04  0.467E-02    0.14       1.0  T
  11   -119.4416318 -0.495844E-03  0.198E-02    0.14       1.0  T
  12   -119.4417002 -0.684433E-04  0.112E-02    0.14       1.1  T
  13   -119.4417174 -0.172282E-04  0.775E-03    0.14       1.6  T
  14   -119.4417253 -0.788116E-05  0.550E-03    0.14       2.2  T
  15   -119.4417315 -0.618708E-05  0.282E-03    0.14       4.3  T
  16   -119.4417334 -0.189554E-05  0.925E-04    0.14      13.1  T
  17   -119.4417335 -0.146301E-06  0.571E-04    0.14      21.2  T
  18   -119.4417336 -0.444379E-07  0.399E-04    0.14      30.4  T
  19   -119.4417336 -0.366101E-07  0.162E-04    0.14      75.0  T
  20   -119.4417336 -0.671369E-08  0.393E-05    0.14     308.3  T
     SCC iter.                  ...        0 min,  2.204 sec
     gradient                   ...        0 min,  0.063 sec
 * total energy  :  -118.5605191 Eh     change       -0.1813647E-02 Eh
   gradient norm :     0.0302395 Eh/α   predicted    -0.1716411E-02 (  -5.36%)
   displ. norm   :     0.2275792 α      lambda       -0.2174380E-02
   maximum displ.:     0.0706062 α      in ANC's #48, #42, #26, ...

........................................................................
.............................. CYCLE    6 ..............................
........................................................................

 iter      E             dE          RMSdq      gap      omega  full diag
   1   -119.4350925 -0.119435E+03  0.137E-01    0.11       0.0  T
   2   -112.3372394  0.709785E+01  0.490E+00    0.17       1.0  T
   3   -118.5714280 -0.623419E+01  0.171E+00    0.14       1.0  T
   4   -119.2469658 -0.675538E+00  0.813E-01    0.09       1.0  T
   5   -119.3652909 -0.118325E+00  0.551E-01    0.08       1.0  T
   6   -119.1495303  0.215761E+00  0.102E+00    0.08       1.0  T
   7   -119.4333322 -0.283802E+00  0.160E-01    0.12       1.0  T
   8   -119.4377850 -0.445279E-02  0.903E-02    0.11       1.0  T
   9   -119.4378738 -0.887178E-04  0.911E-02    0.10       1.0  T
  10   -119.4389964 -0.112266E-02  0.618E-02    0.11       1.0  T
  11   -119.4395314 -0.535012E-03  0.425E-02    0.11       1.0  T
  12   -119.4398495 -0.318114E-03  0.265E-02    0.11       1.0  T
  13   -119.4399834 -0.133836E-03  0.150E-02    0.11       1.0  T
  14   -119.4400377 -0.543145E-04  0.600E-03    0.11       2.0  T
  15   -119.4400448 -0.710452E-05  0.333E-03    0.11       3.6  T
  16   -119.4400468 -0.197592E-05  0.204E-03    0.11       5.9  T
  17   -119.4400476 -0.873980E-06  0.946E-04    0.11      12.8  T
  18   -119.4400478 -0.201122E-06  0.336E-04    0.11      36.1  T
  19   -119.4400479 -0.276930E-07  0.696E-05    0.11     174.2  T
  20   -119.4400479 -0.797897E-09  0.433E-05    0.11     279.9  T
     SCC iter.                  ...        0 min,  2.281 sec
     gradient                   ...        0 min,  0.115 sec
 * total energy  :  -118.5616920 Eh     change       -0.1172850E-02 Eh
   gradient norm :     0.0427490 Eh/α   predicted    -0.1143502E-02 (  -2.50%)
   displ. norm   :     0.3680244 α      lambda       -0.4780868E-02
   maximum displ.:     0.1205099 α      in ANC's #152, #26, #6, ...

........................................................................
.............................. CYCLE    7 ..............................
........................................................................

 iter      E             dE          RMSdq      gap      omega  full diag
   1   -119.4338841 -0.119434E+03  0.140E-01    0.08       0.0  T
   2   -117.6666204  0.176726E+01  0.250E+00    0.17       1.0  T
   3   -119.2309322 -0.156431E+01  0.911E-01    0.17       1.0  T
   4   -119.2025990  0.283332E-01  0.901E-01    0.05       1.0  T
   5   -119.4146756 -0.212077E+00  0.317E-01    0.08       1.0  T
   6   -119.3716879  0.429877E-01  0.480E-01    0.07       1.0  T
   7   -119.4203458 -0.486580E-01  0.247E-01    0.08       1.0  T
   8   -119.4353730 -0.150272E-01  0.907E-02    0.09       1.0  T
   9   -119.4366489 -0.127588E-02  0.554E-02    0.09       1.0  T
  10   -119.4346114  0.203747E-02  0.100E-01    0.09       1.0  T
  11   -119.4358443 -0.123288E-02  0.744E-02    0.09       1.0  T
  12   -119.4374424 -0.159810E-02  0.700E-03    0.09       1.7  T
  13   -119.4373691  0.733368E-04  0.177E-02    0.09       1.0  T
  14   -119.4374373 -0.681997E-04  0.816E-03    0.09       1.5  T
  15   -119.4374548 -0.175236E-04  0.212E-03    0.09       5.7  T
  16   -119.4374557 -0.930550E-06  0.115E-03    0.09      10.6  T
  17   -119.4374561 -0.336739E-06  0.339E-04    0.09      35.8  T
  18   -119.4374561 -0.272755E-07  0.105E-04    0.09     115.2  T
  19   -119.4374561  0.410225E-09  0.110E-04    0.09     110.3  T
     SCC iter.                  ...        0 min,  2.198 sec
     gradient                   ...        0 min,  0.066 sec
 * total energy  :  -118.5663698 Eh     change       -0.4677837E-02 Eh
   gradient norm :     0.0682735 Eh/α   predicted    -0.2714198E-02 ( -41.98%)
   displ. norm   :     0.7126770 α      lambda       -0.1696648E-01
   maximum displ.:     0.3126560 α      in ANC's #152, #172, #133, ...

........................................................................
.............................. CYCLE    8 ..............................
........................................................................

 iter      E             dE          RMSdq      gap      omega  full diag
   1   -119.3449485 -0.119345E+03  0.596E-01    0.08       0.0  T
   2   -113.6017045  0.574324E+01  0.438E+00    0.15       1.0  T
   3   -115.3996731 -0.179797E+01  0.385E+00    0.09       1.0  T
   4   -115.6277437 -0.228071E+00  0.358E+00    0.04       1.0  T
   5   -118.1350267 -0.250728E+01  0.219E+00    0.04       1.0  T
   6   -112.8995800  0.523545E+01  0.460E+00    0.04       1.0  T
   7   -119.1701676 -0.627059E+01  0.884E-01    0.08       1.0  T
   8   -119.1890079 -0.188403E-01  0.908E-01    0.07       1.0  T
   9   -119.0743326  0.114675E+00  0.110E+00    0.07       1.0  T
  10   -119.1541907 -0.798581E-01  0.943E-01    0.07       1.0  T
  11   -119.3180611 -0.163870E+00  0.567E-01    0.06       1.0  T
  12   -119.3968188 -0.787577E-01  0.230E-01    0.08       1.0  T
  13   -119.3820151  0.148037E-01  0.321E-01    0.08       1.0  T
  14   -119.3865192 -0.450415E-02  0.294E-01    0.08       1.0  T
  15   -119.3921066 -0.558740E-02  0.257E-01    0.07       1.0  T
  16   -119.3917811  0.325482E-03  0.256E-01    0.07       1.0  T
  17   -119.4020282 -0.102471E-01  0.167E-01    0.07       1.0  T
  18   -119.4087197 -0.669149E-02  0.578E-02    0.07       1.0  T
  19   -119.4095807 -0.861026E-03  0.159E-02    0.07       1.0  T
  20   -119.4096438 -0.631138E-04  0.484E-03    0.07       2.5  T
  21   -119.4096485 -0.470324E-05  0.237E-03    0.07       5.1  T
  22   -119.4096491 -0.582119E-06  0.181E-03    0.07       6.7  T
  23   -119.4096496 -0.527558E-06  0.116E-03    0.07      10.4  T
  24   -119.4096499 -0.254462E-06  0.613E-04    0.07      19.8  T
  25   -119.4096500 -0.906451E-07  0.202E-04    0.07      59.9  T
  26   -119.4096500 -0.103002E-07  0.497E-05    0.07     244.2  T
  27   -119.4096500 -0.530918E-09  0.218E-05    0.07     555.1  T
     SCC iter.                  ...        0 min,  3.071 sec
     gradient                   ...        0 min,  0.063 sec
 * total energy  :  -118.5600652 Eh     change        0.6304572E-02 Eh
   gradient norm :     0.1386844 Eh/α   predicted    -0.1279190E-01 (-302.90%)
   displ. norm   :     0.3797406 α      lambda       -0.2990573E-01
   maximum displ.:     0.1961815 α      in ANC's #152, #133, #135, ...

........................................................................
.............................. CYCLE    9 ..............................
........................................................................

 iter      E             dE          RMSdq      gap      omega  full diag
   1   -119.4296712 -0.119430E+03  0.246E-01    0.12       0.0  T
   2   -102.8824398  0.165472E+02  0.705E+00    0.30       1.0  T
   3   -118.1177094 -0.152353E+02  0.215E+00    0.01       1.0  T
   4   -118.8228806 -0.705171E+00  0.145E+00    0.09       1.0  T
   5   -119.1035939 -0.280713E+00  0.118E+00    0.12       1.0  T
   6   -117.6793313  0.142426E+01  0.250E+00    0.19       1.0  T
   7   -119.4229828 -0.174365E+01  0.256E-01    0.12       1.0  T
   8   -119.4314897 -0.850687E-02  0.174E-01    0.10       1.0  T
   9   -119.4365030 -0.501331E-02  0.986E-02    0.09       1.0  T
  10   -119.4365837 -0.806494E-04  0.104E-01    0.10       1.0  T
  11   -119.4384057 -0.182209E-02  0.490E-02    0.10       1.0  T
  12   -119.4385227 -0.116922E-03  0.393E-02    0.10       1.0  T
  13   -119.4387426 -0.219921E-03  0.256E-02    0.10       1.0  T
  14   -119.4388314 -0.888265E-04  0.170E-02    0.10       1.0  T
  15   -119.4388658 -0.343483E-04  0.125E-02    0.10       1.0  T
  16   -119.4388918 -0.260046E-04  0.784E-03    0.10       1.5  T
  17   -119.4388991 -0.733140E-05  0.591E-03    0.10       2.1  T
  18   -119.4389057 -0.663169E-05  0.324E-03    0.10       3.7  T
  19   -119.4389081 -0.236120E-05  0.138E-03    0.10       8.8  T
  20   -119.4389086 -0.497397E-06  0.312E-04    0.10      38.8  T
  21   -119.4389086 -0.231894E-07  0.120E-04    0.10     101.1  T
  22   -119.4389086 -0.270308E-08  0.698E-05    0.10     173.7  T
     SCC iter.                  ...        0 min,  2.479 sec
     gradient                   ...        0 min,  0.076 sec
 * total energy  :  -118.5763177 Eh     change       -0.1625247E-01 Eh
   gradient norm :     0.0671474 Eh/α   predicted    -0.1710925E-01 (   5.27%)
   displ. norm   :     0.1885810 α      lambda       -0.5270125E-02
   maximum displ.:     0.0569828 α      in ANC's #47, #48, #26, ...

........................................................................
.............................. CYCLE   10 ..............................
........................................................................

 iter      E             dE          RMSdq      gap      omega  full diag
   1   -119.4477460 -0.119448E+03  0.112E-01    0.14       0.0  T
   2   -116.8545428  0.259320E+01  0.300E+00    0.03       1.0  T
   3   -118.9893937 -0.213485E+01  0.130E+00    0.11       1.0  T
   4   -119.3525323 -0.363139E+00  0.588E-01    0.12       1.0  T
   5   -119.4279512 -0.754189E-01  0.295E-01    0.14       1.0  T
   6   -119.3695073  0.584438E-01  0.530E-01    0.13       1.0  T
   7   -119.4429431 -0.734358E-01  0.162E-01    0.13       1.0  T
   8   -119.4489550 -0.601191E-02  0.728E-02    0.13       1.0  T
   9   -119.4494893 -0.534265E-03  0.570E-02    0.13       1.0  T
  10   -119.4501372 -0.647904E-03  0.324E-02    0.13       1.0  T
  11   -119.4502862 -0.149008E-03  0.217E-02    0.13       1.0  T
  12   -119.4503991 -0.112876E-03  0.597E-03    0.13       2.0  T
  13   -119.4504044 -0.536349E-05  0.393E-03    0.13       3.1  T
  14   -119.4504074 -0.301168E-05  0.212E-03    0.13       5.7  T
  15   -119.4504086 -0.115267E-05  0.576E-04    0.13      21.1  T
  16   -119.4504087 -0.885943E-07  0.123E-04    0.13      98.7  T
  17   -119.4504087 -0.840160E-09  0.925E-05    0.13     131.1  T
     SCC iter.                  ...        0 min,  1.871 sec
     gradient                   ...        0 min,  0.060 sec
 * total energy  :  -118.5805849 Eh     change       -0.4267221E-02 Eh
   gradient norm :     0.0487586 Eh/α   predicted    -0.2728754E-02 ( -36.05%)
   displ. norm   :     0.3619645 α      lambda       -0.9570425E-02
   maximum displ.:     0.1234388 α      in ANC's #13, #148, #133, ...

........................................................................
.............................. CYCLE   11 ..............................
........................................................................

 iter      E             dE          RMSdq      gap      omega  full diag
   1   -119.4552895 -0.119455E+03  0.194E-01    0.18       0.0  T
   2   -109.7298607  0.972543E+01  0.557E+00    0.07       1.0  T
   3   -116.8765191 -0.714666E+01  0.299E+00    0.10       1.0  T
   4   -119.2631119 -0.238659E+01  0.845E-01    0.11       1.0  T
   5   -119.3636184 -0.100507E+00  0.650E-01    0.23       1.0  T
   6   -119.3033437  0.602747E-01  0.751E-01    0.17       1.0  T
   7   -119.4393175 -0.135974E+00  0.293E-01    0.17       1.0  T
   8   -119.4619286 -0.226111E-01  0.839E-02    0.17       1.0  T
   9   -119.4610507  0.877896E-03  0.101E-01    0.17       1.0  T
  10   -119.4630005 -0.194976E-02  0.565E-02    0.17       1.0  T
  11   -119.4636521 -0.651642E-03  0.228E-02    0.17       1.0  T
  12   -119.4637760 -0.123922E-03  0.616E-03    0.17       2.0  T
  13   -119.4637850 -0.900666E-05  0.244E-03    0.16       5.0  T
  14   -119.4637863 -0.130047E-05  0.116E-03    0.16      10.4  T
  15   -119.4637866 -0.242421E-06  0.612E-04    0.16      19.8  T
  16   -119.4637866 -0.654836E-07  0.277E-04    0.16      43.8  T
  17   -119.4637866 -0.129874E-07  0.122E-04    0.16      99.1  T
  18   -119.4637866 -0.136498E-08  0.884E-05    0.16     137.2  T
     SCC iter.                  ...        0 min,  1.994 sec
     gradient                   ...        0 min,  0.076 sec
 * total energy  :  -118.5873865 Eh     change       -0.6801590E-02 Eh
   gradient norm :     0.0260956 Eh/α   predicted    -0.5412120E-02 ( -20.43%)
   displ. norm   :     0.4172223 α      lambda       -0.6548037E-02
   maximum displ.:     0.1454892 α      in ANC's #13, #133, #148, ...

........................................................................
.............................. CYCLE   12 ..............................
........................................................................

 iter      E             dE          RMSdq      gap      omega  full diag
   1   -119.4626863 -0.119463E+03  0.135E-01    0.19       0.0  T
   2   -115.5989783  0.386371E+01  0.364E+00    0.09       1.0  T
   3   -119.1868722 -0.358789E+01  0.103E+00    0.16       1.0  T
   4   -119.2833612 -0.964890E-01  0.802E-01    0.17       1.0  T
   5   -119.4326275 -0.149266E+00  0.362E-01    0.20       1.0  T
   6   -119.1836603  0.248967E+00  0.986E-01    0.21       1.0  T
   7   -119.4565950 -0.272935E+00  0.181E-01    0.17       1.0  T
   8   -119.4655057 -0.891074E-02  0.460E-02    0.18       1.0  T
   9   -119.4658338 -0.328063E-03  0.264E-02    0.18       1.0  T
  10   -119.4658432 -0.943256E-05  0.218E-02    0.18       1.0  T
  11   -119.4659560 -0.112745E-03  0.693E-03    0.18       1.8  T
  12   -119.4659617 -0.578501E-05  0.501E-03    0.18       2.4  T
  13   -119.4659657 -0.399506E-05  0.247E-03    0.18       4.9  T
  14   -119.4659668 -0.104002E-05  0.137E-03    0.18       8.9  T
  15   -119.4659671 -0.336345E-06  0.760E-04    0.18      16.0  T
  16   -119.4659672 -0.116951E-06  0.326E-04    0.18      37.2  T
  17   -119.4659673 -0.223895E-07  0.118E-04    0.18     102.5  T
  18   -119.4659673 -0.333985E-08  0.404E-05    0.18     300.2  T
     SCC iter.                  ...        0 min,  2.035 sec
     gradient                   ...        0 min,  0.060 sec
 * total energy  :  -118.5912110 Eh     change       -0.3824487E-02 Eh
   gradient norm :     0.0438768 Eh/α   predicted    -0.3843904E-02 (   0.51%)
   displ. norm   :     0.4104009 α      lambda       -0.4392977E-02
   maximum displ.:     0.2202581 α      in ANC's #13, #16, #7, ...

........................................................................
.............................. CYCLE   13 ..............................
........................................................................

 iter      E             dE          RMSdq      gap      omega  full diag
   1   -119.4620378 -0.119462E+03  0.132E-01    0.15       0.0  T
   2   -115.6933933  0.376864E+01  0.357E+00    0.15       1.0  T
   3   -119.4130192 -0.371963E+01  0.497E-01    0.21       1.0  T
   4   -119.4342473 -0.212281E-01  0.351E-01    0.15       1.0  T
   5   -119.0228632  0.411384E+00  0.125E+00    0.15       1.0  T
   6   -119.4546849 -0.431822E+00  0.203E-01    0.15       1.0  T
   7   -119.4048404  0.498445E-01  0.467E-01    0.18       1.0  T
   8   -119.4625965 -0.577561E-01  0.119E-01    0.16       1.0  T
   9   -119.4650831 -0.248661E-02  0.717E-02    0.16       1.0  T
  10   -119.4658519 -0.768796E-03  0.491E-02    0.16       1.0  T
  11   -119.4662766 -0.424780E-03  0.287E-02    0.16       1.0  T
  12   -119.4664514 -0.174741E-03  0.136E-02    0.16       1.0  T
  13   -119.4664899 -0.384829E-04  0.396E-03    0.16       3.1  T
  14   -119.4664936 -0.369209E-05  0.730E-04    0.16      16.6  T
  15   -119.4664935  0.198581E-07  0.681E-04    0.16      17.8  T
  16   -119.4664936 -0.966515E-07  0.267E-04    0.16      45.5  T
  17   -119.4664937 -0.165345E-07  0.874E-05    0.16     138.8  T
  18   -119.4664937 -0.155509E-08  0.387E-05    0.16     313.6  T
     SCC iter.                  ...        0 min,  2.040 sec
     gradient                   ...        0 min,  0.070 sec
 * total energy  :  -118.5931047 Eh     change       -0.1893668E-02 Eh
   gradient norm :     0.0157512 Eh/α   predicted    -0.2566432E-02 (  35.53%)
   displ. norm   :     0.2899283 α      lambda       -0.1998198E-02
   maximum displ.:     0.1284498 α      in ANC's #32, #35, #7, ...

........................................................................
.............................. CYCLE   14 ..............................
........................................................................

 iter      E             dE          RMSdq      gap      omega  full diag
   1   -119.4648710 -0.119465E+03  0.163E-01    0.16       0.0  T
   2   -103.6475345  0.158173E+02  0.692E+00    0.31       1.0  T
   3   -119.0399886 -0.153925E+02  0.126E+00    0.23       1.0  T
   4   -119.1090554 -0.690668E-01  0.113E+00    0.11       1.0  T
   5   -119.3818593 -0.272804E+00  0.609E-01    0.11       1.0  T
   6   -119.1617834  0.220076E+00  0.104E+00    0.13       1.0  T
   7   -119.4612683 -0.299485E+00  0.209E-01    0.17       1.0  T
   8   -119.4711628 -0.989455E-02  0.473E-02    0.16       1.0  T
   9   -119.4712708 -0.108000E-03  0.394E-02    0.15       1.0  T
  10   -119.4715170 -0.246168E-03  0.261E-02    0.15       1.0  T
  11   -119.4715524 -0.354220E-04  0.223E-02    0.15       1.0  T
  12   -119.4716862 -0.133825E-03  0.580E-03    0.15       2.1  T
  13   -119.4716848  0.138541E-05  0.613E-03    0.15       2.0  T
  14   -119.4716890 -0.420267E-05  0.471E-03    0.15       2.6  T
  15   -119.4716914 -0.238880E-05  0.357E-03    0.15       3.4  T
  16   -119.4716945 -0.306143E-05  0.100E-03    0.15      12.1  T
  17   -119.4716946 -0.119588E-06  0.736E-04    0.15      16.5  T
  18   -119.4716947 -0.868985E-07  0.476E-04    0.15      25.5  T
  19   -119.4716948 -0.498015E-07  0.200E-04    0.15      60.6  T
  20   -119.4716948 -0.779976E-08  0.105E-04    0.15     115.0  T
  21   -119.4716948 -0.214537E-08  0.581E-05    0.15     208.7  T
     SCC iter.                  ...        0 min,  2.372 sec
     gradient                   ...        0 min,  0.067 sec
 * total energy  :  -118.5940584 Eh     change       -0.9537138E-03 Eh
   gradient norm :     0.0280044 Eh/α   predicted    -0.1083085E-02 (  13.56%)
   displ. norm   :     0.2699960 α      lambda       -0.1174434E-02
   maximum displ.:     0.1038044 α      in ANC's #13, #7, #32, ...

........................................................................
.............................. CYCLE   15 ..............................
........................................................................

 iter      E             dE          RMSdq      gap      omega  full diag
   1   -119.4641621 -0.119464E+03  0.129E-01    0.14       0.0  T
   2   -116.4729077  0.299125E+01  0.320E+00    0.01       1.0  T
   3   -119.0857860 -0.261288E+01  0.128E+00    0.19       1.0  T
   4   -119.3049635 -0.219178E+00  0.779E-01    0.19       1.0  T
   5   -119.4528205 -0.147857E+00  0.241E-01    0.14       1.0  T
   6   -119.0994181  0.353402E+00  0.113E+00    0.16       1.0  T
   7   -119.4570462 -0.357628E+00  0.204E-01    0.14       1.0  T
   8   -119.4607793 -0.373313E-02  0.168E-01    0.14       1.0  T
   9   -119.4658152 -0.503587E-02  0.103E-01    0.14       1.0  T
  10   -119.4687044 -0.288925E-02  0.290E-02    0.15       1.0  T
  11   -119.4686112  0.932195E-04  0.360E-02    0.15       1.0  T
  12   -119.4686726 -0.613520E-04  0.319E-02    0.15       1.0  T
  13   -119.4689281 -0.255547E-03  0.866E-03    0.15       1.4  T
  14   -119.4689300 -0.193381E-05  0.862E-03    0.15       1.4  T
  15   -119.4689428 -0.127683E-04  0.478E-03    0.15       2.5  T
  16   -119.4689480 -0.524673E-05  0.139E-03    0.15       8.7  T
  17   -119.4689484 -0.364689E-06  0.795E-04    0.15      15.2  T
  18   -119.4689486 -0.154561E-06  0.233E-04    0.15      52.1  T
  19   -119.4689486 -0.110076E-07  0.995E-05    0.15     121.9  T
  20   -119.4689486 -0.106225E-08  0.746E-05    0.15     162.5  T
     SCC iter.                  ...        0 min,  2.344 sec
     gradient                   ...        0 min,  0.071 sec
 * total energy  :  -118.5950026 Eh     change       -0.9442391E-03 Eh
   gradient norm :     0.0208648 Eh/α   predicted    -0.6300268E-03 ( -33.28%)
   displ. norm   :     0.6121382 α      lambda       -0.2171353E-02
   maximum displ.:     0.1933147 α      in ANC's #13, #7, #26, ...

........................................................................
.............................. CYCLE   16 ..............................
........................................................................

 iter      E             dE          RMSdq      gap      omega  full diag
   1   -119.4355646 -0.119436E+03  0.341E-01    0.11       0.0  T
   2    -99.7261625  0.197094E+02  0.777E+00    0.32       1.0  T
   3   -116.0461638 -0.163200E+02  0.407E+00    0.13       1.0  T
   4   -118.9822462 -0.293608E+01  0.135E+00    0.17       1.0  T
   5   -119.2943288 -0.312083E+00  0.783E-01    0.14       1.0  T
   6   -117.3057937  0.198854E+01  0.272E+00    0.05       1.0  T
   7   -119.4257576 -0.211996E+01  0.407E-01    0.11       1.0  T
   8   -119.4035548  0.222027E-01  0.470E-01    0.12       1.0  T
   9   -119.4394215 -0.358667E-01  0.308E-01    0.12       1.0  T
  10   -119.4631624 -0.237409E-01  0.115E-01    0.13       1.0  T
  11   -119.4645353 -0.137287E-02  0.994E-02    0.13       1.0  T
  12   -119.4652291 -0.693840E-03  0.832E-02    0.13       1.0  T
  13   -119.4660409 -0.811795E-03  0.607E-02    0.13       1.0  T
  14   -119.4667227 -0.681807E-03  0.320E-02    0.13       1.0  T
  15   -119.4668554 -0.132691E-03  0.230E-02    0.13       1.0  T
  16   -119.4669186 -0.631613E-04  0.171E-02    0.13       1.0  T
  17   -119.4669608 -0.421827E-04  0.116E-02    0.13       1.0  T
  18   -119.4669896 -0.288426E-04  0.528E-03    0.13       2.3  T
  19   -119.4669957 -0.610305E-05  0.228E-03    0.13       5.3  T
  20   -119.4669967 -0.986577E-06  0.121E-03    0.13      10.0  T
  21   -119.4669970 -0.317229E-06  0.406E-04    0.13      29.9  T
  22   -119.4669970 -0.309211E-07  0.190E-04    0.13      63.8  T
  23   -119.4669970 -0.818649E-08  0.289E-05    0.13     420.3  T
     SCC iter.                  ...        0 min,  2.621 sec
     gradient                   ...        0 min,  0.067 sec
 * total energy  :  -118.5967139 Eh     change       -0.1711301E-02 Eh
   gradient norm :     0.0122506 Eh/α   predicted    -0.1492493E-02 ( -12.79%)
   displ. norm   :     0.8365149 α      lambda       -0.2740453E-02
   maximum displ.:     0.2535298 α      in ANC's #7, #51, #6, ...

........................................................................
.............................. CYCLE   17 ..............................
........................................................................

 iter      E             dE          RMSdq      gap      omega  full diag
   1   -119.3988936 -0.119399E+03  0.481E-01    0.10       0.0  T
   2    -91.7522681  0.276466E+02  0.906E+00    0.39       1.0  T
   3   -115.0674308 -0.233152E+02  0.447E+00    0.07       1.0  T
   4   -118.8547901 -0.378736E+01  0.160E+00    0.19       1.0  T
   5   -118.9279837 -0.731936E-01  0.140E+00    0.07       1.0  T
   6   -118.2456190  0.682365E+00  0.204E+00    0.08       1.0  T
   7   -119.1167652 -0.871146E+00  0.111E+00    0.07       1.0  T
   8   -119.2660707 -0.149305E+00  0.838E-01    0.09       1.0  T
   9   -119.3483800 -0.823094E-01  0.634E-01    0.09       1.0  T
  10   -119.4633005 -0.114920E+00  0.109E-01    0.11       1.0  T
  11   -119.4387682  0.245322E-01  0.319E-01    0.11       1.0  T
  12   -119.4608795 -0.221112E-01  0.134E-01    0.11       1.0  T
  13   -119.4640124 -0.313298E-02  0.761E-02    0.11       1.0  T
  14   -119.4652969 -0.128450E-02  0.340E-02    0.11       1.0  T
  15   -119.4654785 -0.181561E-03  0.226E-02    0.11       1.0  T
  16   -119.4655097 -0.312113E-04  0.198E-02    0.11       1.0  T
  17   -119.4655809 -0.711489E-04  0.115E-02    0.11       1.1  T
  18   -119.4656089 -0.280397E-04  0.527E-03    0.11       2.3  T
  19   -119.4656134 -0.453125E-05  0.330E-03    0.11       3.7  T
  20   -119.4656150 -0.152231E-05  0.226E-03    0.11       5.4  T
  21   -119.4656161 -0.115036E-05  0.846E-04    0.11      14.3  T
  22   -119.4656163 -0.165089E-06  0.331E-04    0.11      36.6  T
  23   -119.4656163 -0.271472E-07  0.928E-05    0.11     130.7  T
  24   -119.4656163 -0.191757E-08  0.385E-05    0.11     314.8  T
     SCC iter.                  ...        0 min,  2.664 sec
     gradient                   ...        0 min,  0.113 sec
 * total energy  :  -118.5993871 Eh     change       -0.2673199E-02 Eh
   gradient norm :     0.0243888 Eh/α   predicted    -0.2329058E-02 ( -12.87%)
   displ. norm   :     0.6007363 α      lambda       -0.2257930E-02
   maximum displ.:     0.1749748 α      in ANC's #7, #29, #6, ...

........................................................................
.............................. CYCLE   18 ..............................
........................................................................

 iter      E             dE          RMSdq      gap      omega  full diag
   1   -119.4263838 -0.119426E+03  0.384E-01    0.10       0.0  T
   2    -94.1613642  0.252650E+02  0.863E+00    0.33       1.0  T
   3   -107.5303174 -0.133690E+02  0.621E+00    0.05       1.0  T
   4   -119.1569528 -0.116266E+02  0.108E+00    0.10       1.0  T
   5   -118.8134560  0.343497E+00  0.154E+00    0.06       1.0  T
   6   -118.7290120  0.844440E-01  0.165E+00    0.07       1.0  T
   7   -119.4087426 -0.679731E+00  0.474E-01    0.09       1.0  T
   8   -119.3884898  0.202528E-01  0.533E-01    0.09       1.0  T
   9   -119.4322759 -0.437861E-01  0.356E-01    0.09       1.0  T
  10   -119.4662688 -0.339930E-01  0.795E-02    0.10       1.0  T
  11   -119.4656568  0.612013E-03  0.896E-02    0.10       1.0  T
  12   -119.4661271 -0.470328E-03  0.778E-02    0.10       1.0  T
  13   -119.4671940 -0.106681E-02  0.467E-02    0.10       1.0  T
  14   -119.4677362 -0.542232E-03  0.151E-02    0.10       1.0  T
  15   -119.4677956 -0.593713E-04  0.394E-03    0.10       3.1  T
  16   -119.4677968 -0.122651E-05  0.350E-03    0.10       3.5  T
  17   -119.4677984 -0.157220E-05  0.252E-03    0.10       4.8  T
  18   -119.4677995 -0.115455E-05  0.131E-03    0.10       9.3  T
  19   -119.4677998 -0.319088E-06  0.725E-04    0.10      16.7  T
  20   -119.4677999 -0.104300E-06  0.372E-04    0.10      32.6  T
  21   -119.4678000 -0.332330E-07  0.133E-04    0.10      91.1  T
  22   -119.4678000 -0.414842E-08  0.372E-05    0.10     325.7  T
     SCC iter.                  ...        0 min,  2.523 sec
     gradient                   ...        0 min,  0.065 sec
 * total energy  :  -118.6002511 Eh     change       -0.8640264E-03 Eh
   gradient norm :     0.0269951 Eh/α   predicted    -0.1536397E-02 (  77.82%)
   displ. norm   :     0.3021319 α      lambda       -0.2909628E-02
   maximum displ.:     0.0857904 α      in ANC's #24, #25, #27, ...

........................................................................
.............................. CYCLE   19 ..............................
........................................................................

 iter      E             dE          RMSdq      gap      omega  full diag
   1   -119.4687190 -0.119469E+03  0.161E-01    0.11       0.0  T
   2   -111.3093690  0.815935E+01  0.508E+00    0.02       1.0  T
   3   -118.6372959 -0.732793E+01  0.180E+00    0.10       1.0  T
   4   -118.5960439  0.412520E-01  0.175E+00    0.08       1.0  T
   5   -119.4583590 -0.862315E+00  0.250E-01    0.11       1.0  T
   6   -118.9295130  0.528846E+00  0.138E+00    0.08       1.0  T
   7   -119.4593804 -0.529867E+00  0.233E-01    0.11       1.0  T
   8   -119.4705882 -0.112078E-01  0.117E-01    0.10       1.0  T
   9   -119.4716314 -0.104318E-02  0.960E-02    0.10       1.0  T
  10   -119.4734803 -0.184897E-02  0.525E-02    0.10       1.0  T
  11   -119.4740426 -0.562255E-03  0.288E-02    0.10       1.0  T
  12   -119.4741291 -0.864682E-04  0.230E-02    0.10       1.0  T
  13   -119.4741888 -0.597638E-04  0.162E-02    0.10       1.0  T
  14   -119.4742189 -0.300908E-04  0.122E-02    0.10       1.0  T
  15   -119.4742494 -0.304750E-04  0.601E-03    0.10       2.0  T
  16   -119.4742557 -0.631879E-05  0.350E-03    0.10       3.5  T
  17   -119.4742572 -0.147395E-05  0.257E-03    0.10       4.7  T
  18   -119.4742586 -0.140546E-05  0.118E-03    0.10      10.3  T
  19   -119.4742588 -0.251057E-06  0.693E-04    0.10      17.5  T
  20   -119.4742589 -0.973530E-07  0.356E-04    0.10      34.1  T
  21   -119.4742590 -0.319431E-07  0.103E-04    0.10     117.3  T
  22   -119.4742590 -0.251097E-08  0.343E-05    0.10     353.9  T
     SCC iter.                  ...        0 min,  2.457 sec
     gradient                   ...        0 min,  0.068 sec
 * total energy  :  -118.6017454 Eh     change       -0.1494305E-02 Eh
   gradient norm :     0.0159192 Eh/α   predicted    -0.1587617E-02 (   6.24%)
   displ. norm   :     0.2902025 α      lambda       -0.1009110E-02
   maximum displ.:     0.0901093 α      in ANC's #6, #5, #9, ...

........................................................................
.............................. CYCLE   20 ..............................
........................................................................

 iter      E             dE          RMSdq      gap      omega  full diag
   1   -119.4697649 -0.119470E+03  0.129E-01    0.11       0.0  T
   2   -115.4893464  0.398042E+01  0.365E+00    0.12       1.0  T
   3   -118.9786511 -0.348930E+01  0.141E+00    0.09       1.0  T
   4   -119.1392418 -0.160591E+00  0.108E+00    0.08       1.0  T
   5   -119.4335148 -0.294273E+00  0.395E-01    0.12       1.0  T
   6   -119.1601229  0.273392E+00  0.104E+00    0.11       1.0  T
   7   -119.4700054 -0.309883E+00  0.103E-01    0.10       1.0  T
   8   -119.4720738 -0.206836E-02  0.469E-02    0.11       1.0  T
   9   -119.4724020 -0.328176E-03  0.276E-02    0.11       1.0  T
  10   -119.4725485 -0.146587E-03  0.161E-02    0.11       1.0  T
  11   -119.4726065 -0.579748E-04  0.352E-03    0.11       3.4  T
  12   -119.4726080 -0.149411E-05  0.243E-03    0.11       5.0  T
  13   -119.4726070  0.102434E-05  0.298E-03    0.11       4.1  T
  14   -119.4726088 -0.186345E-05  0.148E-03    0.11       8.2  T
  15   -119.4726092 -0.343601E-06  0.965E-04    0.11      12.6  T
  16   -119.4726094 -0.245006E-06  0.208E-04    0.11      58.3  T
  17   -119.4726094 -0.678270E-08  0.129E-04    0.11      93.7  T
  18   -119.4726094 -0.254414E-08  0.831E-05    0.11     145.9  T
     SCC iter.                  ...        0 min,  2.082 sec
     gradient                   ...        0 min,  0.076 sec
 * total energy  :  -118.6023348 Eh     change       -0.5893486E-03 Eh
   gradient norm :     0.0089299 Eh/α   predicted    -0.5470498E-03 (  -7.18%)
   displ. norm   :     0.3584437 α      lambda       -0.8231628E-03
   maximum displ.:     0.0910856 α      in ANC's #19, #6, #13, ...
 * RMSD in coord.:     0.5322965 α      energy gain  -0.6167243E-01 Eh

generating ANC from model Hessian ...
Using Lindh-Hessian (1995)
 Shifting diagonal of input Hessian by    1.4759896663961918E-002
 Lowest  eigenvalues of input Hessian
    0.010000    0.014144    0.014227    0.014657    0.014715    0.014755
    0.000000    0.000000    0.000000    0.000000    0.000000    0.000000
    0.014788    0.014816    0.014840    0.014867    0.014905    0.014966
 Highest eigenvalues
    1.719977    1.864962    1.935059    2.053496    2.165387    2.202326


........................................................................
.............................. CYCLE   21 ..............................
........................................................................

 iter      E             dE          RMSdq      gap      omega  full diag
   1   -119.4659273 -0.119466E+03  0.198E-01    0.12       0.0  T
   2   -108.4195431  0.110464E+02  0.588E+00    0.11       1.0  T
   3   -116.4174321 -0.799789E+01  0.324E+00    0.03       1.0  T
   4   -119.2951273 -0.287770E+01  0.842E-01    0.10       1.0  T
   5   -119.1957101  0.994172E-01  0.102E+00    0.11       1.0  T
   6   -119.2314019 -0.356918E-01  0.962E-01    0.12       1.0  T
   7   -119.4663667 -0.234965E+00  0.185E-01    0.11       1.0  T
   8   -119.4722086 -0.584195E-02  0.109E-01    0.11       1.0  T
   9   -119.4741814 -0.197273E-02  0.672E-02    0.11       1.0  T
  10   -119.4744423 -0.260900E-03  0.610E-02    0.11       1.0  T
  11   -119.4751098 -0.667560E-03  0.351E-02    0.11       1.0  T
  12   -119.4753630 -0.253183E-03  0.143E-02    0.11       1.0  T
  13   -119.4754076 -0.446498E-04  0.596E-03    0.11       2.0  T
  14   -119.4754152 -0.754768E-05  0.286E-03    0.11       4.2  T
  15   -119.4754171 -0.190543E-05  0.114E-03    0.11      10.7  T
  16   -119.4754173 -0.248540E-06  0.596E-04    0.11      20.4  T
  17   -119.4754174 -0.230057E-07  0.519E-04    0.11      23.4  T
  18   -119.4754174 -0.523919E-07  0.278E-04    0.11      43.6  T
  19   -119.4754174 -0.179280E-07  0.108E-04    0.11     112.0  T
  20   -119.4754174 -0.225911E-08  0.582E-05    0.11     208.3  T
     SCC iter.                  ...        0 min,  2.346 sec
     gradient                   ...        0 min,  0.072 sec
 * total energy  :  -118.6028576 Eh     change       -0.5227758E-03 Eh
   gradient norm :     0.0057345 Eh/α   predicted     0.0000000E+00 (-100.00%)
   displ. norm   :     0.0903327 α      lambda       -0.2146922E-03
   maximum displ.:     0.0308265 α      in ANC's #32, #27, #4, ...

........................................................................
.............................. CYCLE   22 ..............................
........................................................................

 iter      E             dE          RMSdq      gap      omega  full diag
   1   -119.4737991 -0.119474E+03  0.837E-02    0.11       0.0  T
   2   -116.1346010  0.333920E+01  0.336E+00    0.17       1.0  T
   3   -119.1978825 -0.306328E+01  0.101E+00    0.13       1.0  T
   4   -119.4062892 -0.208407E+00  0.506E-01    0.11       1.0  T
   5   -119.4592077 -0.529185E-01  0.260E-01    0.11       1.0  T
   6   -119.3565165  0.102691E+00  0.650E-01    0.10       1.0  T
   7   -119.4735317 -0.117015E+00  0.934E-02    0.11       1.0  T
   8   -119.4754812 -0.194948E-02  0.208E-02    0.11       1.0  T
   9   -119.4755641 -0.829391E-04  0.120E-02    0.11       1.0  T
  10   -119.4755714 -0.727285E-05  0.797E-03    0.11       1.5  T
  11   -119.4755836 -0.122067E-04  0.372E-03    0.11       3.3  T
  12   -119.4755851 -0.145536E-05  0.295E-03    0.11       4.1  T
  13   -119.4755854 -0.352234E-06  0.271E-03    0.11       4.5  T
  14   -119.4755867 -0.127385E-05  0.169E-03    0.11       7.2  T
  15   -119.4755873 -0.605241E-06  0.806E-04    0.11      15.0  T
  16   -119.4755875 -0.175751E-06  0.131E-04    0.11      92.9  T
  17   -119.4755875 -0.232109E-08  0.920E-05    0.11     131.8  T
     SCC iter.                  ...        0 min,  1.893 sec
     gradient                   ...        0 min,  0.060 sec
 * total energy  :  -118.6030191 Eh     change       -0.1615518E-03 Eh
   gradient norm :     0.0029477 Eh/α   predicted    -0.1083685E-03 ( -32.92%)
   displ. norm   :     0.2242082 α      lambda       -0.3133590E-03
   maximum displ.:     0.0846102 α      in ANC's #27, #32, #4, ...

........................................................................
.............................. CYCLE   23 ..............................
........................................................................

 iter      E             dE          RMSdq      gap      omega  full diag
   1   -119.4747194 -0.119475E+03  0.604E-02    0.11       0.0  T
   2   -118.8138099  0.660909E+00  0.156E+00    0.15       1.0  T
   3   -119.3935060 -0.579696E+00  0.571E-01    0.11       1.0  T
   4   -119.4589007 -0.653947E-01  0.244E-01    0.11       1.0  T
   5   -119.4525068  0.639382E-02  0.292E-01    0.10       1.0  T
   6   -119.4676509 -0.151441E-01  0.166E-01    0.11       1.0  T
   7   -119.4717688 -0.411793E-02  0.113E-01    0.11       1.0  T
   8   -119.4752127 -0.344389E-02  0.253E-02    0.11       1.0  T
   9   -119.4753489 -0.136203E-03  0.725E-03    0.11       1.7  T
  10   -119.4753526 -0.370959E-05  0.460E-03    0.11       2.6  T
  11   -119.4753524  0.199400E-06  0.329E-03    0.11       3.7  T
  12   -119.4753532 -0.739087E-06  0.282E-03    0.11       4.3  T
  13   -119.4753542 -0.103247E-05  0.205E-03    0.11       5.9  T
  14   -119.4753552 -0.978873E-06  0.833E-04    0.11      14.6  T
  15   -119.4753554 -0.177613E-06  0.223E-04    0.11      54.4  T
  16   -119.4753554 -0.123048E-07  0.661E-05    0.11     183.3  T
  17   -119.4753554 -0.949740E-09  0.299E-05    0.11     406.1  T
     SCC iter.                  ...        0 min,  1.887 sec
     gradient                   ...        0 min,  0.070 sec
 * total energy  :  -118.6032260 Eh     change       -0.2068705E-03 Eh
   gradient norm :     0.0039757 Eh/α   predicted    -0.1645686E-03 ( -20.45%)
   displ. norm   :     0.2930061 α      lambda       -0.2763249E-03
   maximum displ.:     0.1070181 α      in ANC's #27, #4, #12, ...

........................................................................
.............................. CYCLE   24 ..............................
........................................................................

 iter      E             dE          RMSdq      gap      omega  full diag
   1   -119.4707534 -0.119471E+03  0.115E-01    0.11       0.0  T
   2   -114.6848639  0.478589E+01  0.411E+00    0.17       1.0  T
   3   -119.3318370 -0.464697E+01  0.702E-01    0.11       1.0  T
   4   -119.4445774 -0.112740E+00  0.322E-01    0.10       1.0  T
   5   -119.4370565  0.752084E-02  0.387E-01    0.10       1.0  T
   6   -119.4062485  0.308081E-01  0.489E-01    0.10       1.0  T
   7   -119.4692066 -0.629581E-01  0.145E-01    0.11       1.0  T
   8   -119.4743605 -0.515390E-02  0.170E-02    0.10       1.0  T
   9   -119.4744049 -0.443570E-04  0.131E-02    0.10       1.0  T
  10   -119.4744315 -0.266194E-04  0.574E-03    0.10       2.1  T
  11   -119.4744381 -0.667086E-05  0.314E-03    0.10       3.9  T
  12   -119.4744397 -0.158280E-05  0.193E-03    0.10       6.3  T
  13   -119.4744406 -0.855103E-06  0.833E-04    0.10      14.6  T
  14   -119.4744408 -0.169002E-06  0.298E-04    0.10      40.7  T
  15   -119.4744408 -0.195953E-07  0.111E-04    0.10     108.8  T
  16   -119.4744408 -0.226777E-08  0.550E-05    0.10     220.3  T
     SCC iter.                  ...        0 min,  1.743 sec
     gradient                   ...        0 min,  0.074 sec
 * total energy  :  -118.6034291 Eh     change       -0.2031178E-03 Eh
   gradient norm :     0.0056917 Eh/α   predicted    -0.1500244E-03 ( -26.14%)
   displ. norm   :     0.4180006 α      lambda       -0.3476277E-03
   maximum displ.:     0.1516547 α      in ANC's #27, #12, #11, ...

........................................................................
.............................. CYCLE   25 ..............................
........................................................................

 iter      E             dE          RMSdq      gap      omega  full diag
   1   -119.4721509 -0.119472E+03  0.617E-02    0.09       0.0  T
   2   -117.4133571  0.205879E+01  0.262E+00    0.04       1.0  T
   3   -119.3968651 -0.198351E+01  0.531E-01    0.07       1.0  T
   4   -119.4289703 -0.321052E-01  0.397E-01    0.10       1.0  T
   5   -119.4666783 -0.377080E-01  0.169E-01    0.10       1.0  T
   6   -119.3474274  0.119251E+00  0.662E-01    0.09       1.0  T
   7   -119.4721144 -0.124687E+00  0.603E-02    0.09       1.0  T
   8   -119.4730957 -0.981353E-03  0.118E-02    0.09       1.0  T
   9   -119.4730740  0.217180E-04  0.140E-02    0.09       1.0  T
  10   -119.4731006 -0.265901E-04  0.947E-03    0.09       1.3  T
  11   -119.4731180 -0.174474E-04  0.560E-03    0.09       2.2  T
  12   -119.4731244 -0.634868E-05  0.194E-03    0.09       6.3  T
  13   -119.4731249 -0.525554E-06  0.136E-03    0.09       8.9  T
  14   -119.4731252 -0.279278E-06  0.889E-04    0.09      13.6  T
  15   -119.4731253 -0.877728E-07  0.662E-04    0.09      18.3  T
  16   -119.4731254 -0.802093E-07  0.381E-04    0.09      31.8  T
  17   -119.4731254 -0.260963E-07  0.213E-04    0.09      56.8  T
  18   -119.4731254 -0.108564E-07  0.709E-05    0.09     171.0  T
  19   -119.4731254 -0.112553E-08  0.307E-05    0.09     395.1  T
     SCC iter.                  ...        0 min,  2.075 sec
     gradient                   ...        0 min,  0.072 sec
 * total energy  :  -118.6036959 Eh     change       -0.2667840E-03 Eh
   gradient norm :     0.0064185 Eh/α   predicted    -0.2041835E-03 ( -23.46%)
   displ. norm   :     0.4257343 α      lambda       -0.3816922E-03
   maximum displ.:     0.1464830 α      in ANC's #12, #11, #4, ...

........................................................................
.............................. CYCLE   26 ..............................
........................................................................

 iter      E             dE          RMSdq      gap      omega  full diag
   1   -119.4716458 -0.119472E+03  0.918E-02    0.08       0.0  T
   2   -117.5235970  0.194805E+01  0.260E+00    0.11       1.0  T
   3   -119.2606088 -0.173701E+01  0.896E-01    0.05       1.0  T
   4   -119.4053129 -0.144704E+00  0.493E-01    0.09       1.0  T
   5   -119.4573636 -0.520507E-01  0.246E-01    0.08       1.0  T
   6   -119.4658479 -0.848428E-02  0.164E-01    0.08       1.0  T
   7   -119.4593201  0.652776E-02  0.223E-01    0.08       1.0  T
   8   -119.4730472 -0.137270E-01  0.338E-02    0.08       1.0  T
   9   -119.4732566 -0.209409E-03  0.198E-02    0.08       1.0  T
  10   -119.4733036 -0.469585E-04  0.154E-02    0.08       1.0  T
  11   -119.4733520 -0.484376E-04  0.640E-03    0.08       1.9  T
  12   -119.4733600 -0.802552E-05  0.270E-03    0.08       4.5  T
  13   -119.4733618 -0.173128E-05  0.910E-04    0.08      13.3  T
  14   -119.4733619 -0.144523E-06  0.557E-04    0.08      21.8  T
  15   -119.4733620 -0.796451E-07  0.155E-04    0.08      78.1  T
  16   -119.4733620 -0.510134E-08  0.665E-05    0.08     182.2  T
     SCC iter.                  ...        0 min,  1.760 sec
     gradient                   ...        0 min,  0.066 sec
 * total energy  :  -118.6039790 Eh     change       -0.2831088E-03 Eh
   gradient norm :     0.0061544 Eh/α   predicted    -0.2254407E-03 ( -20.37%)
   displ. norm   :     0.3485634 α      lambda       -0.3264394E-03
   maximum displ.:     0.1246272 α      in ANC's #11, #12, #22, ...

........................................................................
.............................. CYCLE   27 ..............................
........................................................................

 iter      E             dE          RMSdq      gap      omega  full diag
   1   -119.4742294 -0.119474E+03  0.791E-02    0.07       0.0  T
   2   -117.1214229  0.235281E+01  0.281E+00    0.13       1.0  T
   3   -119.3531345 -0.223171E+01  0.706E-01    0.06       1.0  T
   4   -119.2766891  0.764455E-01  0.823E-01    0.04       1.0  T
   5   -119.4587894 -0.182100E+00  0.264E-01    0.08       1.0  T
   6   -119.3768736  0.819158E-01  0.587E-01    0.07       1.0  T
   7   -119.4746535 -0.977799E-01  0.602E-02    0.07       1.0  T
   8   -119.4753492 -0.695649E-03  0.229E-02    0.07       1.0  T
   9   -119.4754042 -0.550701E-04  0.177E-02    0.07       1.0  T
  10   -119.4754445 -0.402122E-04  0.141E-02    0.07       1.0  T
  11   -119.4754816 -0.371364E-04  0.582E-03    0.07       2.1  T
  12   -119.4754879 -0.628320E-05  0.242E-03    0.07       5.0  T
  13   -119.4754892 -0.135328E-05  0.980E-04    0.07      12.4  T
  14   -119.4754894 -0.133849E-06  0.715E-04    0.07      16.9  T
  15   -119.4754894 -0.697126E-07  0.506E-04    0.07      23.9  T
  16   -119.4754895 -0.515218E-07  0.265E-04    0.07      45.7  T
  17   -119.4754895 -0.158784E-07  0.116E-04    0.07     104.8  T
  18   -119.4754895 -0.297830E-08  0.517E-05    0.07     234.7  T
     SCC iter.                  ...        0 min,  1.998 sec
     gradient                   ...        0 min,  0.062 sec
 * total energy  :  -118.6042130 Eh     change       -0.2339714E-03 Eh
   gradient norm :     0.0051748 Eh/α   predicted    -0.1830578E-03 ( -21.76%)
   displ. norm   :     0.4381560 α      lambda       -0.2551844E-03
   maximum displ.:     0.1596177 α      in ANC's #11, #12, #22, ...

........................................................................
.............................. CYCLE   28 ..............................
........................................................................

 iter      E             dE          RMSdq      gap      omega  full diag
   1   -119.4749364 -0.119475E+03  0.289E-02    0.06       0.0  T
   2   -119.2291703  0.245766E+00  0.924E-01    0.02       1.0  T
   3   -119.4610707 -0.231900E+00  0.230E-01    0.06       1.0  T
   4   -119.4650455 -0.397489E-02  0.189E-01    0.06       1.0  T
   5   -119.4686927 -0.364712E-02  0.159E-01    0.06       1.0  T
   6   -119.4615364  0.715624E-02  0.218E-01    0.06       1.0  T
   7   -119.4746346 -0.130981E-01  0.403E-02    0.06       1.0  T
   8   -119.4749799 -0.345349E-03  0.202E-02    0.06       1.0  T
   9   -119.4750358 -0.558880E-04  0.136E-02    0.06       1.0  T
  10   -119.4750639 -0.281033E-04  0.934E-03    0.06       1.3  T
  11   -119.4750832 -0.193170E-04  0.407E-03    0.06       3.0  T
  12   -119.4750874 -0.413443E-05  0.131E-03    0.06       9.3  T
  13   -119.4750877 -0.377313E-06  0.488E-04    0.06      24.8  T
  14   -119.4750878 -0.256713E-07  0.374E-04    0.06      32.4  T
  15   -119.4750878 -0.353276E-07  0.111E-04    0.06     109.5  T
  16   -119.4750878 -0.264838E-08  0.465E-05    0.06     261.0  T
     SCC iter.                  ...        0 min,  1.836 sec
     gradient                   ...        0 min,  0.068 sec
 * total energy  :  -118.6044112 Eh     change       -0.1981918E-03 Eh
   gradient norm :     0.0057828 Eh/α   predicted    -0.1520888E-03 ( -23.26%)
   displ. norm   :     0.4279439 α      lambda       -0.3175234E-03
   maximum displ.:     0.1649306 α      in ANC's #22, #11, #12, ...

........................................................................
.............................. CYCLE   29 ..............................
........................................................................

 iter      E             dE          RMSdq      gap      omega  full diag
   1   -119.4764993 -0.119476E+03  0.557E-02    0.05       0.0  T
   2   -117.1152766  0.236122E+01  0.278E+00    0.09       1.0  T
   3   -119.4453665 -0.233009E+01  0.360E-01    0.06       1.0  T
   4   -119.4521128 -0.674636E-02  0.299E-01    0.05       1.0  T
   5   -119.4653394 -0.132266E-01  0.225E-01    0.05       1.0  T
   6   -119.3655072  0.998322E-01  0.626E-01    0.05       1.0  T
   7   -119.4770813 -0.111574E+00  0.309E-02    0.05       1.0  T
   8   -119.4772145 -0.133162E-03  0.209E-02    0.05       1.0  T
   9   -119.4772720 -0.575237E-04  0.161E-02    0.05       1.0  T
  10   -119.4773016 -0.296319E-04  0.114E-02    0.05       1.1  T
  11   -119.4773228 -0.211582E-04  0.761E-03    0.05       1.6  T
  12   -119.4773351 -0.122828E-04  0.358E-03    0.05       3.4  T
  13   -119.4773364 -0.133274E-05  0.254E-03    0.05       4.8  T
  14   -119.4773377 -0.129592E-05  0.127E-03    0.05       9.6  T
  15   -119.4773380 -0.314743E-06  0.622E-04    0.05      19.5  T
  16   -119.4773381 -0.980461E-07  0.162E-04    0.05      74.9  T
  17   -119.4773381 -0.544537E-08  0.779E-05    0.05     155.7  T
     SCC iter.                  ...        0 min,  1.895 sec
     gradient                   ...        0 min,  0.071 sec
 * total energy  :  -118.6046163 Eh     change       -0.2050918E-03 Eh
   gradient norm :     0.0046879 Eh/α   predicted    -0.1878387E-03 (  -8.41%)
   displ. norm   :     0.5011635 α      lambda       -0.2234520E-03
   maximum displ.:     0.1927152 α      in ANC's #22, #11, #4, ...

........................................................................
.............................. CYCLE   30 ..............................
........................................................................

 iter      E             dE          RMSdq      gap      omega  full diag
   1   -119.4730177 -0.119473E+03  0.745E-02    0.04       0.0  T
   2   -117.1432070  0.232981E+01  0.283E+00    0.15       1.0  T
   3   -119.2961646 -0.215296E+01  0.819E-01    0.08       1.0  T
   4   -119.4170968 -0.120932E+00  0.457E-01    0.03       1.0  T
   5   -119.4606772 -0.435804E-01  0.232E-01    0.04       1.0  T
   6   -119.3865797  0.740975E-01  0.558E-01    0.05       1.0  T
   7   -119.4731296 -0.865499E-01  0.752E-02    0.05       1.0  T
   8   -119.4743744 -0.124477E-02  0.186E-02    0.04       1.0  T
   9   -119.4744223 -0.479530E-04  0.114E-02    0.04       1.1  T
  10   -119.4744492 -0.268690E-04  0.549E-03    0.04       2.2  T
  11   -119.4744502 -0.998558E-06  0.518E-03    0.04       2.3  T
  12   -119.4744562 -0.597566E-05  0.142E-03    0.04       8.5  T
  13   -119.4744566 -0.462903E-06  0.580E-04    0.04      20.9  T
  14   -119.4744567 -0.764443E-07  0.171E-04    0.04      70.8  T
  15   -119.4744567  0.767145E-09  0.177E-04    0.04      68.5  T
     SCC iter.                  ...        0 min,  1.689 sec
     gradient                   ...        0 min,  0.063 sec
 * total energy  :  -118.6047477 Eh     change       -0.1314828E-03 Eh
   gradient norm :     0.0060141 Eh/α   predicted    -0.1398651E-03 (   6.38%)
   displ. norm   :     0.2119486 α      lambda       -0.1546287E-03
   maximum displ.:     0.0930354 α      in ANC's #22, #11, #4, ...

........................................................................
.............................. CYCLE   31 ..............................
........................................................................

 iter      E             dE          RMSdq      gap      omega  full diag
   1   -119.4756942 -0.119476E+03  0.507E-02    0.04       0.0  T
   2   -118.7407299  0.734964E+00  0.162E+00    0.09       1.0  T
   3   -119.4496170 -0.708887E+00  0.358E-01    0.06       1.0  T
   4   -119.4307890  0.188280E-01  0.395E-01    0.02       1.0  T
   5   -119.4717361 -0.409471E-01  0.134E-01    0.04       1.0  T
   6   -119.4491813  0.225548E-01  0.309E-01    0.04       1.0  T
   7   -119.4752275 -0.260463E-01  0.650E-02    0.04       1.0  T
   8   -119.4762755 -0.104802E-02  0.706E-03    0.04       1.7  T
   9   -119.4762802 -0.467752E-05  0.562E-03    0.04       2.2  T
  10   -119.4762846 -0.435315E-05  0.346E-03    0.04       3.5  T
  11   -119.4762862 -0.162291E-05  0.149E-03    0.04       8.1  T
  12   -119.4762867 -0.528175E-06  0.492E-04    0.04      24.7  T
  13   -119.4762868 -0.389762E-07  0.304E-04    0.04      39.9  T
  14   -119.4762868 -0.255622E-07  0.646E-05    0.04     187.6  T
  15   -119.4762868  0.360473E-09  0.757E-05    0.04     160.2  T
     SCC iter.                  ...        0 min,  1.714 sec
     gradient                   ...        0 min,  0.068 sec
 * total energy  :  -118.6048607 Eh     change       -0.1129855E-03 Eh
   gradient norm :     0.0030312 Eh/α   predicted    -0.8079723E-04 ( -28.49%)
   displ. norm   :     0.3204022 α      lambda       -0.1410305E-03
   maximum displ.:     0.1414628 α      in ANC's #22, #4, #11, ...

........................................................................
.............................. CYCLE   32 ..............................
........................................................................

 iter      E             dE          RMSdq      gap      omega  full diag
   1   -119.4764611 -0.119476E+03  0.462E-02    0.04       0.0  T
   2   -118.2916656  0.118480E+01  0.200E+00    0.04       1.0  T
   3   -119.4624491 -0.117078E+01  0.254E-01    0.03       1.0  T
   4   -119.4419941  0.204550E-01  0.352E-01    0.05       1.0  T
   5   -119.4711212 -0.291270E-01  0.157E-01    0.03       1.0  T
   6   -119.4095774  0.615438E-01  0.485E-01    0.05       1.0  T
   7   -119.4761282 -0.665508E-01  0.623E-02    0.04       1.0  T
   8   -119.4769700 -0.841772E-03  0.131E-02    0.03       1.0  T
   9   -119.4770090 -0.390458E-04  0.472E-03    0.03       2.6  T
  10   -119.4770056  0.341838E-05  0.556E-03    0.03       2.2  T
  11   -119.4770122 -0.661759E-05  0.283E-03    0.03       4.3  T
  12   -119.4770139 -0.172325E-05  0.922E-04    0.03      13.2  T
  13   -119.4770141 -0.160974E-06  0.538E-04    0.03      22.6  T
  14   -119.4770141 -0.419975E-07  0.353E-04    0.03      34.4  T
  15   -119.4770142 -0.256077E-07  0.185E-04    0.03      65.6  T
  16   -119.4770142 -0.519486E-08  0.123E-04    0.03      98.9  T
     SCC iter.                  ...        0 min,  1.809 sec
     gradient                   ...        0 min,  0.070 sec
 * total energy  :  -118.6049661 Eh     change       -0.1053666E-03 Eh
   gradient norm :     0.0034678 Eh/α   predicted    -0.7775860E-04 ( -26.20%)
   displ. norm   :     0.3272661 α      lambda       -0.1267947E-03
   maximum displ.:     0.1458030 α      in ANC's #22, #4, #11, ...

........................................................................
.............................. CYCLE   33 ..............................
........................................................................

 iter      E             dE          RMSdq      gap      omega  full diag
   1   -119.4766443 -0.119477E+03  0.533E-02    0.03       0.0  T
   2   -118.4526526  0.102399E+01  0.187E+00    0.10       1.0  T
   3   -119.4565944 -0.100394E+01  0.299E-01    0.04       1.0  T
   4   -119.4587247 -0.213030E-02  0.257E-01    0.03       1.0  T
   5   -119.4739654 -0.152407E-01  0.117E-01    0.03       1.0  T
   6   -119.4104295  0.635359E-01  0.485E-01    0.04       1.0  T
   7   -119.4767002 -0.662707E-01  0.544E-02    0.04       1.0  T
   8   -119.4773605 -0.660269E-03  0.178E-02    0.03       1.0  T
   9   -119.4774090 -0.485145E-04  0.112E-02    0.03       1.1  T
  10   -119.4774329 -0.239103E-04  0.609E-03    0.03       2.0  T
  11   -119.4774425 -0.956911E-05  0.163E-03    0.03       7.4  T
  12   -119.4774421  0.354489E-06  0.199E-03    0.03       6.1  T
  13   -119.4774426 -0.448359E-06  0.147E-03    0.03       8.3  T
  14   -119.4774431 -0.551545E-06  0.428E-04    0.03      28.3  T
  15   -119.4774432 -0.472302E-07  0.733E-05    0.03     165.4  T
  16   -119.4774432 -0.970658E-09  0.447E-05    0.03     271.2  T
     SCC iter.                  ...        0 min,  1.799 sec
     gradient                   ...        0 min,  0.063 sec
 * total energy  :  -118.6050580 Eh     change       -0.9188318E-04 Eh
   gradient norm :     0.0039507 Eh/α   predicted    -0.7018936E-04 ( -23.61%)
   displ. norm   :     0.3029344 α      lambda       -0.9134564E-04
   maximum displ.:     0.1377016 α      in ANC's #22, #11, #4, ...

........................................................................
.............................. CYCLE   34 ..............................
........................................................................

 iter      E             dE          RMSdq      gap      omega  full diag
   1   -119.4761266 -0.119476E+03  0.525E-02    0.03       0.0  T
   2   -118.4849122  0.991214E+00  0.185E+00    0.12       1.0  T
   3   -119.4725098 -0.987598E+00  0.144E-01    0.04       1.0  T
   4   -119.4695314  0.297837E-02  0.161E-01    0.03       1.0  T
   5   -119.4669999  0.253154E-02  0.193E-01    0.04       1.0  T
   6   -119.4312909  0.357090E-01  0.402E-01    0.03       1.0  T
   7   -119.4766352 -0.453443E-01  0.329E-02    0.04       1.0  T
   8   -119.4768549 -0.219766E-03  0.174E-02    0.03       1.0  T
   9   -119.4768822 -0.273119E-04  0.142E-02    0.03       1.0  T
  10   -119.4769245 -0.422539E-04  0.643E-03    0.03       1.9  T
  11   -119.4769349 -0.104248E-04  0.177E-03    0.03       6.8  T
  12   -119.4769332  0.173070E-05  0.301E-03    0.03       4.0  T
  13   -119.4769350 -0.185865E-05  0.156E-03    0.03       7.8  T
  14   -119.4769357 -0.673623E-06  0.191E-04    0.03      63.5  T
  15   -119.4769357 -0.717579E-08  0.104E-04    0.03     116.2  T
     SCC iter.                  ...        0 min,  1.660 sec
     gradient                   ...        0 min,  0.078 sec
 * total energy  :  -118.6051210 Eh     change       -0.6301447E-04 Eh
   gradient norm :     0.0030710 Eh/α   predicted    -0.4986503E-04 ( -20.87%)
   displ. norm   :     0.1815426 α      lambda       -0.6621537E-04
   maximum displ.:     0.0728917 α      in ANC's #22, #14, #2, ...

........................................................................
.............................. CYCLE   35 ..............................
........................................................................

 iter      E             dE          RMSdq      gap      omega  full diag
   1   -119.4769952 -0.119477E+03  0.525E-02    0.03       0.0  T
   2   -118.1286078  0.134839E+01  0.216E+00    0.11       1.0  T
   3   -119.4329014 -0.130429E+01  0.395E-01    0.04       1.0  T
   4   -119.4743701 -0.414687E-01  0.110E-01    0.04       1.0  T
   5   -119.4577573  0.166128E-01  0.287E-01    0.03       1.0  T
   6   -119.4441832  0.135741E-01  0.352E-01    0.04       1.0  T
   7   -119.4776407 -0.334575E-01  0.244E-02    0.03       1.0  T
   8   -119.4776446 -0.392633E-05  0.229E-02    0.04       1.0  T
   9   -119.4777426 -0.980319E-04  0.130E-02    0.04       1.0  T
  10   -119.4777773 -0.347181E-04  0.641E-03    0.04       1.9  T
  11   -119.4777858 -0.844569E-05  0.311E-03    0.04       3.9  T
  12   -119.4777874 -0.158787E-05  0.206E-03    0.03       5.9  T
  13   -119.4777880 -0.607767E-06  0.142E-03    0.03       8.6  T
  14   -119.4777885 -0.518928E-06  0.393E-04    0.04      30.8  T
  15   -119.4777885 -0.351905E-07  0.150E-04    0.04      81.1  T
  16   -119.4777885 -0.612742E-08  0.178E-05    0.04     679.9  T
     SCC iter.                  ...        0 min,  1.802 sec
     gradient                   ...        0 min,  0.077 sec
 * total energy  :  -118.6051610 Eh     change       -0.4001903E-04 Eh
   gradient norm :     0.0021612 Eh/α   predicted    -0.3420039E-04 ( -14.54%)
   displ. norm   :     0.2224186 α      lambda       -0.5174192E-04
   maximum displ.:     0.1062077 α      in ANC's #22, #11, #14, ...

   *** GEOMETRY OPTIMIZATION CONVERGED AFTER 35 ITERATIONS ***

------------------------------------------------------------------------
 total energy gain   :        -0.0644986 Eh      -40.4735 kcal/mol
 total RMSD          :         0.8419757 a0        0.4456 Å
 total power (kW/mol):        -4.8383188 (step)   -2.1148 (real)
------------------------------------------------------------------------

 ANCopt (total)                0 d,  0 h,  1 min, 20.072 sec
 optimizer setup                ...        0 min,  0.000 sec (  0.000%)
 model hessian                  ...        0 min,  0.048 sec (  0.060%)
 ANC generation                 ...        0 min,  0.057 sec (  0.071%)
 coordinate transformation      ...        0 min,  0.005 sec (  0.006%)
 single point calculation       ...        1 min, 19.896 sec ( 99.780%)
 optimization log               ...        0 min,  0.011 sec (  0.014%)
 hessian update                 ...        0 min,  0.013 sec (  0.017%)
 rational function              ...        0 min,  0.025 sec (  0.032%)

================
 final structure:
================
68
 xtb: 6.6.1 (unknown)
C           54.69166359434386       14.86985355373615       52.12034774799363
C           54.17740563766388       15.77586644358472       51.00727899718851
S           53.76730990269788       14.90894181742914       49.46139724125928
H           54.87386743428419       15.43962870664504       53.03733512711189
H           53.95710381759650       14.08753034810989       52.33678086019387
H           55.62685216266054       14.38862871495357       51.82076791290106
H           53.27878182212918       16.30014518189329       51.36282529623899
H           54.93138300189606       16.54263953176817       50.78613608527137
C           47.28590835426176        9.79939338008610       49.24657189070421
C           48.59619467585053       10.18081256632560       49.93000349789556
S           49.67455373809371       10.95911441626877       48.68281325317445
H           46.59784151300635        9.30502084882343       49.93867577903837
H           46.80056079470000       10.69425678321712       48.85078564736404
H           47.48730386148682        9.12616481458634       48.41011824904196
H           48.38243396612297       10.87567298446564       50.75329769060473
H           49.05108690739561        9.28012238450521       50.36143267160953
C           57.63707751556137        9.15112587700674       47.81331534750973
C           56.76597610579402        8.70871079719409       46.64433713520111
S           55.21367539936114        9.64250775675061       46.41455324415977
H           58.52045064221312        8.51234927359511       47.89587953223932
H           57.97185771269326       10.18150927546973       47.67493319228993
H           57.07985560557179        9.09722933001439       48.75224675941450
H           57.33912307861714        8.80426163071268       45.71372439727021
H           56.51629654208232        7.64820051087366       46.76208051728157
C           57.31365958649668       10.16110628637406       52.18133795131422
C           56.26981952707249        9.10094783217540       52.52789844814488
S           54.60748522241672        9.81081700351776       52.75338771392986
H           57.32716284093067       10.93442347654956       52.95406799249793
H           58.31495549149793        9.72342473919232       52.10741551635530
H           57.06598347316163       10.63678408667686       51.22397710565080
H           56.28005118966044        8.31249876776268       51.76245550117849
H           56.54572375921824        8.63067516329195       53.48132708646467
C           57.68067872807023       15.38103072075518       47.69798583808397
C           56.38221818078515       15.01760606235374       46.98086869802651
S           56.55867056069117       13.37546650501610       46.20427724500732
H           57.87518091614722       14.67292039603543       48.50669124943931
H           58.51741481584477       15.32772073555270       46.99701552534056
H           57.64258378983942       16.39179260075713       48.11737435111770
H           55.54545022560911       15.08822897250893       47.69636799551630
H           56.20178620238843       15.75361838315448       46.18412194574746
C           50.14042017617814       16.97467240423600       52.13284901237542
C           49.58395502020112       17.31302581320455       50.74438056113917
C           49.74419800967790       16.17339045075704       49.79163288113624
N           48.86097183531549       15.11861007861738       49.76273641952109
C           49.29487979941358       14.24656764030220       48.81410149998791
N           50.39693445348646       14.68227511416047       48.26212347685329
C           50.69732807987145       15.87307344370491       48.85948807220629
H           49.63678400782065       16.09649684226403       52.53910882541498
H           51.21145609909658       16.76991490411492       52.07564210476646
H           49.98144683744563       17.81240430750679       52.81096508664473
H           48.52434386413040       17.56851992361702       50.83961908182986
H           50.10501065740821       18.19080561024357       50.35039208149757
H           48.01257332479119       15.06109282483687       50.29172971955460
H           48.81674585057823       13.29648193489352       48.60339665730990
H           51.58902174683161       16.42441542098354       48.60108324532408
Fe          51.83906956139809       10.81207016045355       49.27616011513726
Fe          53.67581376482864       12.72395711207733       49.64775013095471
Fe          54.06213797107355       10.02964895821832       48.27706079958673
Fe          53.79798943302905       10.44278998582818       50.74689981847470
S           55.39823482541521       11.36961996469547       49.51107610137090
S           52.82432987983763        8.89024167181388       49.56504915785678
S           52.28169181728466       11.96160632558706       51.08253916569859
S           52.90478170685251       11.89356816075436       47.50502193655144
Ni          55.35832950057737       11.85404126729021       47.33202109266828
C           51.95894967669244       12.07618442311209       46.06568839469526
O           52.08481382506896       13.32047448980973       45.49089048935223
O           51.27909248714001       11.22634693926070       45.49614099195126
H           51.58850993263319       13.31914731780413       44.66557954359679

 Bond Distances (Angstroems)
 ---------------------------
C1-C2=1.5245         C1-H4=1.0949         C1-H5=1.0947         C1-H6=1.0936         C2-C1=1.5245         C2-S3=1.8192         
C2-H7=1.0995         C2-H8=1.0979         S3-C2=1.8192         S3-Fe57=2.1948       H4-C1=1.0949         H5-C1=1.0947         
H6-C1=1.0936         H7-C2=1.0995         H8-C2=1.0979         C9-C10=1.5262        C9-H12=1.0940        C9-H13=1.0922        
C9-H14=1.0925        C10-C9=1.5262        C10-S11=1.8232       C10-H15=1.0983       C10-H16=1.0974       S11-C10=1.8232       
S11-Fe56=2.2492      H12-C9=1.0940        H13-C9=1.0922        H14-C9=1.0925        H15-C10=1.0983       H16-C10=1.0974       
C17-C18=1.5235       C17-H20=1.0933       C17-H21=1.0922       C17-H22=1.0932       C18-C17=1.5235       C18-S19=1.8260       
C18-H23=1.0971       C18-H24=1.0958       S19-C18=1.8260       S19-Fe58=2.2237      S19-Ni64=2.3987      H20-C17=1.0933       
H21-C17=1.0922       H22-C17=1.0932       H23-C18=1.0971       H24-C18=1.0958       C25-C26=1.5276       C25-H28=1.0933       
C25-H29=1.0953       C25-H30=1.0973       C26-C25=1.5276       C26-S27=1.8216       C26-H31=1.0989       C26-H32=1.0983       
S27-C26=1.8216       S27-Fe59=2.2540      H28-C25=1.0933       H29-C25=1.0953       H30-C25=1.0973       H31-C26=1.0989       
H32-C26=1.0983       C33-C34=1.5272       C33-H36=1.0924       C33-H37=1.0929       C33-H38=1.0950       C34-C33=1.5272       
C34-S35=1.8251       C34-H39=1.1032       C34-H40=1.0996       S35-C34=1.8251       S35-Ni64=2.2422      H36-C33=1.0924       
H37-C33=1.0929       H38-C33=1.0950       H39-C34=1.1032       H40-C34=1.0996       C41-C42=1.5336       C41-H48=1.0908       
C41-H49=1.0919       C41-H50=1.0895       C42-C41=1.5336       C42-C43=1.4940       C42-H51=1.0941       C42-H52=1.0942       
C43-C42=1.4940       C43-N44=1.3760       C43-C47=1.3666       N44-C43=1.3760       N44-C45=1.3596       N44-H53=1.0015       
C45-N44=1.3596       C45-N46=1.3073       C45-H54=1.0843       N46-C45=1.3073       N46-C47=1.3657       C47-C43=1.3666       
C47-N46=1.3657       C47-H55=1.0798       H48-C41=1.0908       H49-C41=1.0919       H50-C41=1.0895       H51-C42=1.0941       
H52-C42=1.0942       H53-N44=1.0015       H54-C45=1.0843       H55-C47=1.0798       Fe56-S11=2.2492      Fe56-Fe57=2.6771     
Fe56-Fe58=2.5598     Fe56-Fe59=2.4773     Fe56-S61=2.1789      Fe56-S62=2.1864      Fe56-S63=2.3329      Fe57-S3=2.1948       
Fe57-Fe56=2.6771     Fe57-Fe58=3.0475     Fe57-Fe59=2.5351     Fe57-S60=2.1954      Fe57-S62=2.1409      Fe57-S63=2.4239      
Fe57-Ni64=2.9917     Fe58-S19=2.2237      Fe58-Fe56=2.5598     Fe58-Fe57=3.0475     Fe58-Fe59=2.5180     Fe58-S60=2.2591      
Fe58-S61=2.1188      Fe58-S63=2.3259      Fe58-Ni64=2.4293     Fe59-S27=2.2540      Fe59-Fe56=2.4773     Fe59-Fe57=2.5351     
Fe59-Fe58=2.5180     Fe59-S60=2.2242      Fe59-S61=2.1806      Fe59-S62=2.1722      S60-Fe57=2.1954      S60-Fe58=2.2591      
S60-Fe59=2.2242      S60-Ni64=2.2326      S61-Fe56=2.1789      S61-Fe58=2.1188      S61-Fe59=2.1806      S62-Fe56=2.1864      
S62-Fe57=2.1409      S62-Fe59=2.1722      S63-Fe56=2.3329      S63-Fe57=2.4239      S63-Fe58=2.3259      S63-Ni64=2.4600      
S63-C65=1.7319       Ni64-S19=2.3987      Ni64-S35=2.2422      Ni64-Fe57=2.9917     Ni64-Fe58=2.4293     Ni64-S60=2.2326      
Ni64-S63=2.4600      C65-S63=1.7319       C65-O66=1.3764       C65-O67=1.2283       O66-C65=1.3764       O66-H68=0.9630       
O67-C65=1.2283       H68-O66=0.9630       
 C  H  Rav=1.0943 sigma=0.0044  Rmin=1.0798  Rmax=1.1032    32
 C  C  Rav=1.5029 sigma=0.0527  Rmin=1.3666  Rmax=1.5336     8
 N  H  Rav=1.0015 sigma=0.0000  Rmin=1.0015  Rmax=1.0015     1
 N  C  Rav=1.3522 sigma=0.0266  Rmin=1.3073  Rmax=1.3760     4
 O  H  Rav=0.9630 sigma=0.0000  Rmin=0.9630  Rmax=0.9630     1
 O  C  Rav=1.3024 sigma=0.0740  Rmin=1.2283  Rmax=1.3764     2
 S  C  Rav=1.8078 sigma=0.0340  Rmin=1.7319  Rmax=1.8260     6
 Fe S  Rav=2.2288 sigma=0.0759  Rmin=2.1188  Rmax=2.4239    16
 Fe Fe Rav=2.6358 sigma=0.1941  Rmin=2.4773  Rmax=3.0475     6
 Ni S  Rav=2.3333 sigma=0.0984  Rmin=2.2326  Rmax=2.4600     4
 Ni Fe Rav=2.7105 sigma=0.2812  Rmin=2.4293  Rmax=2.9917     2

 selected bond angles (degree)
 --------------------
H4-C1-C2=111.00                H5-C1-C2=110.04                H5-C1-H4=108.54                H6-C1-C2=110.49                
H6-C1-H4=108.43                H6-C1-H5=108.27                S3-C2-C1=114.41                H7-C2-C1=108.84                
H7-C2-S3=108.53                H8-C2-C1=109.30                H8-C2-S3=108.45                H8-C2-H7=107.06                
Fe57-S3-C2=114.31              H12-C9-C10=111.69              H13-C9-C10=109.82              H13-C9-H12=108.66              
H14-C9-C10=109.79              H14-C9-H12=108.77              H14-C9-H13=108.02              S11-C10-C9=107.95              
H15-C10-C9=109.07              H15-C10-S11=110.97             H16-C10-C9=109.07              H16-C10-S11=111.97             
H16-C10-H15=107.77             

 selected dihedral angles (degree)
 ---------------------------------
S3-C2-C1-H4=182.79            S3-C2-C1-H5=302.96            S3-C2-C1-H6= 62.47            H7-C2-C1-H4=304.36            
H7-C2-C1-H5= 64.54            H7-C2-C1-H6=184.04            H8-C2-C1-H4= 60.98            H8-C2-C1-H5=181.15            
H8-C2-C1-H6=300.66            Fe57-S3-C2-C1= 12.67          Fe57-S3-C2-H7=250.93          Fe57-S3-C2-H8=134.95          
S11-C10-C9-H12=178.77         S11-C10-C9-H13=299.39         S11-C10-C9-H14= 58.02         H15-C10-C9-H12=299.43         
H15-C10-C9-H13= 60.05         H15-C10-C9-H14=178.68         H16-C10-C9-H12= 56.89         H16-C10-C9-H13=177.52         
H16-C10-C9-H14=296.14         

 CMA Distance (Angstroems)
 ---------------------------
R(CMA):  4.2450
           -------------------------------------------------
          |                Final Singlepoint                |
           -------------------------------------------------

          ...................................................
          :                      SETUP                      :
          :.................................................:
          :  # basis functions                 288          :
          :  # atomic orbitals                 274          :
          :  # shells                          150          :
          :  # electrons                       219          :
          :  # halogen bonds                     0          :
          :  max. iterations                   250          :
          :  Hamiltonian                  GFN1-xTB          :
          :  restarted?                      false          :
          :  GBSA solvation                   true          :
          :  PC potential                    false          :
          :  electronic temp.          300.0000000     K    :
          :  accuracy                    1.0000000          :
          :  -> integral cutoff          0.2500000E+02      :
          :  -> integral neglect         0.1000000E-07      :
          :  -> SCF convergence          0.1000000E-05 Eh   :
          :  -> wf. convergence          0.2000000E-04 e    :
          :  Broyden damping             0.4000000          :
          ...................................................

 iter      E             dE          RMSdq      gap      omega  full diag
   1   -119.4777885 -0.119478E+03  0.129E-05    0.04       0.0  T
   2   -119.4777885  0.750311E-07  0.514E-04    0.03      23.6  T
   3   -119.4777885 -0.735504E-07  0.765E-05    0.04     158.5  T
   4   -119.4777885 -0.123974E-08  0.326E-05    0.04     372.3  T

   *** convergence criteria satisfied after 4 iterations ***

         #    Occupation            Energy/Eh            Energy/eV
      -------------------------------------------------------------
         1        2.0000           -0.8083868             -21.9973
       ...           ...                  ...                  ...
       104        1.9999           -0.2425552              -6.6003
       105        1.9999           -0.2418787              -6.5819
       106        1.9997           -0.2411972              -6.5633
       107        1.9992           -0.2401494              -6.5348
       108        1.9853           -0.2374045              -6.4601
       109        1.9022           -0.2355291              -6.4091
       110        0.7508           -0.2311082              -6.2888 (HOMO)
       111        0.3630           -0.2298214              -6.2538 (LUMO)
       112        0.0000           -0.2204930              -5.9999
       113                         -0.2121174              -5.7720
       114                         -0.2077108              -5.6521
       115                         -0.2050677              -5.5802
       ...                                ...                  ...
       274                         13.5205662             367.9133
      -------------------------------------------------------------
                  HL-Gap            0.0012868 Eh            0.0350 eV
             Fermi-level           -0.2319096 Eh           -6.3106 eV

 SCC (total)                   0 d,  0 h,  0 min,  0.665 sec
 SCC setup                      ...        0 min,  0.002 sec (  0.284%)
 Dispersion                     ...        0 min,  0.001 sec (  0.124%)
 classical contributions        ...        0 min,  0.000 sec (  0.023%)
 integral evaluation            ...        0 min,  0.031 sec (  4.641%)
 iterations                     ...        0 min,  0.466 sec ( 70.128%)
 molecular gradient             ...        0 min,  0.066 sec (  9.870%)
 printout                       ...        0 min,  0.099 sec ( 14.921%)

         :::::::::::::::::::::::::::::::::::::::::::::::::::::
         ::                     SUMMARY                     ::
         :::::::::::::::::::::::::::::::::::::::::::::::::::::
         :: total energy            -118.605161004757 Eh    ::
         :: total w/o Gsasa/hb      -118.596574657595 Eh    ::
         :: gradient norm              0.002161234548 Eh/a0 ::
         :: HOMO-LUMO gap              0.035015442416 eV    ::
         ::.................................................::
         :: SCC energy              -119.477788533606 Eh    ::
         :: -> electrostatic           0.699355564832 Eh    ::
         :: -> Gsolv                  -0.395336815000 Eh    ::
         ::    -> Gelec               -0.386750467838 Eh    ::
         ::    -> Gsasa               -0.005952881345 Eh    ::
         ::    -> Ghb                 -0.006879072487 Eh    ::
         ::    -> Gshift               0.004245606671 Eh    ::
         :: repulsion energy           0.939450265464 Eh    ::
         :: dispersion energy         -0.066822736615 Eh    ::
         :: halogen bond corr.         0.000000000000 Eh    ::
         :: add. restraining           0.000000000000 Eh    ::
         :: total charge              -3.000000000003 e     ::
         :::::::::::::::::::::::::::::::::::::::::::::::::::::

           -------------------------------------------------
          |                Property Printout                |
           -------------------------------------------------

    * Orbital Energies and Occupations

         #    Occupation            Energy/Eh            Energy/eV
      -------------------------------------------------------------
         1        2.0000           -0.8083868             -21.9973
       ...           ...                  ...                  ...
        98        2.0000           -0.2498977              -6.8001
        99        2.0000           -0.2489914              -6.7754
       100        2.0000           -0.2470134              -6.7216
       101        2.0000           -0.2459707              -6.6932
       102        2.0000           -0.2448747              -6.6634
       103        2.0000           -0.2437898              -6.6339
       104        1.9999           -0.2425552              -6.6003
       105        1.9999           -0.2418787              -6.5819
       106        1.9997           -0.2411972              -6.5633
       107        1.9992           -0.2401494              -6.5348
       108        1.9853           -0.2374045              -6.4601
       109        1.9022           -0.2355291              -6.4091
       110        0.7508           -0.2311082              -6.2888 (HOMO)
       111        0.3630           -0.2298214              -6.2538 (LUMO)
       112        0.0000           -0.2204930              -5.9999
       113                         -0.2121174              -5.7720
       114                         -0.2077108              -5.6521
       115                         -0.2050677              -5.5802
       116                         -0.1998918              -5.4393
       117                         -0.1963546              -5.3431
       118                         -0.1923053              -5.2329
       119                         -0.1848196              -5.0292
       120                         -0.1755671              -4.7774
       121                         -0.1645934              -4.4788
       ...                                ...                  ...
       274                         13.5205662             367.9133
      -------------------------------------------------------------
                  HL-Gap            0.0012868 Eh            0.0350 eV
             Fermi-level           -0.2319096 Eh           -6.3106 eV

  Mulliken/CM5 charges         n(s)   n(p)   n(d)
     1C    -0.05545 -0.20453   1.003  3.053  0.000
     2C     0.01650 -0.07779   1.026  2.957  0.000
     3S    -0.26773 -0.36767   1.895  4.381 -0.008
     4H    -0.01032  0.04035   1.010  0.000  0.000
     5H     0.00897  0.06206   0.991  0.000  0.000
     6H     0.00503  0.05699   0.995  0.000  0.000
     7H    -0.02919  0.02612   1.029  0.000  0.000
     8H    -0.02796  0.02710   1.028  0.000  0.000
     9C    -0.07119 -0.21930   1.005  3.066  0.000
    10C     0.01714 -0.07724   1.025  2.958  0.000
    11S    -0.30853 -0.39742   1.898  4.420 -0.010
    12H    -0.00415  0.04655   1.004  0.000  0.000
    13H    -0.00373  0.04863   1.004  0.000  0.000
    14H    -0.00281  0.04960   1.003  0.000  0.000
    15H    -0.02533  0.02940   1.025  0.000  0.000
    16H    -0.01598  0.03877   1.016  0.000  0.000
    17C    -0.05535 -0.20510   1.001  3.054  0.000
    18C     0.01452 -0.08078   1.027  2.958  0.000
    19S    -0.18808 -0.31225   1.884  4.309 -0.006
    20H    -0.00720  0.04373   1.007  0.000  0.000
    21H     0.01089  0.06334   0.989  0.000  0.000
    22H     0.01410  0.06746   0.986  0.000  0.000
    23H    -0.02330  0.03203   1.023  0.000  0.000
    24H    -0.02070  0.03458   1.021  0.000  0.000
    25C    -0.06318 -0.21099   1.003  3.060  0.000
    26C     0.02190 -0.07224   1.024  2.954  0.000
    27S    -0.33436 -0.41896   1.898  4.447 -0.010
    28H    -0.01064  0.04148   1.011  0.000  0.000
    29H    -0.01331  0.03731   1.013  0.000  0.000
    30H    -0.00127  0.05391   1.001  0.000  0.000
    31H    -0.02047  0.03407   1.020  0.000  0.000
    32H    -0.03780  0.01744   1.038  0.000  0.000
    33C    -0.06026 -0.20833   1.002  3.058  0.000
    34C     0.02213 -0.07111   1.026  2.952  0.000
    35S    -0.34634 -0.42247   1.873  4.486 -0.012
    36H    -0.00333  0.04887   1.003  0.000  0.000
    37H    -0.01776  0.03455   1.018  0.000  0.000
    38H    -0.01305  0.03756   1.013  0.000  0.000
    39H    -0.02239  0.03506   1.022  0.000  0.000
    40H    -0.04681  0.00809   1.047  0.000  0.000
    41C    -0.06979 -0.21946   1.005  3.065  0.000
    42C    -0.04257 -0.14389   1.022  3.020  0.000
    43C     0.05730  0.11791   1.047  2.895  0.000
    44N    -0.28254 -0.64037   1.430  3.852  0.000
    45C     0.23392  0.33382   0.984  2.782  0.000
    46N    -0.40977 -0.59619   1.558  3.852  0.000
    47C     0.07315  0.10219   1.013  2.914  0.000
    48H     0.02265  0.07575   0.977  0.000  0.000
    49H     0.02693  0.07928   0.973  0.000  0.000
    50H     0.02438  0.07581   0.976  0.000  0.000
    51H     0.02256  0.08003   0.977  0.000  0.000
    52H     0.02553  0.08123   0.974  0.000  0.000
    53H     0.23657  0.43366   0.763  0.000  0.000
    54H    -0.00608  0.06920   1.006  0.000  0.000
    55H    -0.01120  0.05546   1.011  0.000  0.000
    56Fe   -0.03189  0.22908   0.147  0.937  6.948
    57Fe   -0.02068  0.24371   0.139  0.901  6.980
    58Fe   -0.01830  0.24554   0.102  0.892  7.024
    59Fe   -0.03132  0.24423   0.151  0.979  6.901
    60S    -0.00484 -0.26091   1.854  4.169 -0.018
    61S    -0.16794 -0.39839   1.868  4.319 -0.019
    62S    -0.14077 -0.36819   1.864  4.295 -0.019
    63S     0.07846 -0.10291   1.863  4.035  0.024
    64Ni   -0.26390 -0.08761   0.549  0.705  9.010
    65C     0.53961  0.60368   0.997  2.463  0.000
    66O    -0.57718 -0.77031   1.711  4.867  0.000
    67O    -0.64958 -0.69440   1.741  4.909  0.000
    68H     0.36403  0.54318   0.636  0.000  0.000

Wiberg/Mayer (AO) data.
largest (>0.10) Wiberg bond orders for each atom

 ---------------------------------------------------------------------------
     #   Z sym  total        # sym  WBO       # sym  WBO       # sym  WBO
 ---------------------------------------------------------------------------
     1   6 C    3.993 --     2 C    1.018     6 H    0.985     4 H    0.984
                             5 H    0.976
     2   6 C    3.983 --     1 C    1.018     8 H    0.986     7 H    0.980
                             3 S    0.955
     3  16 S    2.114 --     2 C    0.955    57 Fe   0.778
     4   1 H    1.009 --     1 C    0.984
     5   1 H    1.035 --     1 C    0.976
     6   1 H    1.018 --     1 C    0.985
     7   1 H    1.030 --     2 C    0.980
     8   1 H    1.028 --     2 C    0.986
     9   6 C    3.992 --    10 C    1.019    13 H    0.988    14 H    0.988
                            12 H    0.985
    10   6 C    3.989 --     9 C    1.019    15 H    0.988    16 H    0.985
                            11 S    0.962
    11  16 S    2.022 --    10 C    0.962    56 Fe   0.701
    12   1 H    1.008 --     9 C    0.985
    13   1 H    1.027 --     9 C    0.988
    14   1 H    1.030 --     9 C    0.988
    15   1 H    1.024 --    10 C    0.988
    16   1 H    1.021 --    10 C    0.985
    17   6 C    3.993 --    18 C    1.019    20 H    0.984    21 H    0.984
                            22 H    0.978
    18   6 C    3.987 --    17 C    1.019    24 H    0.988    23 H    0.987
                            19 S    0.945
    19  16 S    2.269 --    18 C    0.945    58 Fe   0.647    64 Ni   0.475
    20   1 H    1.009 --    17 C    0.984
    21   1 H    1.020 --    17 C    0.984
    22   1 H    1.028 --    17 C    0.978
    23   1 H    1.027 --    18 C    0.987
    24   1 H    1.025 --    18 C    0.988
    25   6 C    3.990 --    26 C    1.017    28 H    0.988    29 H    0.985
                            30 H    0.970
    26   6 C    3.987 --    25 C    1.017    32 H    0.986    31 H    0.985
                            27 S    0.967
    27  16 S    1.974 --    26 C    0.967    59 Fe   0.727
    28   1 H    1.026 --    25 C    0.988
    29   1 H    1.010 --    25 C    0.985
    30   1 H    1.056 --    25 C    0.970
    31   1 H    1.020 --    26 C    0.985
    32   1 H    1.031 --    26 C    0.986
    33   6 C    3.993 --    34 C    1.017    37 H    0.988    36 H    0.987
                            38 H    0.985
    34   6 C    3.983 --    33 C    1.017    40 H    0.988    35 S    0.972
                            39 H    0.967
    35  16 S    1.894 --    34 C    0.972    64 Ni   0.720
    36   1 H    1.028 --    33 C    0.987
    37   1 H    1.034 --    33 C    0.988
    38   1 H    1.011 --    33 C    0.985
    39   1 H    1.061 --    34 C    0.967
    40   1 H    1.033 --    34 C    0.988
    41   6 C    3.997 --    42 C    1.000    48 H    0.989    50 H    0.988
                            49 H    0.983
    42   6 C    3.998 --    43 C    1.015    41 C    1.000    52 H    0.978
                            51 H    0.976
    43   6 C    3.914 --    47 C    1.572    44 N    1.146    42 C    1.015
                            45 C    0.107
    44   7 N    3.455 --    45 C    1.217    43 C    1.146    53 H    0.911
    45   6 C    3.920 --    46 N    1.556    44 N    1.217    54 H    0.954
                            43 C    0.107
    46   7 N    2.996 --    45 C    1.556    47 C    1.267
    47   6 C    3.965 --    43 C    1.572    46 N    1.267    55 H    0.975
    48   1 H    1.007 --    41 C    0.989
    49   1 H    1.015 --    41 C    0.983
    50   1 H    1.005 --    41 C    0.988
    51   1 H    1.007 --    42 C    0.976
    52   1 H    1.008 --    42 C    0.978
    53   1 H    0.947 --    44 N    0.911
    54   1 H    1.085 --    45 C    0.954
    55   1 H    1.054 --    47 C    0.975
    56  26 Fe   5.217 --    59 Fe   0.812    62 S    0.802    61 S    0.785
                            58 Fe   0.773    11 S    0.701    57 Fe   0.519
                            63 S    0.446    64 Ni   0.120
    57  26 Fe   4.936 --    62 S    0.883    59 Fe   0.782     3 S    0.778
                            60 S    0.731    56 Fe   0.519    58 Fe   0.334
                            64 Ni   0.301    63 S    0.280
    58  26 Fe   4.985 --    61 S    0.872    56 Fe   0.773    19 S    0.647
                            59 Fe   0.611    60 S    0.595    64 Ni   0.492
                            63 S    0.395    57 Fe   0.334
    59  26 Fe   5.633 --    56 Fe   0.812    61 S    0.798    62 S    0.789
                            57 Fe   0.782    27 S    0.727    60 S    0.662
                            58 Fe   0.611    64 Ni   0.231
    60  16 S    2.756 --    57 Fe   0.731    59 Fe   0.662    58 Fe   0.595
                            64 Ni   0.572
    61  16 S    2.620 --    58 Fe   0.872    59 Fe   0.798    56 Fe   0.785
    62  16 S    2.637 --    57 Fe   0.883    56 Fe   0.802    59 Fe   0.789
    63  16 S    2.692 --    65 C    1.039    56 Fe   0.446    58 Fe   0.395
                            64 Ni   0.325    57 Fe   0.280
    64  28 Ni   3.442 --    35 S    0.720    60 S    0.572    58 Fe   0.492
                            19 S    0.475    63 S    0.325    57 Fe   0.301
                            59 Fe   0.231    56 Fe   0.120
    65   6 C    3.787 --    67 O    1.553    63 S    1.039    66 O    1.009
    66   8 O    1.997 --    65 C    1.009    68 H    0.849
    67   8 O    1.820 --    65 C    1.553
    68   1 H    0.887 --    66 O    0.849
 ---------------------------------------------------------------------------

Topologies differ in total number of bonds
Writing topology from bond orders to xtbtopo.mol

 dipole moment from electron density (au)
     X       Y       Z   
-305.1703 -65.8767-275.1398  total (Debye): 1057.717

           -------------------------------------------------
          |                Geometry Summary                 |
           -------------------------------------------------

      molecular mass/u    :      857.1109877
   center of mass at/Å    :       53.3481075      11.9423226      49.0420981
  moments of inertia/u·Å² :        0.6491288E+04   0.8696413E+04   0.9442510E+04
rotational constants/cm⁻¹ :        0.2596963E-02   0.1938458E-02   0.1785291E-02

 * 69 selected distances

     #   Z          #   Z                                           value/Å
     1   6 C        2   6 C                                       1.5245468
     1   6 C        4   1 H                                       1.0948553
     1   6 C        5   1 H                                       1.0947379
     1   6 C        6   1 H                                       1.0935736
     2   6 C        7   1 H                                       1.0994573
     2   6 C        8   1 H                                       1.0978740
     9   6 C       10   6 C                                       1.5262405
     9   6 C       12   1 H                                       1.0940056
     9   6 C       13   1 H                                       1.0922407
     9   6 C       14   1 H                                       1.0924522
    10   6 C       15   1 H                                       1.0983343
    10   6 C       16   1 H                                       1.0974065
    17   6 C       18   6 C                                       1.5235023
    18   6 C       19  16 S                                       1.8260382
    17   6 C       20   1 H                                       1.0932523
    17   6 C       21   1 H                                       1.0922077
    17   6 C       22   1 H                                       1.0931576
    18   6 C       23   1 H                                       1.0971179
    18   6 C       24   1 H                                       1.0958493
    25   6 C       26   6 C                                       1.5276265
    25   6 C       28   1 H                                       1.0933041
    25   6 C       29   1 H                                       1.0952732
    25   6 C       30   1 H                                       1.0973390
    26   6 C       31   1 H                                       1.0989357
    26   6 C       32   1 H                                       1.0983196
    33   6 C       34   6 C                                       1.5271983
    33   6 C       36   1 H                                       1.0923626
    33   6 C       37   1 H                                       1.0928535
    33   6 C       38   1 H                                       1.0949784
    34   6 C       39   1 H                                       1.1032260
    34   6 C       40   1 H                                       1.0995797
    41   6 C       42   6 C                                       1.5336172
    42   6 C       43   6 C                                       1.4940466
    43   6 C       44   7 N                                       1.3760398
    44   7 N       45   6 C                                       1.3596480
    45   6 C       46   7 N                                       1.3073047
    43   6 C       47   6 C                                       1.3665802
    46   7 N       47   6 C                                       1.3656800
    41   6 C       48   1 H                                       1.0908203
    41   6 C       49   1 H                                       1.0919324
    41   6 C       50   1 H                                       1.0894535
    42   6 C       51   1 H                                       1.0941315
    42   6 C       52   1 H                                       1.0941771
    44   7 N       53   1 H                                       1.0014601
    45   6 C       54   1 H                                       1.0842839
    47   6 C       55   1 H                                       1.0797541
    11  16 S       56  26 Fe                                      2.2491803
     3  16 S       57  26 Fe                                      2.1948253
    19  16 S       58  26 Fe                                      2.2237023
    27  16 S       59  26 Fe                                      2.2540337
    56  26 Fe      59  26 Fe                                      2.4772588
    58  26 Fe      59  26 Fe                                      2.5180480 (max)
    57  26 Fe      60  16 S                                       2.1953688
    58  26 Fe      60  16 S                                       2.2590865
    59  26 Fe      60  16 S                                       2.2241988
    56  26 Fe      61  16 S                                       2.1789035
    58  26 Fe      61  16 S                                       2.1188045
    59  26 Fe      61  16 S                                       2.1806401
    56  26 Fe      62  16 S                                       2.1864021
    57  26 Fe      62  16 S                                       2.1408819
    59  26 Fe      62  16 S                                       2.1722376
    56  26 Fe      63  16 S                                       2.3328763
    58  26 Fe      63  16 S                                       2.3258790
    58  26 Fe      64  28 Ni                                      2.4293252
    60  16 S       64  28 Ni                                      2.2326079
    63  16 S       65   6 C                                       1.7319436
    65   6 C       66   8 O                                       1.3764057
    65   6 C       67   8 O                                       1.2283379
    66   8 O       68   1 H                                       0.9630460 (min)

 * 11 distinct bonds (by element types)

   Z      Z             #   av. dist./Å        max./Å        min./Å
   1 H    6 C          32     1.0942890     1.1032260     1.0797541
Note: The following floating-point exceptions are signalling: IEEE_UNDERFLOW_FLAG IEEE_DENORMAL
normal termination of xtb
   6 C    6 C           8     1.5029198     1.5336172     1.3665802
   1 H    7 N           1     1.0014601     1.0014601     1.0014601
   6 C    7 N           4     1.3521681     1.3760398     1.3073047
   1 H    8 O           1     0.9630460     0.9630460     0.9630460
   6 C    8 O           2     1.3023718     1.3764057     1.2283379
   6 C   16 S           2     1.7789909     1.8260382     1.7319436
  16 S   26 Fe         15     2.2158014     2.3328763     2.1188045
  26 Fe  26 Fe          2     2.4976534     2.5180480     2.4772588
  16 S   28 Ni          1     2.2326079     2.2326079     2.2326079
  26 Fe  28 Ni          1     2.4293252     2.4293252     2.4293252


optimized geometry written to: xtbopt.xyz


           -------------------------------------------------
          | TOTAL ENERGY             -118.605161004757 Eh   |
          | GRADIENT NORM               0.002161234548 Eh/α |
          | HOMO-LUMO GAP               0.035015442416 eV   |
           -------------------------------------------------

------------------------------------------------------------------------
 * finished run on 2026/09/13 at 13:43:13.278     
------------------------------------------------------------------------
 total:
 * wall-time:     0 d,  0 h,  1 min, 27.619 sec
 *  cpu-time:     0 d,  0 h,  1 min, 55.195 sec
 * ratio c/w:     1.315 speedup
 SCF:
 * wall-time:     0 d,  0 h,  0 min,  6.833 sec
 *  cpu-time:     0 d,  0 h,  0 min,  7.588 sec
 * ratio c/w:     1.110 speedup
 ANC optimizer:
 * wall-time:     0 d,  0 h,  1 min, 20.742 sec
 *  cpu-time:     0 d,  0 h,  1 min, 47.333 sec
 * ratio c/w:     1.329 speedup

