68
 energy: -118.605161004757 gnorm: 0.002161234548 xtb: 6.6.1 (unknown)
C           54.69166359434386       14.86985355373615       52.12034774799363
C           54.17740563766388       15.77586644358472       51.00727899718851
S           53.76730990269788       14.90894181742914       49.46139724125928
H           54.87386743428419       15.43962870664504       53.03733512711189
H           53.95710381759650       14.08753034810989       52.33678086019387
H           55.62685216266054       14.38862871495357       51.82076791290106
H           53.27878182212918       16.30014518189329       51.36282529623899
H           54.93138300189606       16.54263953176817       50.78613608527137
C           47.28590835426176        9.79939338008610       49.24657189070421
C           48.59619467585053       10.18081256632560       49.93000349789556
S           49.67455373809371       10.95911441626877       48.68281325317445
H           46.59784151300635        9.30502084882343       49.93867577903837
H           46.80056079470000       10.69425678321712       48.85078564736404
H           47.48730386148682        9.12616481458634       48.41011824904196
H           48.38243396612297       10.87567298446564       50.75329769060473
H           49.05108690739561        9.28012238450521       50.36143267160953
C           57.63707751556137        9.15112587700674       47.81331534750973
C           56.76597610579402        8.70871079719409       46.64433713520111
S           55.21367539936114        9.64250775675061       46.41455324415977
H           58.52045064221312        8.51234927359511       47.89587953223932
H           57.97185771269326       10.18150927546973       47.67493319228993
H           57.07985560557179        9.09722933001439       48.75224675941450
H           57.33912307861714        8.80426163071268       45.71372439727021
H           56.51629654208232        7.64820051087366       46.76208051728157
C           57.31365958649668       10.16110628637406       52.18133795131422
C           56.26981952707249        9.10094783217540       52.52789844814488
S           54.60748522241672        9.81081700351776       52.75338771392986
H           57.32716284093067       10.93442347654956       52.95406799249793
H           58.31495549149793        9.72342473919232       52.10741551635530
H           57.06598347316163       10.63678408667686       51.22397710565080
H           56.28005118966044        8.31249876776268       51.76245550117849
H           56.54572375921824        8.63067516329195       53.48132708646467
C           57.68067872807023       15.38103072075518       47.69798583808397
C           56.38221818078515       15.01760606235374       46.98086869802651
S           56.55867056069117       13.37546650501610       46.20427724500732
H           57.87518091614722       14.67292039603543       48.50669124943931
H           58.51741481584477       15.32772073555270       46.99701552534056
H           57.64258378983942       16.39179260075713       48.11737435111770
H           55.54545022560911       15.08822897250893       47.69636799551630
H           56.20178620238843       15.75361838315448       46.18412194574746
C           50.14042017617814       16.97467240423600       52.13284901237542
C           49.58395502020112       17.31302581320455       50.74438056113917
C           49.74419800967790       16.17339045075704       49.79163288113624
N           48.86097183531549       15.11861007861738       49.76273641952109
C           49.29487979941358       14.24656764030220       48.81410149998791
N           50.39693445348646       14.68227511416047       48.26212347685329
C           50.69732807987145       15.87307344370491       48.85948807220629
H           49.63678400782065       16.09649684226403       52.53910882541498
H           51.21145609909658       16.76991490411492       52.07564210476646
H           49.98144683744563       17.81240430750679       52.81096508664473
H           48.52434386413040       17.56851992361702       50.83961908182986
H           50.10501065740821       18.19080561024357       50.35039208149757
H           48.01257332479119       15.06109282483687       50.29172971955460
H           48.81674585057823       13.29648193489352       48.60339665730990
H           51.58902174683161       16.42441542098354       48.60108324532408
Fe          51.83906956139809       10.81207016045355       49.27616011513726
Fe          53.67581376482864       12.72395711207733       49.64775013095471
Fe          54.06213797107355       10.02964895821832       48.27706079958673
Fe          53.79798943302905       10.44278998582818       50.74689981847470
S           55.39823482541521       11.36961996469547       49.51107610137090
S           52.82432987983763        8.89024167181388       49.56504915785678
S           52.28169181728466       11.96160632558706       51.08253916569859
S           52.90478170685251       11.89356816075436       47.50502193655144
Ni          55.35832950057737       11.85404126729021       47.33202109266828
C           51.95894967669244       12.07618442311209       46.06568839469526
O           52.08481382506896       13.32047448980973       45.49089048935223
O           51.27909248714001       11.22634693926070       45.49614099195126
H           51.58850993263319       13.31914731780413       44.66557954359679
