31
 energy: -68.895888156481 gnorm: 0.002451435688 xtb: 6.6.1 (unknown)
Fe           1.19449666772132        1.01808837955872        0.85262269141686
Fe           1.19637267679083       -0.88188289657378       -0.78946990813855
Fe          -0.67662539687594        0.87677552549136       -0.89067014915126
Fe          -0.56991335892014       -0.76954512923115        1.00285067204436
S           -0.90470248183314        1.34885065904382        1.18532544607883
S            1.52798934882181       -1.05103019644092        1.31532690020054
S            1.44375500914312        1.20052534651007       -1.26496415965691
S           -0.90398404942092       -1.23244075785302       -1.08097422178202
S            2.30769717061154        2.51217027600580        2.05090920135546
C            4.08788119082943        2.20039387920582        1.84526504109029
H            4.61624641736740        2.88500685287132        2.51188856811147
H            4.42015585357185        2.39451053443450        0.82296304952581
H            4.36207805460961        1.17845323726184        2.11626512217924
S            2.26639361623829       -2.28364498625342       -2.12708202304143
C            4.04011356238915       -1.89084484265069       -2.10548072666907
H            4.23810048680583       -0.85150949574841       -2.37563510278346
H            4.52557677302912       -2.53423233282757       -2.84233669630044
H            4.48913268035015       -2.09220892669608       -1.13048536743758
S           -1.88046176195643        2.08848572210336       -2.27644856180307
C           -3.63550622531001        1.84130988816315       -1.85994348345480
H           -3.96394475393016        0.82011698131345       -2.06862807909292
H           -4.21598764313566        2.52228627767731       -2.48709680619991
H           -3.84933989330298        2.07245899465258       -0.81348748764023
S           -1.93866952799383       -2.04339421695660        2.29215075292468
C           -4.67081087065703       -2.22510106015896        2.15314036442152
H           -4.77899423515688       -2.94414069069726        2.96359068773362
H           -5.50012812844799       -2.33874950253069        1.45780029993010
H           -4.67884909163681       -1.22747835063549        2.59030362996529
C           -3.36712586417650       -2.48831407944446        1.43163345133093
O           -2.44590746625913       -1.44181412973121        3.62376792254164
O           -3.33319122939738       -3.10042252982084        0.36569787232503
