64
 energy: -105.578923622719 gnorm: 0.003004994032 xtb: 6.6.1 (unknown)
C           53.44451635158557       15.35186689196651       53.56492031629562
C           53.35206568238807       16.34216898058526       52.40352148878573
S           54.13010712302962       15.65407438326635       50.90518361048736
H           53.03466583841232       15.76655962500869       54.49291024958266
H           52.89989980551281       14.43481941100799       53.31991051328763
H           54.49182669955867       15.08690146714799       53.73699255847303
H           52.29884836417813       16.62416543029365       52.25372952012061
H           53.89415459076883       17.26040130601594       52.67756583998911
C           47.80989228765761        8.80728113749400       49.33941996491772
C           49.14088506001239        9.39399236001235       49.80868177662416
S           49.81609751631899       10.39924960710249       48.44337775210945
H           47.32240612520025        8.20667189639936       50.11582873693026
H           47.13453324469079        9.61612372410639       49.04816124039450
H           47.97429156233603        8.17882971704567       48.46059395366659
H           48.95730425284754       10.01234066971620       50.70199804322750
H           49.81105477883866        8.57288564396929       50.10398011153801
C           57.65455957090276        7.98563757029081       46.84842775628482
C           56.54169784359070        6.93713181124163       46.80055407828831
S           54.95302147298785        7.61504495235931       46.21854060207106
H           58.61470879697409        7.54220903961352       47.13964782397436
H           57.77027447048332        8.44614581065312       45.86239341540880
H           57.39738272462640        8.77598012863295       47.56748206260990
H           56.83474624912620        6.14822683554332       46.09122587708698
H           56.45022612953221        6.45940611947576       47.78944440844376
C           57.49867827807228        9.23738703826572       51.73478924920826
C           56.26874420932820        8.57103218406457       52.35493170087570
S           54.80838958496945        9.66053472205897       52.35542079779751
H           57.72614378271459       10.16414063354617       52.27134218300809
H           58.37850984227392        8.58379852982937       51.78088023302589
H           57.30155394265809        9.49001735857785       50.68391005187058
H           56.07618443946539        7.61639328789486       51.84000585704604
H           56.49404517228953        8.32848566716977       53.40456551195734
C           55.35290862471825       16.38578941574080       47.44349802056166
C           55.12916432733972       14.96259721976232       46.93891381715643
S           55.02161208022315       13.85375690666442       48.38904150855717
H           54.52757945004664       16.69386996887263       48.09557216229624
H           56.27322775580222       16.42148083018673       48.03537278491530
H           55.44407638469632       17.10208075522007       46.61974970094943
H           54.23551422890183       14.93088880268482       46.29987478099557
H           55.98928690642282       14.66492268109054       46.32401734144526
C           50.61258030087401       18.79147640696502       50.98085162156441
C           50.01264298468876       18.06387286107460       49.76603072592053
C           50.59418345539402       16.69956531650369       49.55364330359405
N           50.29474556045813       15.63957005336690       50.45246520163131
C           51.04040931091837       14.48902608704858       49.91927185989957
N           51.46216981171672       14.82449024825587       48.62374037645085
C           51.25502377817516       16.16732171955396       48.48952238241355
H           50.40878579911981       18.23700808211980       51.90037531311130
H           51.69492640183660       18.89288636986937       50.86655822478360
H           50.17997465361409       19.78854644069135       51.08121454993892
H           48.92189021270450       17.99995232859748       49.91034567977886
H           50.18657511853016       18.67670359829481       48.87091175903985
H           50.44569457408861       15.85954840457779       51.43627110428288
H           50.41512924913719       13.57973497485065       49.98283179082084
H           51.55374915362571       16.70158844316614       47.58722162934204
Fe          52.12499495457103       10.36897199654922       48.65096892072633
Fe          52.98047078082542       14.10766441995828       49.65688378856996
Fe          54.18548485941980        9.20351012999112       47.73713979510431
Fe          54.12401665283622       10.01946668804216       50.18192736013680
S           55.81134698703840       10.23947682729423       48.81048646691710
S           52.90099866063012        8.44258879927808       49.32199116201605
S           52.93172300891320       11.93202515167919       50.04018067769635
S           53.06891428778327       10.77600519856443       46.72490392712174
Fe          54.29447377150839       11.68761318317310       48.28274198679487
