 argument  1 = BS2_seed.nw



============================== echo of input deck ==============================
echo

start A_BS2_seed

title "Model A BS2 constrained spin seed"

memory total 800 mb

charge -2

geometry units angstrom noautoz nocenter noautosym
    load format xyz start.xyz
end

basis spherical
    * library def2-svp
end

dft
    odft
    mult 1
    xc becke88 perdew86
    iterations 150

    convergence nolevelshifting
    convergence energy 1e-5 density 1e-4 gradient 1e-3

    vectors input A_HS_reference.movecs output BS2_seed.movecs

    cdft 1 1 spin 3.5 pop mulliken
    cdft 2 2 spin -3.5
    cdft 3 3 spin 3.5
    cdft 4 4 spin -3.5

    mulliken
end

set dft:cdft_maxiter 200

task dft energy
================================================================================


                                         
                                         


             Northwest Computational Chemistry Package (NWChem) 7.2.2
             --------------------------------------------------------


                    Environmental Molecular Sciences Laboratory
                       Pacific Northwest National Laboratory
                                Richland, WA 99352

                              Copyright (c) 1994-2022
                       Pacific Northwest National Laboratory
                            Battelle Memorial Institute

             NWChem is an open-source computational chemistry package
                        distributed under the terms of the
                      Educational Community License (ECL) 2.0
             A copy of the license is included with this distribution
                              in the LICENSE.TXT file

                                  ACKNOWLEDGMENT
                                  --------------

            This software and its documentation were developed at the
            EMSL at Pacific Northwest National Laboratory, a multiprogram
            national laboratory, operated for the U.S. Department of Energy
            by Battelle under Contract Number DE-AC05-76RL01830. Support
            for this work was provided by the Department of Energy Office
            of Biological and Environmental Research, Office of Basic
            Energy Sciences, and the Office of Advanced Scientific Computing.


           Job information
           ---------------

    hostname        = AkhilLaptop
    program         = nwchem
    date            = Thu Sep 10 08:23:15 2026

    compiled        = Mon_Apr_01_11:12:32_2024
    source          = /build/nwchem-qbYJLs/nwchem-7.2.2/build-openmpi
    nwchem branch   = 7.2.2
    nwchem revision = N/A
    ga revision     = N/A
    use scalapack   = T
    input           = BS2_seed.nw
    prefix          = A_BS2_seed.
    data base       = ./A_BS2_seed.db
    status          = startup
    nproc           =        2
    time left       =     -1s



           Memory information
           ------------------

    heap     =   26214398 doubles =    200.0 Mbytes
    stack    =   26214395 doubles =    200.0 Mbytes
    global   =   52428800 doubles =    400.0 Mbytes (distinct from heap & stack)
    total    =  104857593 doubles =    800.0 Mbytes
    verify   = yes
    hardfail = no 


           Directory information
           ---------------------

  0 permanent = .
  0 scratch   = .




                                NWChem Input Module
                                -------------------


                         Model A BS2 constrained spin seed
                         ---------------------------------

 Scaling coordinates for geometry "geometry" by  1.889725989
 (inverse scale =  0.529177249)



                             Geometry "geometry" -> ""
                             -------------------------

 Output coordinates in angstroms (scale by  1.889725989 to convert to a.u.)

  No.       Tag          Charge          X              Y              Z
 ---- ---------------- ---------- -------------- -------------- --------------
    1 Fe                  26.0000     0.95459415     0.95459415     0.95459415
    2 Fe                  26.0000     0.95459415    -0.95459415    -0.95459415
    3 Fe                  26.0000    -0.95459415     0.95459415    -0.95459415
    4 Fe                  26.0000    -0.95459415    -0.95459415     0.95459415
    5 S                   16.0000    -1.29458595     1.29458595     1.29458595
    6 S                   16.0000     1.29458595    -1.29458595     1.29458595
    7 S                   16.0000     1.29458595     1.29458595    -1.29458595
    8 S                   16.0000    -1.29458595    -1.29458595    -1.29458595
    9 S                   16.0000     2.27095277     2.27095277     2.27095277
   10 C                    6.0000     3.32173026     3.32173026     3.32173026
   11 H                    1.0000     2.80483419     4.25816752     3.53150086
   12 H                    1.0000     4.25816752     3.53150086     2.80483419
   13 H                    1.0000     3.53150086     2.80483419     4.25816752
   14 S                   16.0000     2.27095277    -2.27095277    -2.27095277
   15 C                    6.0000     3.32173026    -3.32173026    -3.32173026
   16 H                    1.0000     4.25816752    -2.80483419    -3.53150086
   17 H                    1.0000     2.80483419    -3.53150086    -4.25816752
   18 H                    1.0000     3.53150086    -4.25816752    -2.80483419
   19 S                   16.0000    -2.27095277     2.27095277    -2.27095277
   20 C                    6.0000    -3.32173026     3.32173026    -3.32173026
   21 H                    1.0000    -4.25816752     2.80483419    -3.53150086
   22 H                    1.0000    -2.80483419     3.53150086    -4.25816752
   23 H                    1.0000    -3.53150086     4.25816752    -2.80483419
   24 S                   16.0000    -2.27095277    -2.27095277     2.27095277
   25 C                    6.0000    -3.32173026    -3.32173026     3.32173026
   26 H                    1.0000    -2.80483419    -4.25816752     3.53150086
   27 H                    1.0000    -4.25816752    -3.53150086     2.80483419
   28 H                    1.0000    -3.53150086    -2.80483419     4.25816752

      Atomic Mass 
      ----------- 

      Fe                55.934900
      S                 31.972070
      C                 12.000000
      H                  1.007825


 Effective nuclear repulsion energy (a.u.)    4848.0573252395

            Nuclear Dipole moment (a.u.) 
            ----------------------------
        X                 Y               Z
 ---------------- ---------------- ----------------
     0.0000000000     0.0000000000     0.0000000000


            XYZ format geometry
            -------------------
    28
 geometry
 Fe                    0.95459415     0.95459415     0.95459415
 Fe                    0.95459415    -0.95459415    -0.95459415
 Fe                   -0.95459415     0.95459415    -0.95459415
 Fe                   -0.95459415    -0.95459415     0.95459415
 S                    -1.29458595     1.29458595     1.29458595
 S                     1.29458595    -1.29458595     1.29458595
 S                     1.29458595     1.29458595    -1.29458595
 S                    -1.29458595    -1.29458595    -1.29458595
 S                     2.27095277     2.27095277     2.27095277
 C                     3.32173026     3.32173026     3.32173026
 H                     2.80483419     4.25816752     3.53150086
 H                     4.25816752     3.53150086     2.80483419
 H                     3.53150086     2.80483419     4.25816752
 S                     2.27095277    -2.27095277    -2.27095277
 C                     3.32173026    -3.32173026    -3.32173026
 H                     4.25816752    -2.80483419    -3.53150086
 H                     2.80483419    -3.53150086    -4.25816752
 H                     3.53150086    -4.25816752    -2.80483419
 S                    -2.27095277     2.27095277    -2.27095277
 C                    -3.32173026     3.32173026    -3.32173026
 H                    -4.25816752     2.80483419    -3.53150086
 H                    -2.80483419     3.53150086    -4.25816752
 H                    -3.53150086     4.25816752    -2.80483419
 S                    -2.27095277    -2.27095277     2.27095277
 C                    -3.32173026    -3.32173026     3.32173026
 H                    -2.80483419    -4.25816752     3.53150086
 H                    -4.25816752    -3.53150086     2.80483419
 H                    -3.53150086    -2.80483419     4.25816752

 ==============================================================================
                                internuclear distances
 ------------------------------------------------------------------------------
       center one      |      center two      | atomic units |  angstroms
 ------------------------------------------------------------------------------
    2 Fe               |   1 Fe               |     5.10226  |     2.70000
    3 Fe               |   1 Fe               |     5.10226  |     2.70000
    3 Fe               |   2 Fe               |     5.10226  |     2.70000
    4 Fe               |   1 Fe               |     5.10226  |     2.70000
    4 Fe               |   2 Fe               |     5.10226  |     2.70000
    4 Fe               |   3 Fe               |     5.10226  |     2.70000
    5 S                |   1 Fe               |     4.34637  |     2.30000
    5 S                |   3 Fe               |     4.34637  |     2.30000
    5 S                |   4 Fe               |     4.34637  |     2.30000
    6 S                |   1 Fe               |     4.34637  |     2.30000
    6 S                |   2 Fe               |     4.34637  |     2.30000
    6 S                |   4 Fe               |     4.34637  |     2.30000
    7 S                |   1 Fe               |     4.34637  |     2.30000
    7 S                |   2 Fe               |     4.34637  |     2.30000
    7 S                |   3 Fe               |     4.34637  |     2.30000
    8 S                |   2 Fe               |     4.34637  |     2.30000
    8 S                |   3 Fe               |     4.34637  |     2.30000
    8 S                |   4 Fe               |     4.34637  |     2.30000
    9 S                |   1 Fe               |     4.30858  |     2.28000
   10 C                |   9 S                |     3.43930  |     1.82000
   11 H                |  10 C                |     2.05980  |     1.09000
   12 H                |  10 C                |     2.05980  |     1.09000
   13 H                |  10 C                |     2.05980  |     1.09000
   14 S                |   2 Fe               |     4.30858  |     2.28000
   15 C                |  14 S                |     3.43930  |     1.82000
   16 H                |  15 C                |     2.05980  |     1.09000
   17 H                |  15 C                |     2.05980  |     1.09000
   18 H                |  15 C                |     2.05980  |     1.09000
   19 S                |   3 Fe               |     4.30858  |     2.28000
   20 C                |  19 S                |     3.43930  |     1.82000
   21 H                |  20 C                |     2.05980  |     1.09000
   22 H                |  20 C                |     2.05980  |     1.09000
   23 H                |  20 C                |     2.05980  |     1.09000
   24 S                |   4 Fe               |     4.30858  |     2.28000
   25 C                |  24 S                |     3.43930  |     1.82000
   26 H                |  25 C                |     2.05980  |     1.09000
   27 H                |  25 C                |     2.05980  |     1.09000
   28 H                |  25 C                |     2.05980  |     1.09000
 ------------------------------------------------------------------------------
                         number of included internuclear distances:         38
 ==============================================================================



 ==============================================================================
                                 internuclear angles
 ------------------------------------------------------------------------------
        center 1       |       center 2       |       center 3       |  degrees
 ------------------------------------------------------------------------------
    1 Fe               |   2 Fe               |   3 Fe               |    60.00
    1 Fe               |   2 Fe               |   4 Fe               |    60.00
    2 Fe               |   1 Fe               |   5 S                |   102.07
    1 Fe               |   6 S                |   2 Fe               |    71.88
    1 Fe               |   7 S                |   2 Fe               |    71.88
    2 Fe               |   1 Fe               |   9 S                |   144.74
    1 Fe               |   3 Fe               |   4 Fe               |    60.00
    1 Fe               |   5 S                |   3 Fe               |    71.88
    3 Fe               |   1 Fe               |   6 S                |   102.07
    1 Fe               |   7 S                |   3 Fe               |    71.88
    3 Fe               |   1 Fe               |   9 S                |   144.74
    1 Fe               |   5 S                |   4 Fe               |    71.88
    1 Fe               |   6 S                |   4 Fe               |    71.88
    4 Fe               |   1 Fe               |   7 S                |   102.07
    4 Fe               |   1 Fe               |   9 S                |   144.74
    5 S                |   1 Fe               |   6 S                |   105.50
    5 S                |   1 Fe               |   7 S                |   105.50
    5 S                |   1 Fe               |   9 S                |   113.20
    6 S                |   1 Fe               |   7 S                |   105.50
    6 S                |   1 Fe               |   9 S                |   113.20
    7 S                |   1 Fe               |   9 S                |   113.20
    2 Fe               |   1 Fe               |   3 Fe               |    60.00
    2 Fe               |   1 Fe               |   4 Fe               |    60.00
    2 Fe               |   6 S                |   1 Fe               |    71.88
    2 Fe               |   7 S                |   1 Fe               |    71.88
    1 Fe               |   2 Fe               |   8 S                |   102.07
    1 Fe               |   2 Fe               |  14 S                |   144.74
    2 Fe               |   3 Fe               |   4 Fe               |    60.00
    3 Fe               |   2 Fe               |   6 S                |   102.07
    2 Fe               |   7 S                |   3 Fe               |    71.88
    2 Fe               |   8 S                |   3 Fe               |    71.88
    3 Fe               |   2 Fe               |  14 S                |   144.74
    2 Fe               |   6 S                |   4 Fe               |    71.88
    4 Fe               |   2 Fe               |   7 S                |   102.07
    2 Fe               |   8 S                |   4 Fe               |    71.88
    4 Fe               |   2 Fe               |  14 S                |   144.74
    6 S                |   2 Fe               |   7 S                |   105.50
    6 S                |   2 Fe               |   8 S                |   105.50
    6 S                |   2 Fe               |  14 S                |   113.20
    7 S                |   2 Fe               |   8 S                |   105.50
    7 S                |   2 Fe               |  14 S                |   113.20
    8 S                |   2 Fe               |  14 S                |   113.20
    3 Fe               |   1 Fe               |   2 Fe               |    60.00
    3 Fe               |   1 Fe               |   4 Fe               |    60.00
    3 Fe               |   5 S                |   1 Fe               |    71.88
    3 Fe               |   7 S                |   1 Fe               |    71.88
    1 Fe               |   3 Fe               |   8 S                |   102.07
    1 Fe               |   3 Fe               |  19 S                |   144.74
    3 Fe               |   2 Fe               |   4 Fe               |    60.00
    2 Fe               |   3 Fe               |   5 S                |   102.07
    3 Fe               |   7 S                |   2 Fe               |    71.88
    3 Fe               |   8 S                |   2 Fe               |    71.88
    2 Fe               |   3 Fe               |  19 S                |   144.74
    3 Fe               |   5 S                |   4 Fe               |    71.88
    4 Fe               |   3 Fe               |   7 S                |   102.07
    3 Fe               |   8 S                |   4 Fe               |    71.88
    4 Fe               |   3 Fe               |  19 S                |   144.74
    5 S                |   3 Fe               |   7 S                |   105.50
    5 S                |   3 Fe               |   8 S                |   105.50
    5 S                |   3 Fe               |  19 S                |   113.20
    7 S                |   3 Fe               |   8 S                |   105.50
    7 S                |   3 Fe               |  19 S                |   113.20
    8 S                |   3 Fe               |  19 S                |   113.20
    4 Fe               |   1 Fe               |   2 Fe               |    60.00
    4 Fe               |   1 Fe               |   3 Fe               |    60.00
    4 Fe               |   5 S                |   1 Fe               |    71.88
    4 Fe               |   6 S                |   1 Fe               |    71.88
    1 Fe               |   4 Fe               |   8 S                |   102.07
    1 Fe               |   4 Fe               |  24 S                |   144.74
    4 Fe               |   2 Fe               |   3 Fe               |    60.00
    2 Fe               |   4 Fe               |   5 S                |   102.07
    4 Fe               |   6 S                |   2 Fe               |    71.88
    4 Fe               |   8 S                |   2 Fe               |    71.88
    2 Fe               |   4 Fe               |  24 S                |   144.74
    4 Fe               |   5 S                |   3 Fe               |    71.88
    3 Fe               |   4 Fe               |   6 S                |   102.07
    4 Fe               |   8 S                |   3 Fe               |    71.88
    3 Fe               |   4 Fe               |  24 S                |   144.74
    5 S                |   4 Fe               |   6 S                |   105.50
    5 S                |   4 Fe               |   8 S                |   105.50
    5 S                |   4 Fe               |  24 S                |   113.20
    6 S                |   4 Fe               |   8 S                |   105.50
    6 S                |   4 Fe               |  24 S                |   113.20
    8 S                |   4 Fe               |  24 S                |   113.20
    1 Fe               |   5 S                |   3 Fe               |    71.88
    1 Fe               |   5 S                |   4 Fe               |    71.88
    3 Fe               |   5 S                |   4 Fe               |    71.88
    1 Fe               |   6 S                |   2 Fe               |    71.88
    1 Fe               |   6 S                |   4 Fe               |    71.88
    2 Fe               |   6 S                |   4 Fe               |    71.88
    1 Fe               |   7 S                |   2 Fe               |    71.88
    1 Fe               |   7 S                |   3 Fe               |    71.88
    2 Fe               |   7 S                |   3 Fe               |    71.88
    2 Fe               |   8 S                |   3 Fe               |    71.88
    2 Fe               |   8 S                |   4 Fe               |    71.88
    3 Fe               |   8 S                |   4 Fe               |    71.88
    1 Fe               |   9 S                |  10 C                |   180.00
    9 S                |  10 C                |  11 H                |   109.47
    9 S                |  10 C                |  12 H                |   109.47
    9 S                |  10 C                |  13 H                |   109.47
   11 H                |  10 C                |  12 H                |   109.47
   11 H                |  10 C                |  13 H                |   109.47
   12 H                |  10 C                |  13 H                |   109.47
    2 Fe               |  14 S                |  15 C                |   180.00
   14 S                |  15 C                |  16 H                |   109.47
   14 S                |  15 C                |  17 H                |   109.47
   14 S                |  15 C                |  18 H                |   109.47
   16 H                |  15 C                |  17 H                |   109.47
   16 H                |  15 C                |  18 H                |   109.47
   17 H                |  15 C                |  18 H                |   109.47
    3 Fe               |  19 S                |  20 C                |   180.00
   19 S                |  20 C                |  21 H                |   109.47
   19 S                |  20 C                |  22 H                |   109.47
   19 S                |  20 C                |  23 H                |   109.47
   21 H                |  20 C                |  22 H                |   109.47
   21 H                |  20 C                |  23 H                |   109.47
   22 H                |  20 C                |  23 H                |   109.47
    4 Fe               |  24 S                |  25 C                |   180.00
   24 S                |  25 C                |  26 H                |   109.47
   24 S                |  25 C                |  27 H                |   109.47
   24 S                |  25 C                |  28 H                |   109.47
   26 H                |  25 C                |  27 H                |   109.47
   26 H                |  25 C                |  28 H                |   109.47
   27 H                |  25 C                |  28 H                |   109.47
 ------------------------------------------------------------------------------
                            number of included internuclear angles:        124
 ==============================================================================





 Summary of "ao basis" -> "" (spherical)
 ------------------------------------------------------------------------------
       Tag                 Description            Shells   Functions and Types
 ---------------- ------------------------------  ------  ---------------------
 *                          def2-svp                  on all atoms 


  perdew86 is a nonlocal functional; adding perdew81 local functional. 

                                 NWChem DFT Module
                                 -----------------


                         Model A BS2 constrained spin seed


                      Basis "ao basis" -> "ao basis" (spherical)
                      -----
  Fe (Iron)
  ---------
            Exponent  Coefficients 
       -------------- ---------------------------------------------------------
  1 S  6.09236406E+04  0.001430
  1 S  9.14788940E+03  0.010959
  1 S  2.08135059E+03  0.054333
  1 S  5.87559771E+02  0.188850
  1 S  1.91090440E+02  0.382531
  1 S  6.57327301E+01  0.293083

  2 S  1.27258919E+02 -0.109646
  2 S  1.48309130E+01  0.643876
  2 S  6.06533074E+00  0.454723

  3 S  1.04499437E+01 -0.225396
  3 S  1.72452280E+00  0.721644
  3 S  7.17721773E-01  0.449855

  4 S  9.14498283E-02  1.000000

  5 S  3.37066910E-02  1.000000

  6 P  7.73437510E+02  0.009433
  6 P  1.82151497E+02  0.070030
  6 P  5.75472728E+01  0.269937
  6 P  2.06149889E+01  0.527000
  6 P  7.63485579E+00  0.342841

  7 P  3.87193280E+00  0.339744
  7 P  1.49247241E+00  0.568426
  7 P  5.60612850E-01  0.236494

  8 P  1.34915000E-01  1.000000

  9 D  3.89681334E+01  0.027880
  9 D  1.08000671E+01  0.148583
  9 D  3.61364580E+00  0.369055
  9 D  1.21299679E+00  0.477451

 10 D  3.65243932E-01  1.000000

 11 F  1.59800000E+00  1.000000

  S (Sulphur)
  -----------
            Exponent  Coefficients 
       -------------- ---------------------------------------------------------
  1 S  9.18493030E+03 -0.002229
  1 S  1.38151055E+03 -0.016683
  1 S  3.13871476E+02 -0.075262
  1 S  8.80538706E+01 -0.193768
  1 S  2.70399149E+01 -0.177180

  2 S  4.56487313E+01 -0.107361
  2 S  4.96645223E+00  0.650663
  2 S  2.01162420E+00  0.597122

  3 S  3.56610770E-01  1.000000

  4 S  1.35072215E-01  1.000000

  5 P  2.61982334E+02 -0.009273
  5 P  6.13068947E+01 -0.066548
  5 P  1.91037299E+01 -0.248286
  5 P  6.65677204E+00 -0.487038
  5 P  2.39596352E+00 -0.393379

  6 P  6.17761617E-01  1.000000

  7 P  1.69933769E-01  1.000000

  8 D  5.50000000E-01  1.000000

  C (Carbon)
  ----------
            Exponent  Coefficients 
       -------------- ---------------------------------------------------------
  1 S  1.23840169E+03  0.005457
  1 S  1.86290050E+02  0.040638
  1 S  4.22511763E+01  0.180256
  1 S  1.16765579E+01  0.463151
  1 S  3.59305065E+00  0.440872

  2 S  4.02451474E-01  1.000000

  3 S  1.30901827E-01  1.000000

  4 P  9.46809706E+00  0.038388
  4 P  2.01035451E+00  0.211170
  4 P  5.47710047E-01  0.513282

  5 P  1.52686138E-01  1.000000

  6 D  8.00000000E-01  1.000000

  H (Hydrogen)
  ------------
            Exponent  Coefficients 
       -------------- ---------------------------------------------------------
  1 S  1.30107010E+01  0.019682
  1 S  1.96225720E+00  0.137965
  1 S  4.44537960E-01  0.478319

  2 S  1.21949620E-01  1.000000

  3 P  8.00000000E-01  1.000000



 Summary of "ao basis" -> "ao basis" (spherical)
 ------------------------------------------------------------------------------
       Tag                 Description            Shells   Functions and Types
 ---------------- ------------------------------  ------  ---------------------
 Fe                         def2-svp                11       31   5s3p2d1f
 S                          def2-svp                 8       18   4s3p1d
 C                          def2-svp                 6       14   3s2p1d
 H                          def2-svp                 3        5   2s1p




 Summary of "ao basis" -> "ao basis" (spherical)
 ------------------------------------------------------------------------------
       Tag                 Description            Shells   Functions and Types
 ---------------- ------------------------------  ------  ---------------------
 Fe                         def2-svp                11       31   5s3p2d1f
 S                          def2-svp                 8       18   4s3p1d
 C                          def2-svp                 6       14   3s2p1d
 H                          def2-svp                 3        5   2s1p


  Caching 1-el integrals 

            General Information
            -------------------
          SCF calculation type: DFT
          Wavefunction type:  spin polarized.
          No. of atoms     :    28
          No. of electrons :   270
           Alpha electrons :   135
            Beta electrons :   135
          Charge           :    -2
          Spin multiplicity:     1
          Use of symmetry is: off; symmetry adaption is: off
          Maximum number of iterations: 150
          AO basis - number of functions:   384
                     number of shells:   168
          Convergence on energy requested:  1.00D-05
          Convergence on density requested:  1.00D-04
          Convergence on gradient requested:  1.00D-03

              XC Information
              --------------
                    Becke 1988 Exchange Functional  1.000          
                Perdew 1981 Correlation Functional  1.000 local    
                Perdew 1986 Correlation Functional  1.000 non-local

             Grid Information
             ----------------
          Grid used for XC integration:  medium    
          Radial quadrature: Mura-Knowles        
          Angular quadrature: Lebedev. 
          Tag              B.-S. Rad. Rad. Pts. Rad. Cut. Ang. Pts.
          ---              ---------- --------- --------- ---------
          Fe                  1.40      112          14.0       590
          S                   1.00       88          14.0       590
          C                   0.70       49          17.0       434
          H                   0.35       45          19.0       434
          Grid pruning is: on 
          Number of quadrature shells:  1888
          Spatial weights used:  Erf1

          Convergence Information
          -----------------------
          Convergence aids based upon iterative change in 
          total energy or number of iterations. 
          Levelshifting, if invoked, occurs when the 
          HOMO/LUMO gap drops below (HL_TOL):  1.00D-02
          DIIS, if invoked, will attempt to extrapolate 
          using up to (NFOCK): 10 stored Fock matrices.

                    Damping( 0%)  Levelshifting(0.0)       DIIS
                  --------------- ------------------- ---------------
          dE  on:    start             N/A                start   
          dE off:    2 iters           N/A              150 iters 


      Screening Tolerance Information
      -------------------------------
          Density screening/tol_rho:  1.00D-10
          AO Gaussian exp screening on grid/accAOfunc:  12
          CD Gaussian exp screening on grid/accCDfunc:  20
          XC Gaussian exp screening on grid/accXCfunc:  20
          Schwarz screening/accCoul:  1.00D-08


 Loading old vectors from job with title :

Model A maximum-spin BP86 def2-SVP screening

  WARNING: movecs_in_org=./A_HS_reference.movecs not equal to movecs_in=./BS2_seed.movecs
   Time after variat. SCF:      1.7

     ---------------------------------------------
      Total Density - Mulliken Population Analysis
     ---------------------------------------------

    Atom       Charge   Shell Charges
 -----------   ------   -------------------------------------------------------
    1 Fe  26    26.89   2.00  2.00  1.99  0.56 -0.01  6.00  6.00  0.77  5.59  1.99  0.00
    2 Fe  26    26.89   2.00  2.00  1.99  0.56 -0.01  6.00  6.00  0.77  5.59  1.99  0.00
    3 Fe  26    26.89   2.00  2.00  1.99  0.56 -0.01  6.00  6.00  0.77  5.59  1.99  0.00
    4 Fe  26    26.89   2.00  2.00  1.99  0.56 -0.01  6.00  6.00  0.77  5.59  1.99  0.00
    5 S   16    15.63   2.00  1.98  1.25  0.65  5.92  1.49  2.29  0.05
    6 S   16    15.63   2.00  1.98  1.25  0.65  5.92  1.49  2.29  0.05
    7 S   16    15.63   2.00  1.98  1.25  0.65  5.92  1.49  2.29  0.05
    8 S   16    15.63   2.00  1.98  1.25  0.65  5.92  1.49  2.29  0.05
    9 S   16    16.00   2.00  1.98  1.23  0.60  5.92  1.67  2.55  0.05
   10 C    6     6.07   1.98  0.92  0.12  2.08  0.93  0.03
   11 H    1     0.97   0.74  0.21  0.02
   12 H    1     0.97   0.74  0.21  0.02
   13 H    1     0.97   0.74  0.21  0.02
   14 S   16    16.01   2.00  1.98  1.23  0.60  5.92  1.67  2.56  0.05
   15 C    6     6.07   1.98  0.92  0.12  2.08  0.93  0.03
   16 H    1     0.97   0.74  0.21  0.02
   17 H    1     0.97   0.74  0.21  0.02
   18 H    1     0.97   0.74  0.21  0.02
   19 S   16    16.01   2.00  1.98  1.23  0.60  5.92  1.67  2.56  0.05
   20 C    6     6.07   1.98  0.92  0.12  2.08  0.93  0.03
   21 H    1     0.97   0.74  0.21  0.02
   22 H    1     0.97   0.74  0.21  0.02
   23 H    1     0.97   0.74  0.21  0.02
   24 S   16    16.00   2.00  1.98  1.23  0.60  5.92  1.67  2.55  0.05
   25 C    6     6.07   1.98  0.92  0.12  2.08  0.93  0.03
   26 H    1     0.97   0.74  0.21  0.02
   27 H    1     0.97   0.74  0.21  0.02
   28 H    1     0.97   0.74  0.21  0.02

     --------------------------------------------
      Spin Density - Mulliken Population Analysis
     --------------------------------------------

    Atom       Charge   Shell Charges
 -----------   ------   -------------------------------------------------------
    1 Fe  26     1.09   0.00 -0.00  0.00  0.05 -0.02 -0.00  0.01 -0.02  1.00  0.07 -0.00
    2 Fe  26     1.09   0.00 -0.00  0.00  0.05 -0.02 -0.00  0.01 -0.02  1.00  0.07 -0.00
    3 Fe  26     1.09   0.00 -0.00  0.00  0.05 -0.02 -0.00  0.01 -0.02  1.00  0.07 -0.00
    4 Fe  26     1.09   0.00 -0.00  0.00  0.05 -0.02 -0.00  0.01 -0.02  1.00  0.07 -0.00
    5 S   16    -0.42   0.00  0.00  0.01 -0.01 -0.00 -0.14 -0.27 -0.01
    6 S   16    -0.42   0.00  0.00  0.01 -0.01 -0.00 -0.14 -0.27 -0.01
    7 S   16    -0.42   0.00  0.00  0.01 -0.01 -0.00 -0.14 -0.27 -0.01
    8 S   16    -0.42   0.00  0.00  0.01 -0.01 -0.00 -0.14 -0.27 -0.01
    9 S   16    -0.62   0.00  0.00  0.01  0.00 -0.01 -0.23 -0.40 -0.00
   10 C    6    -0.01   0.00  0.00 -0.00  0.00 -0.01 -0.00
   11 H    1    -0.01  -0.01 -0.00 -0.00
   12 H    1    -0.01  -0.01 -0.00 -0.00
   13 H    1    -0.01  -0.01 -0.00 -0.00
   14 S   16    -0.62   0.00  0.00  0.01  0.00 -0.01 -0.23 -0.40 -0.00
   15 C    6    -0.01   0.00  0.00 -0.00  0.00 -0.01 -0.00
   16 H    1    -0.01  -0.01 -0.00 -0.00
   17 H    1    -0.01  -0.01 -0.00 -0.00
   18 H    1    -0.01  -0.01 -0.00 -0.00
   19 S   16    -0.62   0.00  0.00  0.01  0.00 -0.01 -0.23 -0.40 -0.00
   20 C    6    -0.01   0.00  0.00 -0.00  0.00 -0.01 -0.00
   21 H    1    -0.01  -0.01 -0.00 -0.00
   22 H    1    -0.01  -0.01 -0.00 -0.00
   23 H    1    -0.01  -0.01 -0.00 -0.00
   24 S   16    -0.62   0.00  0.00  0.01  0.00 -0.01 -0.23 -0.40 -0.00
   25 C    6    -0.01   0.00  0.00 -0.00  0.00 -0.01 -0.00
   26 H    1    -0.01  -0.01 -0.00 -0.00
   27 H    1    -0.01  -0.01 -0.00 -0.00
   28 H    1    -0.01  -0.01 -0.00 -0.00
   Time prior to 1st pass:      1.9

 Integral file          = ./A_BS2_seed.aoints.0
 Record size in doubles =  65536        No. of integs per rec  =  32766
 Max. records in memory =      0        Max. records in file   = 869688
 No. of bits per label  =     16        No. of bits per value  =     64


 #quartets = 1.855D+07 #integrals = 3.576D+08 #direct =  0.0% #cached =100.0%


File balance: exchanges=     1  moved=   140  time=   1.8


 Grid_pts file          = ./A_BS2_seed.gridpts.0
 Record size in doubles =  12289        No. of grid_pts per rec  =   3070
 Max. records in memory =    201        Max. recs in file   =   1528509


           Memory utilization after 1st SCF pass: 
           Heap Space remaining (MW):       23.57            23566750
          Stack Space remaining (MW):       26.21            26209452

   convergence    iter        energy       DeltaE   RMS-Dens  Diis-err    time
 ---------------- ----- ----------------- --------- --------- ---------  ------
 d= 0,ls=0.0,diis     1  -8398.0286986097 -1.32D+04  8.05D-02  4.89D+00   161.1
                                                     7.79D-02  3.73D+00
 Grid integrated density:     270.000410876043
 Requested integration accuracy:   0.10E-05
 CDFT multipliers:
      1       -0.0942136310
      2        0.0984976728
      3       -0.0943934899
      4        0.0984732930
      iter =    5
 d= 0,ls=0.0,diis     2  -8305.3090577833  9.27D+01  8.02D-02  7.84D+01   247.0
                                                     7.79D-02  7.97D+01
 CDFT multipliers:
      1       -0.0174883674
      2        0.0497743256
      3       -0.0141814310
      4        0.0498947815
      iter =    5
 d= 0,ls=0.0,diis     3  -8397.1155613610 -9.18D+01  2.43D-02  4.19D+00   320.1
                                                     1.41D-02  3.16D+00
 CDFT multipliers:
      1       -0.0564089637
      2        0.0684045732
      3       -0.0650758521
      4        0.0635272823
      iter =    5
 d= 0,ls=0.0,diis     4  -8368.1375947839  2.90D+01  2.23D-02  4.00D+01   392.3
                                                     1.07D-02  7.46D+01
 CDFT multipliers:
      1       -0.0302792821
      2        0.0346083143
      3       -0.0151736850
      4        0.0377363115
      iter =    4
 d= 0,ls=0.0,diis     5  -8394.9655250202 -2.68D+01  1.01D-02  1.33D+01   480.3
                                                     1.04D-02  8.33D+00
 CDFT multipliers:
      1       -0.0163459346
      2        0.0330669543
      3       -0.0640353043
      4        0.0268594971
      iter =    4
 d= 0,ls=0.0,diis     6  -8391.8035859880  3.16D+00  9.48D-03  2.00D+01   578.6
                                                     7.81D-03  1.85D+01
 CDFT multipliers:
      1       -0.0524829996
      2        0.0256109654
      3       -0.0120193153
      4        0.0158665810
      iter =    5
 d= 0,ls=0.0,diis     7  -8394.5625372912 -2.76D+00  4.93D-03  9.13D+00   690.7
                                                     6.30D-03  2.07D+01
 CDFT multipliers:
      1       -0.0492048023
      2        0.0244223974
      3       -0.0104145725
      4        0.0366434012
      iter =    5
 d= 0,ls=0.0,diis     8  -8392.6845490361  1.88D+00  4.74D-03  1.03D+01   812.5
                                                     5.76D-03  2.79D+01
 CDFT multipliers:
      1       -0.0328291740
      2        0.0150016064
      3       -0.0134937334
      4        0.0138933387
      iter =    5
 d= 0,ls=0.0,diis     9  -8397.4346608886 -4.75D+00  2.58D-03  4.45D+00   894.5
                                                     5.01D-03  8.22D+00
 CDFT multipliers:
      1       -0.0193630148
      2        0.0084358671
      3       -0.0020926255
      4        0.0086975560
      iter =    5
 d= 0,ls=0.0,diis    10  -8399.4160802054 -1.98D+00  1.89D-03  9.66D-01   970.7
                                                     2.22D-03  1.54D+00
 CDFT multipliers:
      1       -0.0053688294
      2        0.0050097785
      3       -0.0053052049
      4        0.0146134085
      iter =    4
 d= 0,ls=0.0,diis    11  -8399.6336086308 -2.18D-01  2.88D-03  5.19D-01  1040.1
                                                     2.85D-03  4.32D-01
 CDFT multipliers:
      1       -0.0103016286
      2        0.0146624105
      3       -0.0077443978
      4        0.0000905441
      iter =    4
 d= 0,ls=0.0,diis    12  -8399.5399430942  9.37D-02  2.04D-03  9.05D-01  1109.4
                                                     1.74D-03  7.95D-01
 CDFT multipliers:
      1       -0.0042432795
      2        0.0002621515
      3       -0.0016407045
      4        0.0018060180
      iter =    4
 d= 0,ls=0.0,diis    13  -8399.8152526544 -2.75D-01  1.58D-03  1.49D-01  1178.2
                                                     1.69D-03  1.64D-01
 CDFT multipliers:
      1       -0.0080626915
      2        0.0072836553
      3       -0.0093473353
      4        0.0102457648
      iter =    4
 d= 0,ls=0.0,diis    14  -8399.6910057209  1.24D-01  1.14D-03  4.38D-01  1242.9
                                                     1.22D-03  4.28D-01
 CDFT multipliers:
      1       -0.0024522032
      2        0.0058520748
      3       -0.0037858560
      4        0.0042931178
      iter =    3
 d= 0,ls=0.0,diis    15  -8399.8662988758 -1.75D-01  4.37D-04  3.13D-02  1322.0
                                                     4.22D-04  2.67D-02
 CDFT multipliers:
      1       -0.0045795164
      2        0.0034068657
      3       -0.0044380992
      4        0.0040607329
      iter =    3
 d= 0,ls=0.0,diis    16  -8399.8742009654 -7.90D-03  2.21D-04  7.53D-03  1432.7
                                                     2.47D-04  8.30D-03
 CDFT multipliers:
      1       -0.0040850608
      2        0.0036198768
      3       -0.0033873554
      4        0.0036277784
      iter =    3
 d= 0,ls=0.0,diis    17  -8399.8769257293 -2.72D-03  1.09D-04  1.62D-03  1578.0
                                                     1.08D-04  1.97D-03
 CDFT multipliers:
      1       -0.0035466649
      2        0.0036500642
      3       -0.0036189603
      4        0.0035563364
      iter =    3
 d= 0,ls=0.0,diis    18  -8399.8777951078 -8.69D-04  4.09D-05  9.74D-05  1697.5
                                                     4.11D-05  9.12D-05
 CDFT multipliers:
      1       -0.0035455200
      2        0.0035610677
      3       -0.0035282650
      4        0.0037156068
      iter =    3
 d= 0,ls=0.0,diis    19  -8399.8777688518  2.63D-05  3.48D-05  1.73D-04  1826.8
                                                     3.17D-05  1.58D-04
 CDFT multipliers:
      1       -0.0035984573
      2        0.0035867147
      3       -0.0036701799
      4        0.0035301090
      iter =    2
 d= 0,ls=0.0,diis    20  -8399.8778251684 -5.63D-05  1.51D-05  4.76D-05  1909.6
                                                     1.61D-05  5.18D-05
 CDFT multipliers:
      1       -0.0036375847
      2        0.0036250436
      3       -0.0035503741
      4        0.0035940482
      iter =    2
 d= 0,ls=0.0,diis    21  -8399.8778370246 -1.19D-05  9.51D-06  1.88D-05  1974.1
                                                     1.05D-05  2.12D-05
 CDFT multipliers:
      1       -0.0035848242
      2        0.0035927140
      3       -0.0036074733
      4        0.0036032587
      iter =    2
 d= 0,ls=0.0,diis    22  -8399.8778440104 -6.99D-06  4.47D-06  2.33D-06  2045.2
                                                     4.36D-06  2.45D-06
  CDFT final multipliers 
      1       -0.0036003473
      2        0.0035876362
      3       -0.0035975272
      4        0.0036045326


         Total DFT energy =    -8399.877844580171
      One electron energy =   -21349.346802394630
           Coulomb energy =     8557.491040794417
    Exchange-Corr. energy =     -456.079408219413
 Nuclear repulsion energy =     4848.057325239455

 Numeric. integr. density =      270.000087811879

     Total iterative time =   2152.7s



                    DFT Final Alpha Molecular Orbital Analysis
                    ------------------------------------------

 Vector    1  Occ=1.000000D+00  E=-2.545988D+02
              MO Center=  7.5D-01,  9.5D-01,  7.5D-01, r^2= 7.1D-01
   Bfn.  Coefficient  Atom+Function         Bfn.  Coefficient  Atom+Function  
  ----- ------------  ---------------      ----- ------------  ---------------
     1      0.939474   1 Fe s                63     -0.329304   3 Fe s         

 Vector    2  Occ=1.000000D+00  E=-2.545988D+02
              MO Center= -7.5D-01,  9.5D-01, -7.5D-01, r^2= 7.1D-01
   Bfn.  Coefficient  Atom+Function         Bfn.  Coefficient  Atom+Function  
  ----- ------------  ---------------      ----- ------------  ---------------
    63      0.939475   3 Fe s                 1      0.329305   1 Fe s         

 Vector    3  Occ=1.000000D+00  E=-2.545910D+02
              MO Center= -9.4D-01, -9.5D-01,  9.4D-01, r^2= 6.6D-02
   Bfn.  Coefficient  Atom+Function         Bfn.  Coefficient  Atom+Function  
  ----- ------------  ---------------      ----- ------------  ---------------
    94      0.991035   4 Fe s                32     -0.094390   2 Fe s         

 Vector    4  Occ=1.000000D+00  E=-2.545909D+02
              MO Center=  9.4D-01, -9.5D-01, -9.4D-01, r^2= 6.6D-02
   Bfn.  Coefficient  Atom+Function         Bfn.  Coefficient  Atom+Function  
  ----- ------------  ---------------      ----- ------------  ---------------
    32      0.991035   2 Fe s                94      0.094391   4 Fe s         

 Vector    5  Occ=1.000000D+00  E=-8.783137D+01
              MO Center= -1.2D+00,  1.3D+00,  1.2D+00, r^2= 7.0D-01
   Bfn.  Coefficient  Atom+Function         Bfn.  Coefficient  Atom+Function  
  ----- ------------  ---------------      ----- ------------  ---------------
   125      0.966575   5 S  s               161      0.226064   7 S  s         
   143      0.040380   6 S  s               179      0.039055   8 S  s         

 Vector    6  Occ=1.000000D+00  E=-8.783125D+01
              MO Center=  1.2D+00,  1.3D+00, -1.2D+00, r^2= 7.0D-01
   Bfn.  Coefficient  Atom+Function         Bfn.  Coefficient  Atom+Function  
  ----- ------------  ---------------      ----- ------------  ---------------
   161      0.966750   7 S  s               125     -0.228525   5 S  s         
   143      0.029822   6 S  s               179      0.028675   8 S  s         

 Vector    7  Occ=1.000000D+00  E=-8.783061D+01
              MO Center=  6.4D-01, -1.3D+00,  6.4D-01, r^2= 2.6D+00
   Bfn.  Coefficient  Atom+Function         Bfn.  Coefficient  Atom+Function  
  ----- ------------  ---------------      ----- ------------  ---------------
   143      0.858145   6 S  s               179      0.497518   8 S  s         
   161     -0.051622   7 S  s               125     -0.043904   5 S  s         

 Vector    8  Occ=1.000000D+00  E=-8.783056D+01
              MO Center= -6.4D-01, -1.3D+00, -6.4D-01, r^2= 2.5D+00
   Bfn.  Coefficient  Atom+Function         Bfn.  Coefficient  Atom+Function  
  ----- ------------  ---------------      ----- ------------  ---------------
   179      0.859457   8 S  s               143     -0.499605   6 S  s         

 Vector    9  Occ=1.000000D+00  E=-8.781084D+01
              MO Center=  2.3D+00,  2.3D+00,  2.3D+00, r^2= 7.8D-02
   Bfn.  Coefficient  Atom+Function         Bfn.  Coefficient  Atom+Function  
  ----- ------------  ---------------      ----- ------------  ---------------
   197      0.993383   9 S  s               291     -0.041910  19 S  s         

 Vector   10  Occ=1.000000D+00  E=-8.781073D+01
              MO Center= -2.3D+00,  2.3D+00, -2.3D+00, r^2= 7.8D-02
   Bfn.  Coefficient  Atom+Function         Bfn.  Coefficient  Atom+Function  
  ----- ------------  ---------------      ----- ------------  ---------------
   291      0.993381  19 S  s               197      0.041890   9 S  s         

 Vector   11  Occ=1.000000D+00  E=-8.780946D+01
              MO Center=  2.3D+00, -2.3D+00, -2.3D+00, r^2= 5.6D-02
   Bfn.  Coefficient  Atom+Function         Bfn.  Coefficient  Atom+Function  
  ----- ------------  ---------------      ----- ------------  ---------------
   244      0.993644  14 S  s               338     -0.035185  24 S  s         

 Vector   12  Occ=1.000000D+00  E=-8.780933D+01
              MO Center= -2.3D+00, -2.3D+00,  2.3D+00, r^2= 5.6D-02
   Bfn.  Coefficient  Atom+Function         Bfn.  Coefficient  Atom+Function  
  ----- ------------  ---------------      ----- ------------  ---------------
   338      0.993645  24 S  s               244      0.035165  14 S  s         

 Vector   13  Occ=1.000000D+00  E=-2.937425D+01
              MO Center=  3.4D-01,  9.5D-01,  3.4D-01, r^2= 1.6D+00
   Bfn.  Coefficient  Atom+Function         Bfn.  Coefficient  Atom+Function  
  ----- ------------  ---------------      ----- ------------  ---------------
     2      0.858075   1 Fe s                64     -0.592720   3 Fe s         
     1     -0.275150   1 Fe s                63      0.190061   3 Fe s         

 Vector   14  Occ=1.000000D+00  E=-2.937422D+01
              MO Center= -3.4D-01,  9.5D-01, -3.4D-01, r^2= 1.6D+00
   Bfn.  Coefficient  Atom+Function         Bfn.  Coefficient  Atom+Function  
  ----- ------------  ---------------      ----- ------------  ---------------
    64      0.858098   3 Fe s                 2      0.592754   1 Fe s         
    63     -0.275157   3 Fe s                 1     -0.190072   1 Fe s         

 Vector   15  Occ=1.000000D+00  E=-2.931097D+01
              MO Center= -9.0D-01, -9.5D-01,  9.0D-01, r^2= 2.3D-01
   Bfn.  Coefficient  Atom+Function         Bfn.  Coefficient  Atom+Function  
  ----- ------------  ---------------      ----- ------------  ---------------
    95      1.028011   4 Fe s                94     -0.329611   4 Fe s         
    33     -0.178835   2 Fe s                32      0.057340   2 Fe s         

 Vector   16  Occ=1.000000D+00  E=-2.931090D+01
              MO Center=  9.0D-01, -9.5D-01, -9.0D-01, r^2= 2.3D-01
   Bfn.  Coefficient  Atom+Function         Bfn.  Coefficient  Atom+Function  
  ----- ------------  ---------------      ----- ------------  ---------------
    33      1.028017   2 Fe s                32     -0.329613   2 Fe s         
    95      0.178870   4 Fe s                94     -0.057351   4 Fe s         

 Vector   17  Occ=1.000000D+00  E=-2.532474D+01
              MO Center=  7.0D-01,  9.5D-01,  7.0D-01, r^2= 8.6D-01
   Bfn.  Coefficient  Atom+Function         Bfn.  Coefficient  Atom+Function  
  ----- ------------  ---------------      ----- ------------  ---------------
     7      0.897415   1 Fe py               69     -0.350452   3 Fe py        
     6     -0.157161   1 Fe px                8     -0.157580   1 Fe pz        
    68     -0.061329   3 Fe px               70     -0.061519   3 Fe pz        

 Vector   18  Occ=1.000000D+00  E=-2.532471D+01
              MO Center= -7.0D-01,  9.5D-01, -7.0D-01, r^2= 8.6D-01
   Bfn.  Coefficient  Atom+Function         Bfn.  Coefficient  Atom+Function  
  ----- ------------  ---------------      ----- ------------  ---------------
    69      0.897530   3 Fe py                7      0.350497   1 Fe py        
    68      0.156828   3 Fe px               70      0.157318   3 Fe pz        
     6     -0.061289   1 Fe px                8     -0.061453   1 Fe pz        

 Vector   19  Occ=1.000000D+00  E=-2.531576D+01
              MO Center=  1.6D-01,  9.5D-01,  1.6D-01, r^2= 1.8D+00
   Bfn.  Coefficient  Atom+Function         Bfn.  Coefficient  Atom+Function  
  ----- ------------  ---------------      ----- ------------  ---------------
     6      0.519745   1 Fe px                8      0.520201   1 Fe pz        
    68      0.440719   3 Fe px               70      0.439347   3 Fe pz        
     7      0.182303   1 Fe py               69     -0.154053   3 Fe py        

 Vector   20  Occ=1.000000D+00  E=-2.531571D+01
              MO Center= -1.6D-01,  9.5D-01, -1.6D-01, r^2= 1.8D+00
   Bfn.  Coefficient  Atom+Function         Bfn.  Coefficient  Atom+Function  
  ----- ------------  ---------------      ----- ------------  ---------------
    68      0.520959   3 Fe px               70      0.519216   3 Fe pz        
     6     -0.439892   1 Fe px                8     -0.440249   1 Fe pz        
    69     -0.181880   3 Fe py                7     -0.154119   1 Fe py        

 Vector   21  Occ=1.000000D+00  E=-2.531525D+01
              MO Center=  5.1D-01,  9.5D-01,  5.1D-01, r^2= 1.3D+00
   Bfn.  Coefficient  Atom+Function         Bfn.  Coefficient  Atom+Function  
  ----- ------------  ---------------      ----- ------------  ---------------
     6      0.615205   1 Fe px                8     -0.614654   1 Fe pz        
    68     -0.337964   3 Fe px               70      0.338959   3 Fe pz        

 Vector   22  Occ=1.000000D+00  E=-2.531523D+01
              MO Center= -5.1D-01,  9.5D-01, -5.1D-01, r^2= 1.3D+00
   Bfn.  Coefficient  Atom+Function         Bfn.  Coefficient  Atom+Function  
  ----- ------------  ---------------      ----- ------------  ---------------
    68      0.614056   3 Fe px               70     -0.615820   3 Fe pz        
     6      0.338675   1 Fe px                8     -0.338285   1 Fe pz        

 Vector   23  Occ=1.000000D+00  E=-2.527327D+01
              MO Center= -9.3D-01, -9.5D-01,  9.3D-01, r^2= 1.0D-01
   Bfn.  Coefficient  Atom+Function         Bfn.  Coefficient  Atom+Function  
  ----- ------------  ---------------      ----- ------------  ---------------
   100      0.966141   4 Fe py               99     -0.144565   4 Fe px        
   101      0.144364   4 Fe pz               38     -0.103068   2 Fe py        

 Vector   24  Occ=1.000000D+00  E=-2.527320D+01
              MO Center=  9.3D-01, -9.5D-01, -9.3D-01, r^2= 1.0D-01
   Bfn.  Coefficient  Atom+Function         Bfn.  Coefficient  Atom+Function  
  ----- ------------  ---------------      ----- ------------  ---------------
    38      0.966118   2 Fe py               37      0.144597   2 Fe px        
    39     -0.144501   2 Fe pz              100      0.103116   4 Fe py        

 Vector   25  Occ=1.000000D+00  E=-2.526729D+01
              MO Center= -8.5D-01, -9.5D-01,  8.5D-01, r^2= 4.1D-01
   Bfn.  Coefficient  Atom+Function         Bfn.  Coefficient  Atom+Function  
  ----- ------------  ---------------      ----- ------------  ---------------
    99      0.666848   4 Fe px              101     -0.667873   4 Fe pz        
   100      0.199440   4 Fe py               37      0.163026   2 Fe px        
    39     -0.162848   2 Fe pz               38     -0.048780   2 Fe py        

 Vector   26  Occ=1.000000D+00  E=-2.526722D+01
              MO Center=  8.5D-01, -9.5D-01, -8.5D-01, r^2= 4.1D-01
   Bfn.  Coefficient  Atom+Function         Bfn.  Coefficient  Atom+Function  
  ----- ------------  ---------------      ----- ------------  ---------------
    37      0.667726   2 Fe px               39     -0.666990   2 Fe pz        
    38     -0.199545   2 Fe py               99     -0.162880   4 Fe px        
   101      0.163139   4 Fe pz              100     -0.048656   4 Fe py        

 Vector   27  Occ=1.000000D+00  E=-2.526625D+01
              MO Center= -9.3D-01, -9.5D-01,  9.3D-01, r^2= 9.6D-02
   Bfn.  Coefficient  Atom+Function         Bfn.  Coefficient  Atom+Function  
  ----- ------------  ---------------      ----- ------------  ---------------
    99      0.699023   4 Fe px              101      0.698036   4 Fe pz        
    37     -0.072339   2 Fe px               39     -0.072409   2 Fe pz        

 Vector   28  Occ=1.000000D+00  E=-2.526619D+01
              MO Center=  9.3D-01, -9.5D-01, -9.3D-01, r^2= 9.6D-02
   Bfn.  Coefficient  Atom+Function         Bfn.  Coefficient  Atom+Function  
  ----- ------------  ---------------      ----- ------------  ---------------
    37      0.698153   2 Fe px               39      0.698910   2 Fe pz        
    99      0.072444   4 Fe px              101      0.072340   4 Fe pz        

 Vector   29  Occ=1.000000D+00  E=-9.740186D+00
              MO Center= -3.3D+00,  3.3D+00, -3.3D+00, r^2= 3.6D-02
   Bfn.  Coefficient  Atom+Function         Bfn.  Coefficient  Atom+Function  
  ----- ------------  ---------------      ----- ------------  ---------------
   309      0.987728  20 C  s               310      0.051929  20 C  s         
   311     -0.042579  20 C  s         

 Vector   30  Occ=1.000000D+00  E=-9.740179D+00
              MO Center=  3.3D+00,  3.3D+00,  3.3D+00, r^2= 3.6D-02
   Bfn.  Coefficient  Atom+Function         Bfn.  Coefficient  Atom+Function  
  ----- ------------  ---------------      ----- ------------  ---------------
   215      0.987728  10 C  s               216      0.051929  10 C  s         
   217     -0.042578  10 C  s         

 Vector   31  Occ=1.000000D+00  E=-9.739864D+00
              MO Center=  3.3D+00, -3.3D+00, -3.3D+00, r^2= 2.8D-02
   Bfn.  Coefficient  Atom+Function         Bfn.  Coefficient  Atom+Function  
  ----- ------------  ---------------      ----- ------------  ---------------
   262      0.987782  15 C  s               263      0.051893  15 C  s         
   264     -0.042569  15 C  s         

 Vector   32  Occ=1.000000D+00  E=-9.739797D+00
              MO Center= -3.3D+00, -3.3D+00,  3.3D+00, r^2= 2.8D-02
   Bfn.  Coefficient  Atom+Function         Bfn.  Coefficient  Atom+Function  
  ----- ------------  ---------------      ----- ------------  ---------------
   356      0.987782  25 C  s               357      0.051893  25 C  s         
   358     -0.042569  25 C  s         

 Vector   33  Occ=1.000000D+00  E=-7.425500D+00
              MO Center= -1.2D+00,  1.3D+00,  1.2D+00, r^2= 7.2D-01
   Bfn.  Coefficient  Atom+Function         Bfn.  Coefficient  Atom+Function  
  ----- ------------  ---------------      ----- ------------  ---------------
   126      0.992192   5 S  s               125      0.298187   5 S  s         
   162      0.224523   7 S  s               161      0.067506   7 S  s         
   127      0.061600   5 S  s               128     -0.042241   5 S  s         
   144      0.030016   6 S  s               180      0.029210   8 S  s         

 Vector   34  Occ=1.000000D+00  E=-7.425397D+00
              MO Center=  1.2D+00,  1.3D+00, -1.2D+00, r^2= 7.2D-01
   Bfn.  Coefficient  Atom+Function         Bfn.  Coefficient  Atom+Function  
  ----- ------------  ---------------      ----- ------------  ---------------
   162      0.992382   7 S  s               161      0.298230   7 S  s         
   126     -0.226197   5 S  s               125     -0.067947   5 S  s         
   163      0.060956   7 S  s               164     -0.040599   7 S  s         

 Vector   35  Occ=1.000000D+00  E=-7.424752D+00
              MO Center=  7.6D-01, -1.3D+00,  7.6D-01, r^2= 2.3D+00
   Bfn.  Coefficient  Atom+Function         Bfn.  Coefficient  Atom+Function  
  ----- ------------  ---------------      ----- ------------  ---------------
   144      0.906366   6 S  s               180      0.461241   8 S  s         
   143      0.272384   6 S  s               179      0.138631   8 S  s         
   145      0.056086   6 S  s               146     -0.038387   6 S  s         
   162     -0.037809   7 S  s               126     -0.032945   5 S  s         
   181      0.029357   8 S  s         

 Vector   36  Occ=1.000000D+00  E=-7.424716D+00
              MO Center= -7.6D-01, -1.3D+00, -7.6D-01, r^2= 2.3D+00
   Bfn.  Coefficient  Atom+Function         Bfn.  Coefficient  Atom+Function  
  ----- ------------  ---------------      ----- ------------  ---------------
   180      0.907131   8 S  s               144     -0.462660   6 S  s         
   179      0.272591   8 S  s               143     -0.139011   6 S  s         
   181      0.055013   8 S  s               182     -0.035551   8 S  s         
   145     -0.027240   6 S  s         

 Vector   37  Occ=1.000000D+00  E=-7.406726D+00
              MO Center=  2.3D+00,  2.3D+00,  2.3D+00, r^2= 1.6D-01
   Bfn.  Coefficient  Atom+Function         Bfn.  Coefficient  Atom+Function  
  ----- ------------  ---------------      ----- ------------  ---------------
   198      1.017669   9 S  s               197      0.305741   9 S  s         
   199      0.056967   9 S  s               292     -0.045834  19 S  s         
   200     -0.029413   9 S  s         

 Vector   38  Occ=1.000000D+00  E=-7.406637D+00
              MO Center= -2.3D+00,  2.3D+00, -2.3D+00, r^2= 1.6D-01
   Bfn.  Coefficient  Atom+Function         Bfn.  Coefficient  Atom+Function  
  ----- ------------  ---------------      ----- ------------  ---------------
   292      1.017669  19 S  s               291      0.305741  19 S  s         
   293      0.056949  19 S  s               198      0.045877   9 S  s         
   294     -0.029371  19 S  s         

 Vector   39  Occ=1.000000D+00  E=-7.405316D+00
              MO Center=  2.3D+00, -2.3D+00, -2.3D+00, r^2= 1.3D-01
   Bfn.  Coefficient  Atom+Function         Bfn.  Coefficient  Atom+Function  
  ----- ------------  ---------------      ----- ------------  ---------------
   245      1.018174  14 S  s               244      0.305870  14 S  s         
   246      0.056549  14 S  s               339     -0.036270  24 S  s         
   247     -0.028882  14 S  s         

 Vector   40  Occ=1.000000D+00  E=-7.405207D+00
              MO Center= -2.3D+00, -2.3D+00,  2.3D+00, r^2= 1.3D-01
   Bfn.  Coefficient  Atom+Function         Bfn.  Coefficient  Atom+Function  
  ----- ------------  ---------------      ----- ------------  ---------------
   339      1.018176  24 S  s               338      0.305870  24 S  s         
   340      0.056535  24 S  s               245      0.036313  14 S  s         
   341     -0.028849  24 S  s         

 Vector   41  Occ=1.000000D+00  E=-5.449319D+00
              MO Center= -1.3D+00,  1.3D+00,  1.3D+00, r^2= 7.6D-02
   Bfn.  Coefficient  Atom+Function         Bfn.  Coefficient  Atom+Function  
  ----- ------------  ---------------      ----- ------------  ---------------
   130      0.869290   5 S  py              129     -0.320749   5 S  px        
   131      0.321589   5 S  pz              133     -0.047060   5 S  py        

 Vector   42  Occ=1.000000D+00  E=-5.449223D+00
              MO Center=  1.3D+00,  1.3D+00, -1.3D+00, r^2= 7.7D-02
   Bfn.  Coefficient  Atom+Function         Bfn.  Coefficient  Atom+Function  
  ----- ------------  ---------------      ----- ------------  ---------------
   166      0.868648   7 S  py              165      0.321965   7 S  px        
   167     -0.322104   7 S  pz              169     -0.047024   7 S  py        

 Vector   43  Occ=1.000000D+00  E=-5.448675D+00
              MO Center= -1.3D+00,  1.3D+00,  1.3D+00, r^2= 1.3D-01
   Bfn.  Coefficient  Atom+Function         Bfn.  Coefficient  Atom+Function  
  ----- ------------  ---------------      ----- ------------  ---------------
   131     -0.615089   5 S  pz              129      0.611983   5 S  px        
   130      0.453519   5 S  py              148      0.044312   6 S  py        
   132     -0.032990   5 S  px              134      0.033153   5 S  pz        
   184      0.031749   8 S  py        

 Vector   44  Occ=1.000000D+00  E=-5.448623D+00
              MO Center=  1.3D+00, -1.3D+00,  1.3D+00, r^2= 2.6D-01
   Bfn.  Coefficient  Atom+Function         Bfn.  Coefficient  Atom+Function  
  ----- ------------  ---------------      ----- ------------  ---------------
   148      0.862486   6 S  py              147     -0.320240   6 S  px        
   149     -0.319564   6 S  pz              184      0.077024   8 S  py        
   151     -0.046658   6 S  py              167      0.041788   7 S  pz        
   131      0.040724   5 S  pz              165     -0.033652   7 S  px        
   185      0.027735   8 S  pz              166      0.027229   7 S  py        

 Vector   45  Occ=1.000000D+00  E=-5.448600D+00
              MO Center= -1.2D+00, -1.3D+00, -1.3D+00, r^2= 3.8D-01
   Bfn.  Coefficient  Atom+Function         Bfn.  Coefficient  Atom+Function  
  ----- ------------  ---------------      ----- ------------  ---------------
   184      0.858076   8 S  py              183      0.318961   8 S  px        
   185      0.319188   8 S  pz              148     -0.082695   6 S  py        
   165     -0.075942   7 S  px              167      0.063651   7 S  pz        
   166      0.051154   7 S  py              187     -0.046417   8 S  py        
   149      0.032351   6 S  pz              129     -0.031662   5 S  px        

 Vector   46  Occ=1.000000D+00  E=-5.448580D+00
              MO Center=  1.3D+00,  1.3D+00, -1.3D+00, r^2= 3.0D-01
   Bfn.  Coefficient  Atom+Function         Bfn.  Coefficient  Atom+Function  
  ----- ------------  ---------------      ----- ------------  ---------------
   165      0.612110   7 S  px              167     -0.605978   7 S  pz        
   166     -0.451933   7 S  py              184      0.102363   8 S  py        
   148      0.043463   6 S  py              183      0.042631   8 S  px        
   185      0.037987   8 S  pz              168     -0.032955   7 S  px        
   170      0.032639   7 S  pz        

 Vector   47  Occ=1.000000D+00  E=-5.448513D+00
              MO Center= -1.3D+00,  1.3D+00,  1.3D+00, r^2= 1.4D-01
   Bfn.  Coefficient  Atom+Function         Bfn.  Coefficient  Atom+Function  
  ----- ------------  ---------------      ----- ------------  ---------------
   129      0.693538   5 S  px              131      0.690318   5 S  pz        
   167      0.050015   7 S  pz              165      0.049201   7 S  px        
   132     -0.036942   5 S  px              134     -0.036767   5 S  pz        

 Vector   48  Occ=1.000000D+00  E=-5.448419D+00
              MO Center=  1.3D+00,  1.3D+00, -1.3D+00, r^2= 1.4D-01
   Bfn.  Coefficient  Atom+Function         Bfn.  Coefficient  Atom+Function  
  ----- ------------  ---------------      ----- ------------  ---------------
   167      0.695071   7 S  pz              165      0.689001   7 S  px        
   129     -0.049946   5 S  px              131     -0.049722   5 S  pz        
   170     -0.037003   7 S  pz              168     -0.036676   7 S  px        

 Vector   49  Occ=1.000000D+00  E=-5.447660D+00
              MO Center=  1.3D+00, -1.3D+00,  1.3D+00, r^2= 1.3D-01
   Bfn.  Coefficient  Atom+Function         Bfn.  Coefficient  Atom+Function  
  ----- ------------  ---------------      ----- ------------  ---------------
   149      0.615370   6 S  pz              147      0.610378   6 S  px        
   148      0.455046   6 S  py              183     -0.042630   8 S  px        
   185     -0.042437   8 S  pz              152     -0.033087   6 S  pz        
   150     -0.032822   6 S  px              184      0.029892   8 S  py        

 Vector   50  Occ=1.000000D+00  E=-5.447638D+00
              MO Center= -1.3D+00, -1.3D+00, -1.3D+00, r^2= 1.3D-01
   Bfn.  Coefficient  Atom+Function         Bfn.  Coefficient  Atom+Function  
  ----- ------------  ---------------      ----- ------------  ---------------
   183      0.613185   8 S  px              185      0.611786   8 S  pz        
   184     -0.456109   8 S  py              149      0.041725   6 S  pz        
   147      0.041381   6 S  px              186     -0.032950   8 S  px        
   188     -0.032875   8 S  pz              148      0.032559   6 S  py        

 Vector   51  Occ=1.000000D+00  E=-5.447388D+00
              MO Center=  1.1D+00, -1.3D+00,  1.1D+00, r^2= 1.1D+00
   Bfn.  Coefficient  Atom+Function         Bfn.  Coefficient  Atom+Function  
  ----- ------------  ---------------      ----- ------------  ---------------
   147      0.667555   6 S  px              149     -0.663352   6 S  pz        
   183      0.196350   8 S  px              185     -0.196767   8 S  pz        
   150     -0.035515   6 S  px              152      0.035289   6 S  pz        

 Vector   52  Occ=1.000000D+00  E=-5.447364D+00
              MO Center= -1.1D+00, -1.3D+00, -1.1D+00, r^2= 1.1D+00
   Bfn.  Coefficient  Atom+Function         Bfn.  Coefficient  Atom+Function  
  ----- ------------  ---------------      ----- ------------  ---------------
   183      0.664780   8 S  px              185     -0.666172   8 S  pz        
   147     -0.197195   6 S  px              149      0.196046   6 S  pz        
   186     -0.035277   8 S  px              188      0.035352   8 S  pz        

 Vector   53  Occ=1.000000D+00  E=-5.436177D+00
              MO Center=  2.3D+00,  2.3D+00,  2.3D+00, r^2= 9.0D-02
   Bfn.  Coefficient  Atom+Function         Bfn.  Coefficient  Atom+Function  
  ----- ------------  ---------------      ----- ------------  ---------------
   201      0.567142   9 S  px              203      0.567183   9 S  pz        
   202      0.563525   9 S  py              204     -0.032400   9 S  px        
   206     -0.032402   9 S  pz              205     -0.032207   9 S  py        

 Vector   54  Occ=1.000000D+00  E=-5.436088D+00
              MO Center= -2.3D+00,  2.3D+00, -2.3D+00, r^2= 9.0D-02
   Bfn.  Coefficient  Atom+Function         Bfn.  Coefficient  Atom+Function  
  ----- ------------  ---------------      ----- ------------  ---------------
   295      0.567160  19 S  px              297      0.567178  19 S  pz        
   296     -0.563510  19 S  py              298     -0.032400  19 S  px        
   300     -0.032401  19 S  pz              299      0.032205  19 S  py        

 Vector   55  Occ=1.000000D+00  E=-5.435359D+00
              MO Center=  2.3D+00, -2.3D+00, -2.3D+00, r^2= 8.1D-02
   Bfn.  Coefficient  Atom+Function         Bfn.  Coefficient  Atom+Function  
  ----- ------------  ---------------      ----- ------------  ---------------
   248      0.567020  14 S  px              250     -0.567014  14 S  pz        
   249     -0.564029  14 S  py              251     -0.032337  14 S  px        
   253      0.032336  14 S  pz              252      0.032175  14 S  py        

 Vector   56  Occ=1.000000D+00  E=-5.435250D+00
              MO Center= -2.3D+00, -2.3D+00,  2.3D+00, r^2= 8.1D-02
   Bfn.  Coefficient  Atom+Function         Bfn.  Coefficient  Atom+Function  
  ----- ------------  ---------------      ----- ------------  ---------------
   342      0.567021  24 S  px              344     -0.567017  24 S  pz        
   343      0.564028  24 S  py              345     -0.032336  24 S  px        
   347      0.032336  24 S  pz              346     -0.032174  24 S  py        

 Vector   57  Occ=1.000000D+00  E=-5.427002D+00
              MO Center=  2.3D+00,  2.3D+00,  2.3D+00, r^2= 7.0D-02
   Bfn.  Coefficient  Atom+Function         Bfn.  Coefficient  Atom+Function  
  ----- ------------  ---------------      ----- ------------  ---------------
   202      0.802630   9 S  py              203     -0.420778   9 S  pz        
   201     -0.376714   9 S  px              205     -0.042154   9 S  py        

 Vector   58  Occ=1.000000D+00  E=-5.426952D+00
              MO Center=  2.3D+00,  2.3D+00,  2.3D+00, r^2= 7.2D-02
   Bfn.  Coefficient  Atom+Function         Bfn.  Coefficient  Atom+Function  
  ----- ------------  ---------------      ----- ------------  ---------------
   201      0.706284   9 S  px              203     -0.680920   9 S  pz        
   204     -0.037084   9 S  px              206      0.035752   9 S  pz        
   202     -0.025476   9 S  py        

 Vector   59  Occ=1.000000D+00  E=-5.426911D+00
              MO Center= -2.3D+00,  2.3D+00, -2.3D+00, r^2= 7.0D-02
   Bfn.  Coefficient  Atom+Function         Bfn.  Coefficient  Atom+Function  
  ----- ------------  ---------------      ----- ------------  ---------------
   296      0.803026  19 S  py              295      0.403577  19 S  px        
   297      0.394280  19 S  pz              299     -0.042176  19 S  py        

 Vector   60  Occ=1.000000D+00  E=-5.426864D+00
              MO Center= -2.3D+00,  2.3D+00, -2.3D+00, r^2= 7.2D-02
   Bfn.  Coefficient  Atom+Function         Bfn.  Coefficient  Atom+Function  
  ----- ------------  ---------------      ----- ------------  ---------------
   297     -0.696602  19 S  pz              295      0.691269  19 S  px        
   300      0.036576  19 S  pz              298     -0.036296  19 S  px        

 Vector   61  Occ=1.000000D+00  E=-5.424591D+00
              MO Center=  2.3D+00, -2.3D+00, -2.3D+00, r^2= 7.0D-02
   Bfn.  Coefficient  Atom+Function         Bfn.  Coefficient  Atom+Function  
  ----- ------------  ---------------      ----- ------------  ---------------
   249      0.802100  14 S  py              248      0.428292  14 S  px        
   250     -0.369586  14 S  pz              252     -0.041906  14 S  py        

 Vector   62  Occ=1.000000D+00  E=-5.424560D+00
              MO Center=  2.3D+00, -2.3D+00, -2.3D+00, r^2= 7.1D-02
   Bfn.  Coefficient  Atom+Function         Bfn.  Coefficient  Atom+Function  
  ----- ------------  ---------------      ----- ------------  ---------------
   250      0.710302  14 S  pz              248      0.676523  14 S  px        
   253     -0.037104  14 S  pz              251     -0.035340  14 S  px        
   249     -0.033951  14 S  py        

 Vector   63  Occ=1.000000D+00  E=-5.424480D+00
              MO Center= -2.3D+00, -2.3D+00,  2.3D+00, r^2= 7.0D-02
   Bfn.  Coefficient  Atom+Function         Bfn.  Coefficient  Atom+Function  
  ----- ------------  ---------------      ----- ------------  ---------------
   343      0.802453  24 S  py              344      0.420040  24 S  pz        
   342     -0.378187  24 S  px              346     -0.041925  24 S  py        

 Vector   64  Occ=1.000000D+00  E=-5.424448D+00
              MO Center= -2.3D+00, -2.3D+00,  2.3D+00, r^2= 7.1D-02
   Bfn.  Coefficient  Atom+Function         Bfn.  Coefficient  Atom+Function  
  ----- ------------  ---------------      ----- ------------  ---------------
   342      0.705757  24 S  px              344      0.681679  24 S  pz        
   345     -0.036868  24 S  px              347     -0.035610  24 S  pz        

 Vector   65  Occ=1.000000D+00  E=-3.114803D+00
              MO Center=  1.4D-02,  9.5D-01,  1.4D-02, r^2= 2.0D+00
   Bfn.  Coefficient  Atom+Function         Bfn.  Coefficient  Atom+Function  
  ----- ------------  ---------------      ----- ------------  ---------------
     3      0.771464   1 Fe s                65      0.760444   3 Fe s         
     2     -0.334272   1 Fe s                64     -0.329497   3 Fe s         
     1      0.089017   1 Fe s                63      0.087745   3 Fe s         

 Vector   66  Occ=1.000000D+00  E=-3.114584D+00
              MO Center= -1.4D-02,  9.5D-01, -1.4D-02, r^2= 2.0D+00
   Bfn.  Coefficient  Atom+Function         Bfn.  Coefficient  Atom+Function  
  ----- ------------  ---------------      ----- ------------  ---------------
    65     -0.771537   3 Fe s                 3      0.760517   1 Fe s         
    64      0.334342   3 Fe s                 2     -0.329567   1 Fe s         
    63     -0.089031   3 Fe s                 1      0.087760   1 Fe s         

 Vector   67  Occ=1.000000D+00  E=-2.980029D+00
              MO Center= -1.6D-01, -9.6D-01,  1.6D-01, r^2= 2.0D+00
   Bfn.  Coefficient  Atom+Function         Bfn.  Coefficient  Atom+Function  
  ----- ------------  ---------------      ----- ------------  ---------------
    96      0.826731   4 Fe s                34      0.696603   2 Fe s         
    95     -0.357758   4 Fe s                33     -0.301420   2 Fe s         
    94      0.095193   4 Fe s                32      0.080205   2 Fe s         

 Vector   68  Occ=1.000000D+00  E=-2.979779D+00
              MO Center=  1.6D-01, -9.6D-01, -1.6D-01, r^2= 2.0D+00
   Bfn.  Coefficient  Atom+Function         Bfn.  Coefficient  Atom+Function  
  ----- ------------  ---------------      ----- ------------  ---------------
    34      0.826403   2 Fe s                96     -0.696219   4 Fe s         
    33     -0.357775   2 Fe s                95      0.301441   4 Fe s         
    32      0.095184   2 Fe s                94     -0.080194   4 Fe s         

 Vector   69  Occ=1.000000D+00  E=-1.941262D+00
              MO Center=  6.4D-02,  9.5D-01,  6.4D-02, r^2= 2.1D+00
   Bfn.  Coefficient  Atom+Function         Bfn.  Coefficient  Atom+Function  
  ----- ------------  ---------------      ----- ------------  ---------------
    10      0.766582   1 Fe py               72      0.716894   3 Fe py        
     7     -0.285674   1 Fe py               69     -0.267158   3 Fe py        
     9     -0.104913   1 Fe px               11     -0.105276   1 Fe pz        
    71      0.098479   3 Fe px               73      0.098910   3 Fe pz        
     6      0.039106   1 Fe px                8      0.039242   1 Fe pz        

 Vector   70  Occ=1.000000D+00  E=-1.941017D+00
              MO Center= -6.4D-02,  9.5D-01, -6.4D-02, r^2= 2.1D+00
   Bfn.  Coefficient  Atom+Function         Bfn.  Coefficient  Atom+Function  
  ----- ------------  ---------------      ----- ------------  ---------------
    72     -0.769518   3 Fe py               10      0.719877   1 Fe py        
    69      0.286759   3 Fe py                7     -0.268260   1 Fe py        
    71     -0.094713   3 Fe px               73     -0.095186   3 Fe pz        
     9     -0.088272   1 Fe px               11     -0.088621   1 Fe pz        
    68      0.035295   3 Fe px               70      0.035471   3 Fe pz        

 Vector   71  Occ=1.000000D+00  E=-1.925918D+00
              MO Center= -3.0D-03,  9.5D-01, -3.0D-03, r^2= 2.1D+00
   Bfn.  Coefficient  Atom+Function         Bfn.  Coefficient  Atom+Function  
  ----- ------------  ---------------      ----- ------------  ---------------
     9      0.523067   1 Fe px               11      0.523196   1 Fe pz        
    71     -0.524967   3 Fe px               73     -0.524695   3 Fe pz        
     6     -0.194912   1 Fe px                8     -0.194960   1 Fe pz        
    68      0.195620   3 Fe px               70      0.195518   3 Fe pz        
    10      0.144014   1 Fe py               72      0.143985   3 Fe py        

 Vector   72  Occ=1.000000D+00  E=-1.923917D+00
              MO Center=  3.0D-03,  9.6D-01,  3.0D-03, r^2= 2.1D+00
   Bfn.  Coefficient  Atom+Function         Bfn.  Coefficient  Atom+Function  
  ----- ------------  ---------------      ----- ------------  ---------------
     9      0.527952   1 Fe px               11      0.528336   1 Fe pz        
    71      0.526839   3 Fe px               73      0.526285   3 Fe pz        
     6     -0.196665   1 Fe px                8     -0.196808   1 Fe pz        
    68     -0.196250   3 Fe px               70     -0.196044   3 Fe pz        
    10      0.129889   1 Fe py               72     -0.129055   3 Fe py        

 Vector   73  Occ=1.000000D+00  E=-1.922866D+00
              MO Center= -6.5D-04,  9.5D-01, -6.6D-04, r^2= 2.1D+00
   Bfn.  Coefficient  Atom+Function         Bfn.  Coefficient  Atom+Function  
  ----- ------------  ---------------      ----- ------------  ---------------
     9      0.534294   1 Fe px               11     -0.534121   1 Fe pz        
    71      0.534474   3 Fe px               73     -0.534676   3 Fe pz        
     6     -0.199073   1 Fe px                8      0.199009   1 Fe pz        
    68     -0.199140   3 Fe px               70      0.199216   3 Fe pz        

 Vector   74  Occ=1.000000D+00  E=-1.922629D+00
              MO Center=  6.6D-04,  9.5D-01,  6.6D-04, r^2= 2.1D+00
   Bfn.  Coefficient  Atom+Function         Bfn.  Coefficient  Atom+Function  
  ----- ------------  ---------------      ----- ------------  ---------------
     9      0.535066   1 Fe px               11     -0.534605   1 Fe pz        
    71     -0.534244   3 Fe px               73      0.534692   3 Fe pz        
     6     -0.199350   1 Fe px                8      0.199179   1 Fe pz        
    68      0.199044   3 Fe px               70     -0.199211   3 Fe pz        

 Vector   75  Occ=1.000000D+00  E=-1.803530D+00
              MO Center= -1.9D-01, -9.5D-01,  1.9D-01, r^2= 2.0D+00
   Bfn.  Coefficient  Atom+Function         Bfn.  Coefficient  Atom+Function  
  ----- ------------  ---------------      ----- ------------  ---------------
   103      0.825220   4 Fe py               41      0.673354   2 Fe py        
   100     -0.306762   4 Fe py               38     -0.250309   2 Fe py        
   102      0.028863   4 Fe px              104     -0.028842   4 Fe pz        

 Vector   76  Occ=1.000000D+00  E=-1.803306D+00
              MO Center=  1.9D-01, -9.5D-01, -1.9D-01, r^2= 2.0D+00
   Bfn.  Coefficient  Atom+Function         Bfn.  Coefficient  Atom+Function  
  ----- ------------  ---------------      ----- ------------  ---------------
    41      0.825791   2 Fe py              103     -0.674068   4 Fe py        
    38     -0.306974   2 Fe py              100      0.250573   4 Fe py        

 Vector   77  Occ=1.000000D+00  E=-1.797923D+00
              MO Center= -1.6D-02, -9.5D-01,  1.6D-02, r^2= 2.1D+00
   Bfn.  Coefficient  Atom+Function         Bfn.  Coefficient  Atom+Function  
  ----- ------------  ---------------      ----- ------------  ---------------
   102     -0.535757   4 Fe px              104      0.536121   4 Fe pz        
    40      0.527380   2 Fe px               42     -0.527105   2 Fe pz        
    99      0.199190   4 Fe px              101     -0.199325   4 Fe pz        
    37     -0.196077   2 Fe px               39      0.195974   2 Fe pz        
   103      0.038934   4 Fe py               41      0.038657   2 Fe py        

 Vector   78  Occ=1.000000D+00  E=-1.795517D+00
              MO Center=  1.6D-02, -9.6D-01, -1.6D-02, r^2= 2.1D+00
   Bfn.  Coefficient  Atom+Function         Bfn.  Coefficient  Atom+Function  
  ----- ------------  ---------------      ----- ------------  ---------------
    40      0.537970   2 Fe px               42     -0.537533   2 Fe pz        
   102      0.528795   4 Fe px              104     -0.529390   4 Fe pz        
    37     -0.199961   2 Fe px               39      0.199798   2 Fe pz        
    99     -0.196549   4 Fe px              101      0.196771   4 Fe pz        
    41      0.028372   2 Fe py              103     -0.027733   4 Fe py        

 Vector   79  Occ=1.000000D+00  E=-1.792567D+00
              MO Center= -1.2D-01, -9.5D-01,  1.2D-01, r^2= 2.0D+00
   Bfn.  Coefficient  Atom+Function         Bfn.  Coefficient  Atom+Function  
  ----- ------------  ---------------      ----- ------------  ---------------
   102      0.566232   4 Fe px              104      0.565800   4 Fe pz        
    40      0.498002   2 Fe px               42      0.498202   2 Fe pz        
    99     -0.210472   4 Fe px              101     -0.210311   4 Fe pz        
    37     -0.185111   2 Fe px               39     -0.185185   2 Fe pz        

 Vector   80  Occ=1.000000D+00  E=-1.792274D+00
              MO Center=  1.2D-01, -9.5D-01, -1.2D-01, r^2= 2.0D+00
   Bfn.  Coefficient  Atom+Function         Bfn.  Coefficient  Atom+Function  
  ----- ------------  ---------------      ----- ------------  ---------------
    40      0.565977   2 Fe px               42      0.566462   2 Fe pz        
   102     -0.498600   4 Fe px              104     -0.498071   4 Fe pz        
    37     -0.210374   2 Fe px               39     -0.210554   2 Fe pz        
    99      0.185330   4 Fe px              101      0.185133   4 Fe pz        

 Vector   81  Occ=1.000000D+00  E=-4.742266D-01
              MO Center=  2.0D+00,  3.1D+00,  2.0D+00, r^2= 1.3D+01
   Bfn.  Coefficient  Atom+Function         Bfn.  Coefficient  Atom+Function  
  ----- ------------  ---------------      ----- ------------  ---------------
   216      0.405803  10 C  s               199      0.317775   9 S  s         
   198     -0.230157   9 S  s               215     -0.201837  10 C  s         
   310      0.191490  20 C  s               293      0.149999  19 S  s         
   200      0.138003   9 S  s               229      0.132176  11 H  s         
   234      0.132194  12 H  s               239      0.132243  13 H  s         

 Vector   82  Occ=1.000000D+00  E=-4.742036D-01
              MO Center= -2.0D+00,  3.1D+00, -2.0D+00, r^2= 1.3D+01
   Bfn.  Coefficient  Atom+Function         Bfn.  Coefficient  Atom+Function  
  ----- ------------  ---------------      ----- ------------  ---------------
   310      0.406017  20 C  s               293      0.317702  19 S  s         
   292     -0.230043  19 S  s               309     -0.201901  20 C  s         
   216     -0.191852  10 C  s               199     -0.150073   9 S  s         
   294      0.137685  19 S  s               323      0.132321  21 H  s         
   328      0.132283  22 H  s               333      0.132275  23 H  s         

 Vector   83  Occ=1.000000D+00  E=-4.705911D-01
              MO Center=  2.9D+00, -3.1D+00, -2.9D+00, r^2= 3.4D+00
   Bfn.  Coefficient  Atom+Function         Bfn.  Coefficient  Atom+Function  
  ----- ------------  ---------------      ----- ------------  ---------------
   263      0.448744  15 C  s               246      0.327924  14 S  s         
   245     -0.239889  14 S  s               262     -0.223267  15 C  s         
   247      0.148882  14 S  s               276      0.147107  16 H  s         
   281      0.147089  17 H  s               286      0.147109  18 H  s         
   357      0.074497  25 C  s               264      0.070554  15 C  s         

 Vector   84  Occ=1.000000D+00  E=-4.705343D-01
              MO Center= -2.9D+00, -3.1D+00,  2.9D+00, r^2= 3.4D+00
   Bfn.  Coefficient  Atom+Function         Bfn.  Coefficient  Atom+Function  
  ----- ------------  ---------------      ----- ------------  ---------------
   357      0.448804  25 C  s               340      0.327863  24 S  s         
   339     -0.239828  24 S  s               356     -0.223291  25 C  s         
   341      0.148773  24 S  s               370      0.147149  26 H  s         
   375      0.147127  27 H  s               380      0.147144  28 H  s         
   263     -0.074813  15 C  s               358      0.070287  25 C  s         

 Vector   85  Occ=1.000000D+00  E=-3.933262D-01
              MO Center= -1.5D-03,  2.1D-01,  1.9D-03, r^2= 5.1D+00
   Bfn.  Coefficient  Atom+Function         Bfn.  Coefficient  Atom+Function  
  ----- ------------  ---------------      ----- ------------  ---------------
   127      0.357837   5 S  s               163      0.356879   7 S  s         
   145      0.287936   6 S  s               181      0.287821   8 S  s         
   126     -0.257344   5 S  s               162     -0.256649   7 S  s         
   144     -0.212490   6 S  s               180     -0.212409   8 S  s         
   128      0.159278   5 S  s               164      0.158751   7 S  s         

 Vector   86  Occ=1.000000D+00  E=-3.720584D-01
              MO Center= -1.1D-02,  1.2D+00,  1.1D-02, r^2= 4.0D+00
   Bfn.  Coefficient  Atom+Function         Bfn.  Coefficient  Atom+Function  
  ----- ------------  ---------------      ----- ------------  ---------------
   127      0.496035   5 S  s               163     -0.491357   7 S  s         
   126     -0.358343   5 S  s               162      0.354988   7 S  s         
   128      0.259116   5 S  s               164     -0.256691   7 S  s         
   125     -0.057419   5 S  s                79      0.057066   3 Fe d  0      
    17     -0.056617   1 Fe d  0            161      0.056882   7 S  s         

 Vector   87  Occ=1.000000D+00  E=-3.699021D-01
              MO Center=  1.5D-02, -2.0D-01, -9.2D-03, r^2= 5.3D+00
   Bfn.  Coefficient  Atom+Function         Bfn.  Coefficient  Atom+Function  
  ----- ------------  ---------------      ----- ------------  ---------------
   145      0.372792   6 S  s               181      0.371106   8 S  s         
   163     -0.325191   7 S  s               127     -0.317004   5 S  s         
   144     -0.272200   6 S  s               180     -0.270977   8 S  s         
   162      0.233680   7 S  s               126      0.227760   5 S  s         
   146      0.206037   6 S  s               182      0.205137   8 S  s         

 Vector   88  Occ=1.000000D+00  E=-3.680246D-01
              MO Center= -3.2D-03, -1.1D+00, -3.2D-03, r^2= 4.1D+00
   Bfn.  Coefficient  Atom+Function         Bfn.  Coefficient  Atom+Function  
  ----- ------------  ---------------      ----- ------------  ---------------
   145      0.490320   6 S  s               181     -0.491652   8 S  s         
   144     -0.356067   6 S  s               180      0.357043   8 S  s         
   146      0.263231   6 S  s               182     -0.263976   8 S  s         
     4      0.062051   1 Fe s                66     -0.061947   3 Fe s         
   143     -0.057061   6 S  s               179      0.057217   8 S  s         

 Vector   89  Occ=1.000000D+00  E=-3.298736D-01
              MO Center=  2.0D-01,  2.7D+00,  2.0D-01, r^2= 1.7D+01
   Bfn.  Coefficient  Atom+Function         Bfn.  Coefficient  Atom+Function  
  ----- ------------  ---------------      ----- ------------  ---------------
   199      0.441743   9 S  s               293     -0.410548  19 S  s         
   198     -0.308672   9 S  s               292      0.286861  19 S  s         
   200      0.190421   9 S  s               294     -0.176814  19 S  s         
   216     -0.172935  10 C  s               310      0.160701  20 C  s         
   229     -0.100678  11 H  s               234     -0.100859  12 H  s         

 Vector   90  Occ=1.000000D+00  E=-3.294838D-01
              MO Center= -2.0D-01,  2.7D+00, -2.0D-01, r^2= 1.7D+01
   Bfn.  Coefficient  Atom+Function         Bfn.  Coefficient  Atom+Function  
  ----- ------------  ---------------      ----- ------------  ---------------
   293      0.439942  19 S  s               199      0.408602   9 S  s         
   292     -0.307726  19 S  s               198     -0.285818   9 S  s         
   294      0.192006  19 S  s               200      0.178488   9 S  s         
   310     -0.171826  20 C  s               216     -0.159607  10 C  s         
   323     -0.100711  21 H  s               328     -0.100503  22 H  s         

 Vector   91  Occ=1.000000D+00  E=-3.233491D-01
              MO Center=  3.1D-01, -2.7D+00, -3.1D-01, r^2= 1.7D+01
   Bfn.  Coefficient  Atom+Function         Bfn.  Coefficient  Atom+Function  
  ----- ------------  ---------------      ----- ------------  ---------------
   246      0.451583  14 S  s               340     -0.401744  24 S  s         
   245     -0.318695  14 S  s               339      0.283534  24 S  s         
   247      0.205221  14 S  s               341     -0.182482  24 S  s         
   263     -0.168068  15 C  s               357      0.149555  25 C  s         
   276     -0.101100  16 H  s               281     -0.101057  17 H  s         

 Vector   92  Occ=1.000000D+00  E=-3.228999D-01
              MO Center= -3.1D-01, -2.7D+00,  3.1D-01, r^2= 1.7D+01
   Bfn.  Coefficient  Atom+Function         Bfn.  Coefficient  Atom+Function  
  ----- ------------  ---------------      ----- ------------  ---------------
   340      0.450069  24 S  s               246      0.400041  14 S  s         
   339     -0.317657  24 S  s               245     -0.282335  14 S  s         
   341      0.205596  24 S  s               247      0.182824  14 S  s         
   357     -0.166914  25 C  s               263     -0.148325  15 C  s         
   370     -0.100643  26 H  s               375     -0.100670  27 H  s         

 Vector   93  Occ=1.000000D+00  E=-1.839999D-01
              MO Center=  1.3D+00,  3.3D+00,  1.6D+00, r^2= 2.1D+01
   Bfn.  Coefficient  Atom+Function         Bfn.  Coefficient  Atom+Function  
  ----- ------------  ---------------      ----- ------------  ---------------
   239     -0.290756  13 H  s               219      0.286776  10 C  py        
   220     -0.232828  10 C  pz              229      0.190480  11 H  s         
   323     -0.183735  21 H  s               313      0.181673  20 C  py        
   312      0.146611  20 C  px              240     -0.126131  13 H  s         
   333      0.121237  23 H  s               222      0.113390  10 C  py        

 Vector   94  Occ=1.000000D+00  E=-1.839943D-01
              MO Center= -1.6D+00,  3.3D+00, -1.4D+00, r^2= 2.1D+01
   Bfn.  Coefficient  Atom+Function         Bfn.  Coefficient  Atom+Function  
  ----- ------------  ---------------      ----- ------------  ---------------
   323     -0.291676  21 H  s               313      0.284797  20 C  py        
   312      0.236576  20 C  px              333      0.186026  23 H  s         
   239      0.184687  13 H  s               219     -0.179630  10 C  py        
   220      0.150566  10 C  pz              324     -0.126319  21 H  s         
   229     -0.116504  11 H  s               316      0.112665  20 C  py        

 Vector   95  Occ=1.000000D+00  E=-1.839660D-01
              MO Center=  2.0D+00,  3.5D+00,  1.8D+00, r^2= 1.6D+01
   Bfn.  Coefficient  Atom+Function         Bfn.  Coefficient  Atom+Function  
  ----- ------------  ---------------      ----- ------------  ---------------
   218      0.314326  10 C  px              234      0.290781  12 H  s         
   229     -0.237033  11 H  s               220     -0.205324  10 C  pz        
   314     -0.164709  20 C  pz              328      0.153483  22 H  s         
   235      0.126174  12 H  s               221      0.124317  10 C  px        
   333     -0.123050  23 H  s               219     -0.109229  10 C  py        

 Vector   96  Occ=1.000000D+00  E=-1.839620D-01
              MO Center= -1.8D+00,  3.5D+00, -2.0D+00, r^2= 1.6D+01
   Bfn.  Coefficient  Atom+Function         Bfn.  Coefficient  Atom+Function  
  ----- ------------  ---------------      ----- ------------  ---------------
   314      0.315218  20 C  pz              328     -0.288895  22 H  s         
   333      0.240489  23 H  s               312     -0.201110  20 C  px        
   218      0.165799  10 C  px              234      0.151076  12 H  s         
   229     -0.127415  11 H  s               329     -0.125283  22 H  s         
   317      0.124659  20 C  pz              313      0.114465  20 C  py        

 Vector   97  Occ=1.000000D+00  E=-1.825390D-01
              MO Center=  3.5D+00, -3.4D+00, -3.2D+00, r^2= 1.4D+00
   Bfn.  Coefficient  Atom+Function         Bfn.  Coefficient  Atom+Function  
  ----- ------------  ---------------      ----- ------------  ---------------
   266      0.361221  15 C  py              286     -0.308837  18 H  s         
   276      0.296971  16 H  s               267     -0.191234  15 C  pz        
   265      0.169949  15 C  px              269      0.143164  15 C  py        
   287     -0.134527  18 H  s               277      0.128950  16 H  s         
   270     -0.075789  15 C  pz              268      0.067586  15 C  px        

 Vector   98  Occ=1.000000D+00  E=-1.825154D-01
              MO Center=  3.2D+00, -3.4D+00, -3.5D+00, r^2= 1.3D+00
   Bfn.  Coefficient  Atom+Function         Bfn.  Coefficient  Atom+Function  
  ----- ------------  ---------------      ----- ------------  ---------------
   281     -0.349895  17 H  s               265      0.319094  15 C  px        
   267      0.306803  15 C  pz              276      0.185238  16 H  s         
   286      0.164676  18 H  s               282     -0.152142  17 H  s         
   268      0.126567  15 C  px              270      0.121618  15 C  pz        
   277      0.080427  16 H  s               287      0.071769  18 H  s         

 Vector   99  Occ=1.000000D+00  E=-1.824990D-01
              MO Center= -3.2D+00, -3.4D+00,  3.5D+00, r^2= 1.4D+00
   Bfn.  Coefficient  Atom+Function         Bfn.  Coefficient  Atom+Function  
  ----- ------------  ---------------      ----- ------------  ---------------
   360      0.360816  25 C  py              370     -0.312664  26 H  s         
   380      0.292495  28 H  s               359     -0.198444  25 C  px        
   361      0.162320  25 C  pz              363      0.142998  25 C  py        
   371     -0.136233  26 H  s               381      0.127010  28 H  s         
   362     -0.078640  25 C  px              364      0.064556  25 C  pz        

 Vector  100  Occ=1.000000D+00  E=-1.824760D-01
              MO Center= -3.6D+00, -3.4D+00,  3.2D+00, r^2= 1.3D+00
   Bfn.  Coefficient  Atom+Function         Bfn.  Coefficient  Atom+Function  
  ----- ------------  ---------------      ----- ------------  ---------------
   375      0.349524  27 H  s               361     -0.323059  25 C  pz        
   359     -0.302140  25 C  px              380     -0.192289  28 H  s         
   370     -0.157256  26 H  s               376      0.152006  27 H  s         
   364     -0.128140  25 C  pz              362     -0.119764  25 C  px        
   381     -0.083497  28 H  s               371     -0.068548  26 H  s         

 Vector  101  Occ=1.000000D+00  E=-1.343174D-01
              MO Center=  6.3D-03,  1.6D+00,  5.8D-03, r^2= 1.3D+01
   Bfn.  Coefficient  Atom+Function         Bfn.  Coefficient  Atom+Function  
  ----- ------------  ---------------      ----- ------------  ---------------
     4      0.178444   1 Fe s                66      0.177949   3 Fe s         
    15      0.124992   1 Fe d -2             16      0.125030   1 Fe d -1      
    77     -0.124721   3 Fe d -2             78     -0.124745   3 Fe d -1      
   218      0.119229  10 C  px              219      0.119440  10 C  py        
   220      0.119228  10 C  pz              312     -0.118800  20 C  px        

 Vector  102  Occ=1.000000D+00  E=-1.278402D-01
              MO Center= -4.8D-03,  2.3D+00, -4.8D-03, r^2= 1.4D+01
   Bfn.  Coefficient  Atom+Function         Bfn.  Coefficient  Atom+Function  
  ----- ------------  ---------------      ----- ------------  ---------------
     4      0.165083   1 Fe s                66     -0.165601   3 Fe s         
   218      0.143269  10 C  px              220      0.143297  10 C  pz        
   312      0.143577  20 C  px              314      0.143548  20 C  pz        
   219      0.141669  10 C  py              313     -0.141950  20 C  py        
   204     -0.133424   9 S  px              206     -0.133414   9 S  pz        

 Vector  103  Occ=1.000000D+00  E=-1.206164D-01
              MO Center=  9.7D-02, -1.7D+00, -9.9D-02, r^2= 1.7D+01
   Bfn.  Coefficient  Atom+Function         Bfn.  Coefficient  Atom+Function  
  ----- ------------  ---------------      ----- ------------  ---------------
   266     -0.137537  15 C  py              265      0.136749  15 C  px        
   267     -0.136795  15 C  pz              360     -0.130976  25 C  py        
    35      0.130140   2 Fe s               359     -0.130210  25 C  px        
   361      0.130163  25 C  pz              255      0.128844  14 S  py        
   254     -0.128001  14 S  px              256      0.128006  14 S  pz        

 Vector  104  Occ=1.000000D+00  E=-1.197554D-01
              MO Center= -9.7D-02, -2.3D+00,  9.7D-02, r^2= 1.5D+01
   Bfn.  Coefficient  Atom+Function         Bfn.  Coefficient  Atom+Function  
  ----- ------------  ---------------      ----- ------------  ---------------
   359      0.147784  25 C  px              360      0.147224  25 C  py        
   361     -0.147787  25 C  pz               97     -0.141365   4 Fe s         
   265      0.141770  15 C  px              266     -0.141171  15 C  py        
   267     -0.141764  15 C  pz              348     -0.136812  24 S  px        
   350      0.136821  24 S  pz               35      0.135478   2 Fe s         

 Vector  105  Occ=1.000000D+00  E=-8.909655D-02
              MO Center= -2.2D-03,  2.3D-01,  2.1D-03, r^2= 1.0D+01
   Bfn.  Coefficient  Atom+Function         Bfn.  Coefficient  Atom+Function  
  ----- ------------  ---------------      ----- ------------  ---------------
     4      0.124685   1 Fe s                66      0.124535   3 Fe s         
   128     -0.112746   5 S  s               164     -0.112588   7 S  s         
    35      0.111734   2 Fe s                97      0.111931   4 Fe s         
   146     -0.110529   6 S  s               182     -0.110485   8 S  s         
   136     -0.100766   5 S  py              172     -0.100334   7 S  py        

 Vector  106  Occ=1.000000D+00  E=-8.410004D-02
              MO Center= -3.8D-03,  7.2D-01,  4.1D-03, r^2= 4.8D+00
   Bfn.  Coefficient  Atom+Function         Bfn.  Coefficient  Atom+Function  
  ----- ------------  ---------------      ----- ------------  ---------------
     4      0.187556   1 Fe s                66      0.187584   3 Fe s         
    16     -0.184238   1 Fe d -1             77      0.184240   3 Fe d -2      
    15     -0.178508   1 Fe d -2             78      0.178429   3 Fe d -1      
    19      0.172714   1 Fe d  2             18     -0.169298   1 Fe d  1      
    80     -0.169193   3 Fe d  1             81      0.169168   3 Fe d  2      

 Vector  107  Occ=1.000000D+00  E=-8.379606D-02
              MO Center=  4.4D-03,  6.4D-01, -4.0D-03, r^2= 5.4D+00
   Bfn.  Coefficient  Atom+Function         Bfn.  Coefficient  Atom+Function  
  ----- ------------  ---------------      ----- ------------  ---------------
    15      0.203927   1 Fe d -2             78     -0.203920   3 Fe d -1      
    16     -0.198754   1 Fe d -1             77      0.198631   3 Fe d -2      
    17     -0.195080   1 Fe d  0             79      0.192140   3 Fe d  0      
    97      0.173777   4 Fe s                35     -0.170763   2 Fe s         
   136     -0.170223   5 S  py              172      0.169241   7 S  py        

 Vector  108  Occ=1.000000D+00  E=-7.620681D-02
              MO Center= -2.0D-04,  5.5D-01,  8.4D-04, r^2= 4.9D+00
   Bfn.  Coefficient  Atom+Function         Bfn.  Coefficient  Atom+Function  
  ----- ------------  ---------------      ----- ------------  ---------------
     4      0.296846   1 Fe s                66     -0.296694   3 Fe s         
    18      0.270409   1 Fe d  1             80     -0.270523   3 Fe d  1      
   135      0.152069   5 S  px              137      0.152317   5 S  pz        
   171      0.151965   7 S  px              173      0.152165   7 S  pz        
     3     -0.149586   1 Fe s                65      0.149503   3 Fe s         

 Vector  109  Occ=1.000000D+00  E=-7.274097D-02
              MO Center=  5.3D-04,  1.1D-01,  1.8D-03, r^2= 4.8D+00
   Bfn.  Coefficient  Atom+Function         Bfn.  Coefficient  Atom+Function  
  ----- ------------  ---------------      ----- ------------  ---------------
    19      0.303502   1 Fe d  2             81      0.303934   3 Fe d  2      
   154     -0.219558   6 S  py              190     -0.219286   8 S  py        
    17      0.176448   1 Fe d  0             79      0.174256   3 Fe d  0      
   151     -0.169971   6 S  py              187     -0.169809   8 S  py        
    24      0.129271   1 Fe d  2             86      0.129451   3 Fe d  2      

 Vector  110  Occ=1.000000D+00  E=-7.241198D-02
              MO Center=  1.5D-03,  6.6D-01, -9.7D-04, r^2= 4.5D+00
   Bfn.  Coefficient  Atom+Function         Bfn.  Coefficient  Atom+Function  
  ----- ------------  ---------------      ----- ------------  ---------------
    17      0.287958   1 Fe d  0             79     -0.288769   3 Fe d  0      
    19     -0.167253   1 Fe d  2             81      0.165649   3 Fe d  2      
   135     -0.165866   5 S  px              137      0.165769   5 S  pz        
   171     -0.165974   7 S  px              173      0.165861   7 S  pz        
    16     -0.158428   1 Fe d -1             77      0.158394   3 Fe d -2      

 Vector  111  Occ=1.000000D+00  E=-6.697524D-02
              MO Center= -1.9D-03,  1.7D-01, -1.3D-03, r^2= 4.8D+00
   Bfn.  Coefficient  Atom+Function         Bfn.  Coefficient  Atom+Function  
  ----- ------------  ---------------      ----- ------------  ---------------
    19      0.350694   1 Fe d  2             81     -0.351211   3 Fe d  2      
    17      0.202431   1 Fe d  0             79     -0.202829   3 Fe d  0      
   154     -0.187685   6 S  py              190      0.188058   8 S  py        
    24      0.147899   1 Fe d  2             86     -0.148115   3 Fe d  2      
   151     -0.136430   6 S  py              187      0.136736   8 S  py        

 Vector  112  Occ=1.000000D+00  E=-5.245555D-02
              MO Center= -1.1D-05,  5.2D-01, -4.3D-04, r^2= 3.7D+00
   Bfn.  Coefficient  Atom+Function         Bfn.  Coefficient  Atom+Function  
  ----- ------------  ---------------      ----- ------------  ---------------
    15      0.331747   1 Fe d -2             16     -0.331848   1 Fe d -1      
    77     -0.331855   3 Fe d -2             78      0.331810   3 Fe d -1      
    20      0.141628   1 Fe d -2             21     -0.141666   1 Fe d -1      
    82     -0.141672   3 Fe d -2             83      0.141653   3 Fe d -1      
   153     -0.115909   6 S  px              155      0.116031   6 S  pz        

 Vector  113  Occ=1.000000D+00  E=-4.861907D-02
              MO Center=  3.5D-04,  9.1D-01, -4.0D-04, r^2= 3.3D+00
   Bfn.  Coefficient  Atom+Function         Bfn.  Coefficient  Atom+Function  
  ----- ------------  ---------------      ----- ------------  ---------------
    17      0.355314   1 Fe d  0             79      0.355244   3 Fe d  0      
    19     -0.205072   1 Fe d  2             81     -0.205213   3 Fe d  2      
   135     -0.158198   5 S  px              137     -0.158197   5 S  pz        
   171      0.158336   7 S  px              173      0.158253   7 S  pz        
    22      0.152879   1 Fe d  0             84      0.152852   3 Fe d  0      

 Vector  114  Occ=1.000000D+00  E=-4.563182D-02
              MO Center= -3.6D-04,  1.4D-01,  4.2D-04, r^2= 4.9D+00
   Bfn.  Coefficient  Atom+Function         Bfn.  Coefficient  Atom+Function  
  ----- ------------  ---------------      ----- ------------  ---------------
    15      0.272067   1 Fe d -2             16      0.271904   1 Fe d -1      
    77      0.271949   3 Fe d -2             78      0.272108   3 Fe d -1      
    18      0.156966   1 Fe d  1             80     -0.156947   3 Fe d  1      
   153     -0.144178   6 S  px              155     -0.144130   6 S  pz        
   189     -0.144078   8 S  px              191     -0.144169   8 S  pz        

 Vector  115  Occ=1.000000D+00  E=-3.639008D-02
              MO Center= -4.4D-04, -2.0D-01,  3.6D-04, r^2= 5.4D+00
   Bfn.  Coefficient  Atom+Function         Bfn.  Coefficient  Atom+Function  
  ----- ------------  ---------------      ----- ------------  ---------------
   136      0.204032   5 S  py              172      0.203795   7 S  py        
   133      0.161955   5 S  py              169      0.161809   7 S  py        
   153     -0.153715   6 S  px              155     -0.153487   6 S  pz        
   189      0.153553   8 S  px              191      0.153655   8 S  pz        
    18     -0.143775   1 Fe d  1             80     -0.143778   3 Fe d  1      

 Vector  116  Occ=1.000000D+00  E=-2.274370D-02
              MO Center=  4.0D-05, -5.1D-01,  6.7D-04, r^2= 5.4D+00
   Bfn.  Coefficient  Atom+Function         Bfn.  Coefficient  Atom+Function  
  ----- ------------  ---------------      ----- ------------  ---------------
   153      0.204734   6 S  px              155     -0.204776   6 S  pz        
   189      0.204757   8 S  px              191     -0.204700   8 S  pz        
    49     -0.171107   2 Fe d  1            111      0.171274   4 Fe d  1      
   136     -0.158203   5 S  py              172      0.158130   7 S  py        
   150      0.155225   6 S  px              152     -0.155271   6 S  pz        

 Vector  117  Occ=1.000000D+00  E=-1.815888D-02
              MO Center=  1.9D-03,  4.7D-01, -2.0D-03, r^2= 7.0D+00
   Bfn.  Coefficient  Atom+Function         Bfn.  Coefficient  Atom+Function  
  ----- ------------  ---------------      ----- ------------  ---------------
    17      0.229755   1 Fe d  0             79      0.229811   3 Fe d  0      
   155      0.158818   6 S  pz              191     -0.158940   8 S  pz        
   153     -0.154767   6 S  px              189      0.154776   8 S  px        
    19     -0.136001   1 Fe d  2             81     -0.135954   3 Fe d  2      
   209      0.120045   9 S  pz              303     -0.119933  19 S  pz        

 Vector  118  Occ=1.000000D+00  E=-1.807392D-02
              MO Center= -1.5D-04,  1.0D+00, -1.7D-04, r^2= 4.1D+00
   Bfn.  Coefficient  Atom+Function         Bfn.  Coefficient  Atom+Function  
  ----- ------------  ---------------      ----- ------------  ---------------
    18      0.463128   1 Fe d  1             80      0.463188   3 Fe d  1      
    23      0.198698   1 Fe d  1             85      0.198710   3 Fe d  1      
   135      0.147819   5 S  px              171     -0.147891   7 S  px        
   137     -0.134096   5 S  pz              173      0.134201   7 S  pz        
   132      0.099415   5 S  px              168     -0.099453   7 S  px        

 Vector  119  Occ=1.000000D+00  E=-6.530627D-03
              MO Center=  2.3D-03,  4.1D-01,  4.5D-03, r^2= 6.7D+00
   Bfn.  Coefficient  Atom+Function         Bfn.  Coefficient  Atom+Function  
  ----- ------------  ---------------      ----- ------------  ---------------
    15      0.236633   1 Fe d -2             16      0.236196   1 Fe d -1      
    77     -0.235876   3 Fe d -2             78     -0.236188   3 Fe d -1      
   136      0.174125   5 S  py              172      0.173761   7 S  py        
   153      0.126131   6 S  px              155      0.126038   6 S  pz        
   189     -0.125231   8 S  px              191     -0.125298   8 S  pz        

 Vector  120  Occ=1.000000D+00  E=-4.207957D-03
              MO Center= -4.8D-03,  4.2D-02, -2.0D-03, r^2= 6.4D+00
   Bfn.  Coefficient  Atom+Function         Bfn.  Coefficient  Atom+Function  
  ----- ------------  ---------------      ----- ------------  ---------------
    19      0.247404   1 Fe d  2             81     -0.247879   3 Fe d  2      
    18     -0.187207   1 Fe d  1             80      0.186962   3 Fe d  1      
   153     -0.180934   6 S  px              155     -0.181021   6 S  pz        
   189     -0.181557   8 S  px              191     -0.181513   8 S  pz        
    48      0.159982   2 Fe d  0            110     -0.160090   4 Fe d  0      

 Vector  121  Occ=1.000000D+00  E= 4.874122D-03
              MO Center=  7.3D-04,  1.0D+00, -9.5D-04, r^2= 5.1D+00
   Bfn.  Coefficient  Atom+Function         Bfn.  Coefficient  Atom+Function  
  ----- ------------  ---------------      ----- ------------  ---------------
   136      0.295225   5 S  py              172     -0.295215   7 S  py        
    15      0.232754   1 Fe d -2             16     -0.233014   1 Fe d -1      
    77      0.232895   3 Fe d -2             78     -0.233102   3 Fe d -1      
   133      0.211083   5 S  py              169     -0.211056   7 S  py        
   130      0.121756   5 S  py              166     -0.121749   7 S  py        

 Vector  122  Occ=1.000000D+00  E= 1.251750D-02
              MO Center=  1.1D-03,  4.2D-01,  3.6D-03, r^2= 7.0D+00
   Bfn.  Coefficient  Atom+Function         Bfn.  Coefficient  Atom+Function  
  ----- ------------  ---------------      ----- ------------  ---------------
    15      0.250576   1 Fe d -2             16      0.250220   1 Fe d -1      
    77      0.249981   3 Fe d -2             78      0.249987   3 Fe d -1      
    13     -0.138148   1 Fe py               75      0.137831   3 Fe py        
   153      0.130295   6 S  px              155      0.130092   6 S  pz        
   189      0.130052   8 S  px              191      0.130196   8 S  pz        

 Vector  123  Occ=1.000000D+00  E= 1.449341D-02
              MO Center=  1.1D-03, -1.5D-01, -1.9D-03, r^2= 6.8D+00
   Bfn.  Coefficient  Atom+Function         Bfn.  Coefficient  Atom+Function  
  ----- ------------  ---------------      ----- ------------  ---------------
   153      0.169007   6 S  px              155     -0.168910   6 S  pz        
   189     -0.169086   8 S  px              191      0.168740   8 S  pz        
    15      0.160066   1 Fe d -2             17      0.160602   1 Fe d  0      
    77     -0.160147   3 Fe d -2             79      0.160731   3 Fe d  0      
    16     -0.159096   1 Fe d -1             78      0.158699   3 Fe d -1      

 Vector  124  Occ=1.000000D+00  E= 1.463774D-02
              MO Center= -1.5D-03,  2.4D-01, -1.6D-03, r^2= 6.7D+00
   Bfn.  Coefficient  Atom+Function         Bfn.  Coefficient  Atom+Function  
  ----- ------------  ---------------      ----- ------------  ---------------
    19      0.238324   1 Fe d  2             81      0.238925   3 Fe d  2      
    50      0.189708   2 Fe d  2            112      0.189376   4 Fe d  2      
   136      0.172093   5 S  py              172      0.172798   7 S  py        
    17      0.136507   1 Fe d  0             79      0.136490   3 Fe d  0      
   154      0.132596   6 S  py              190      0.133056   8 S  py        

 Vector  125  Occ=1.000000D+00  E= 3.110154D-02
              MO Center=  7.8D-03, -6.2D-02, -1.6D-03, r^2= 1.1D+01
   Bfn.  Coefficient  Atom+Function         Bfn.  Coefficient  Atom+Function  
  ----- ------------  ---------------      ----- ------------  ---------------
   255      0.202724  14 S  py              349     -0.202207  24 S  py        
   207     -0.155808   9 S  px              209      0.155789   9 S  pz        
   301     -0.155758  19 S  px              303      0.155838  19 S  pz        
    17      0.135381   1 Fe d  0             79     -0.135901   3 Fe d  0      
    50      0.133399   2 Fe d  2            112     -0.133588   4 Fe d  2      

 Vector  126  Occ=1.000000D+00  E= 3.917116D-02
              MO Center=  2.0D-02, -1.1D+00, -4.4D-03, r^2= 1.4D+01
   Bfn.  Coefficient  Atom+Function         Bfn.  Coefficient  Atom+Function  
  ----- ------------  ---------------      ----- ------------  ---------------
   255      0.307418  14 S  py              349      0.304410  24 S  py        
   252      0.191171  14 S  py              346      0.189251  24 S  py        
   208      0.165243   9 S  py              302      0.165052  19 S  py        
   254      0.149428  14 S  px              256     -0.149967  14 S  pz        
   348     -0.148560  24 S  px              350      0.148048  24 S  pz        

 Vector  127  Occ=1.000000D+00  E= 4.218415D-02
              MO Center= -3.7D-03, -2.2D-01,  1.9D-02, r^2= 1.5D+01
   Bfn.  Coefficient  Atom+Function         Bfn.  Coefficient  Atom+Function  
  ----- ------------  ---------------      ----- ------------  ---------------
   349     -0.266070  24 S  py              255      0.262332  14 S  py        
   207      0.197928   9 S  px              209     -0.196930   9 S  pz        
   301      0.196492  19 S  px              303     -0.197457  19 S  pz        
   346     -0.167949  24 S  py              252      0.165661  14 S  py        
   204      0.132251   9 S  px              206     -0.131537   9 S  pz        

 Vector  128  Occ=1.000000D+00  E= 4.230585D-02
              MO Center=  1.6D-01, -1.7D+00, -1.8D-01, r^2= 1.3D+01
   Bfn.  Coefficient  Atom+Function         Bfn.  Coefficient  Atom+Function  
  ----- ------------  ---------------      ----- ------------  ---------------
   254      0.308523  14 S  px              256      0.308452  14 S  pz        
   348      0.282485  24 S  px              350      0.283037  24 S  pz        
   251      0.197139  14 S  px              253      0.197128  14 S  pz        
   345      0.180688  24 S  px              347      0.181026  24 S  pz        
   248      0.115860  14 S  px              250      0.115854  14 S  pz        

 Vector  129  Occ=1.000000D+00  E= 4.272807D-02
              MO Center= -1.8D-01, -1.9D+00,  1.6D-01, r^2= 1.0D+01
   Bfn.  Coefficient  Atom+Function         Bfn.  Coefficient  Atom+Function  
  ----- ------------  ---------------      ----- ------------  ---------------
   348     -0.301738  24 S  px              350     -0.301762  24 S  pz        
   254      0.275431  14 S  px              256      0.275395  14 S  pz        
   110     -0.198781   4 Fe d  0             48     -0.191349   2 Fe d  0      
   345     -0.190684  24 S  px              347     -0.190661  24 S  pz        
   251      0.173846  14 S  px              253      0.173871  14 S  pz        

 Vector  130  Occ=1.000000D+00  E= 5.235985D-02
              MO Center= -3.7D-03,  1.6D+00,  1.0D-02, r^2= 9.1D+00
   Bfn.  Coefficient  Atom+Function         Bfn.  Coefficient  Atom+Function  
  ----- ------------  ---------------      ----- ------------  ---------------
    18      0.362638   1 Fe d  1             80     -0.362370   3 Fe d  1      
   208     -0.266993   9 S  py              302      0.266329  19 S  py        
   205     -0.193120   9 S  py              299      0.192652  19 S  py        
   207      0.143258   9 S  px              209      0.143692   9 S  pz        
   301      0.143394  19 S  px              303      0.142839  19 S  pz        

 Vector  131  Occ=1.000000D+00  E= 5.970599D-02
              MO Center=  9.9D-03,  2.0D+00, -1.2D-02, r^2= 1.1D+01
   Bfn.  Coefficient  Atom+Function         Bfn.  Coefficient  Atom+Function  
  ----- ------------  ---------------      ----- ------------  ---------------
   207      0.297307   9 S  px              209     -0.297524   9 S  pz        
   301     -0.297437  19 S  px              303      0.297841  19 S  pz        
   204      0.196740   9 S  px              206     -0.196918   9 S  pz        
   298     -0.196860  19 S  px              300      0.197077  19 S  pz        
    17      0.194743   1 Fe d  0             79      0.194191   3 Fe d  0      

 Vector  132  Occ=1.000000D+00  E= 6.123191D-02
              MO Center= -8.4D-03,  1.1D+00,  6.4D-03, r^2= 1.2D+01
   Bfn.  Coefficient  Atom+Function         Bfn.  Coefficient  Atom+Function  
  ----- ------------  ---------------      ----- ------------  ---------------
   208      0.288096   9 S  py              302      0.288498  19 S  py        
    19      0.199834   1 Fe d  2             81      0.199706   3 Fe d  2      
   205      0.193292   9 S  py              299      0.193607  19 S  py        
    49     -0.166619   2 Fe d  1            111     -0.166655   4 Fe d  1      
   207     -0.150179   9 S  px              301      0.150487  19 S  px        

 Vector  133  Occ=1.000000D+00  E= 7.190057D-02
              MO Center= -6.4D-03,  8.3D-01,  8.3D-04, r^2= 8.5D+00
   Bfn.  Coefficient  Atom+Function         Bfn.  Coefficient  Atom+Function  
  ----- ------------  ---------------      ----- ------------  ---------------
    19      0.221605   1 Fe d  2             81     -0.221727   3 Fe d  2      
    18      0.215667   1 Fe d  1             80     -0.215498   3 Fe d  1      
   154      0.204026   6 S  py              190     -0.204301   8 S  py        
   208      0.189990   9 S  py              302     -0.190575  19 S  py        
   135     -0.175880   5 S  px              137     -0.175893   5 S  pz        

 Vector  134  Occ=1.000000D+00  E= 7.430479D-02
              MO Center=  1.9D-02,  1.0D+00, -1.9D-02, r^2= 9.0D+00
   Bfn.  Coefficient  Atom+Function         Bfn.  Coefficient  Atom+Function  
  ----- ------------  ---------------      ----- ------------  ---------------
    17      0.297148   1 Fe d  0             79     -0.295367   3 Fe d  0      
   209     -0.186368   9 S  pz              301      0.186611  19 S  px        
   207      0.184858   9 S  px              303     -0.185168  19 S  pz        
   171      0.174400   7 S  px              173     -0.174513   7 S  pz        
    81      0.172628   3 Fe d  2            135      0.170838   5 S  px        

 Vector  135  Occ=1.000000D+00  E= 7.444941D-02
              MO Center= -1.5D-02, -8.4D-01,  1.7D-02, r^2= 5.6D+00
   Bfn.  Coefficient  Atom+Function         Bfn.  Coefficient  Atom+Function  
  ----- ------------  ---------------      ----- ------------  ---------------
    49      0.445414   2 Fe d  1            111      0.444938   4 Fe d  1      
    54      0.212395   2 Fe d  1            116      0.212185   4 Fe d  1      
   264      0.140058  15 C  s               358      0.139274  25 C  s         
   348      0.098115  24 S  px              350     -0.098060  24 S  pz        
   254     -0.094765  14 S  px              256      0.095012  14 S  pz        

 Vector  136  Occ=0.000000D+00  E= 1.094769D-01
              MO Center= -2.4D-03, -8.1D-01,  4.2D-03, r^2= 6.2D+00
   Bfn.  Coefficient  Atom+Function         Bfn.  Coefficient  Atom+Function  
  ----- ------------  ---------------      ----- ------------  ---------------
    46      0.301352   2 Fe d -2             47     -0.301601   2 Fe d -1      
   108     -0.302761   4 Fe d -2            109      0.302740   4 Fe d -1      
   264     -0.167379  15 C  s               358     -0.168150  25 C  s         
   154      0.161907   6 S  py              190      0.161900   8 S  py        
   200     -0.144625   9 S  s               294     -0.144444  19 S  s         

 Vector  137  Occ=0.000000D+00  E= 1.135899D-01
              MO Center=  3.2D-03, -8.4D-01, -3.3D-03, r^2= 5.7D+00
   Bfn.  Coefficient  Atom+Function         Bfn.  Coefficient  Atom+Function  
  ----- ------------  ---------------      ----- ------------  ---------------
    46      0.348474   2 Fe d -2             47     -0.347995   2 Fe d -1      
   108      0.346620   4 Fe d -2            109     -0.347760   4 Fe d -1      
   264     -0.271143  15 C  s               358      0.270405  25 C  s         
   247      0.211758  14 S  s               341     -0.211186  24 S  s         
    51      0.151798   2 Fe d -2             52     -0.151572   2 Fe d -1      

 Vector  138  Occ=0.000000D+00  E= 1.147381D-01
              MO Center= -5.7D-03, -6.8D-01,  4.2D-03, r^2= 4.0D+00
   Bfn.  Coefficient  Atom+Function         Bfn.  Coefficient  Atom+Function  
  ----- ------------  ---------------      ----- ------------  ---------------
   108     -0.357778   4 Fe d -2            109     -0.356864   4 Fe d -1      
    46      0.355035   2 Fe d -2             47      0.355681   2 Fe d -1      
   113     -0.165510   4 Fe d -2             51      0.164301   2 Fe d -2      
    52      0.164583   2 Fe d -1            114     -0.165108   4 Fe d -1      
   135      0.131487   5 S  px              137      0.131264   5 S  pz        

 Vector  139  Occ=0.000000D+00  E= 1.194520D-01
              MO Center=  4.7D-03, -7.9D-01, -5.6D-03, r^2= 4.6D+00
   Bfn.  Coefficient  Atom+Function         Bfn.  Coefficient  Atom+Function  
  ----- ------------  ---------------      ----- ------------  ---------------
    46      0.352909   2 Fe d -2             47      0.352502   2 Fe d -1      
   108      0.350902   4 Fe d -2            109      0.350520   4 Fe d -1      
   154     -0.190146   6 S  py              190      0.189950   8 S  py        
    51      0.158117   2 Fe d -2             52      0.157943   2 Fe d -1      
   113      0.157182   4 Fe d -2            114      0.157006   4 Fe d -1      

 Vector  140  Occ=0.000000D+00  E= 1.249774D-01
              MO Center=  8.8D-04, -1.0D+00,  4.4D-03, r^2= 5.4D+00
   Bfn.  Coefficient  Atom+Function         Bfn.  Coefficient  Atom+Function  
  ----- ------------  ---------------      ----- ------------  ---------------
    49      0.346763   2 Fe d  1            111     -0.346509   4 Fe d  1      
    50      0.323131   2 Fe d  2            112     -0.322697   4 Fe d  2      
   110     -0.187831   4 Fe d  0             48      0.185035   2 Fe d  0      
    54      0.146177   2 Fe d  1            116     -0.146047   4 Fe d  1      
    55      0.138785   2 Fe d  2            117     -0.138539   4 Fe d  2      

 Vector  141  Occ=0.000000D+00  E= 1.270053D-01
              MO Center= -3.2D-03, -1.1D+00, -1.8D-03, r^2= 4.8D+00
   Bfn.  Coefficient  Atom+Function         Bfn.  Coefficient  Atom+Function  
  ----- ------------  ---------------      ----- ------------  ---------------
    48      0.428381   2 Fe d  0            110      0.427474   4 Fe d  0      
   112     -0.248153   4 Fe d  2             50     -0.246112   2 Fe d  2      
    53      0.195777   2 Fe d  0            115      0.195387   4 Fe d  0      
   348     -0.124132  24 S  px              254      0.123436  14 S  px        
   256      0.123894  14 S  pz              350     -0.123590  24 S  pz        

 Vector  142  Occ=0.000000D+00  E= 1.318543D-01
              MO Center=  1.3D-03, -7.7D-01,  1.7D-03, r^2= 5.4D+00
   Bfn.  Coefficient  Atom+Function         Bfn.  Coefficient  Atom+Function  
  ----- ------------  ---------------      ----- ------------  ---------------
    50      0.397849   2 Fe d  2            112      0.398039   4 Fe d  2      
    48      0.229791   2 Fe d  0            110      0.229913   4 Fe d  0      
    55      0.172350   2 Fe d  2            117      0.172426   4 Fe d  2      
   136     -0.161561   5 S  py              172     -0.161334   7 S  py        
    44      0.127574   2 Fe py              106      0.127700   4 Fe py        

 Vector  143  Occ=0.000000D+00  E= 1.366109D-01
              MO Center=  2.5D-03, -1.0D+00, -2.2D-03, r^2= 4.3D+00
   Bfn.  Coefficient  Atom+Function         Bfn.  Coefficient  Atom+Function  
  ----- ------------  ---------------      ----- ------------  ---------------
    49      0.385241   2 Fe d  1            111     -0.384967   4 Fe d  1      
    50     -0.261789   2 Fe d  2            112      0.260085   4 Fe d  2      
    54      0.166494   2 Fe d  1            116     -0.166365   4 Fe d  1      
   264      0.159577  15 C  s               358     -0.159699  25 C  s         
   153      0.154531   6 S  px              155     -0.154624   6 S  pz        

 Vector  144  Occ=0.000000D+00  E= 1.527199D-01
              MO Center= -1.3D-03, -1.1D+00, -2.1D-03, r^2= 4.6D+00
   Bfn.  Coefficient  Atom+Function         Bfn.  Coefficient  Atom+Function  
  ----- ------------  ---------------      ----- ------------  ---------------
    48      0.415410   2 Fe d  0            110     -0.415232   4 Fe d  0      
    50     -0.239833   2 Fe d  2            112      0.239660   4 Fe d  2      
    53      0.178059   2 Fe d  0            115     -0.177965   4 Fe d  0      
    43     -0.140631   2 Fe px               45     -0.140659   2 Fe pz        
   105     -0.140624   4 Fe px              107     -0.140586   4 Fe pz        

 Vector  145  Occ=0.000000D+00  E= 1.999252D-01
              MO Center=  3.4D-03,  1.4D+00,  3.4D-03, r^2= 2.2D+01
   Bfn.  Coefficient  Atom+Function         Bfn.  Coefficient  Atom+Function  
  ----- ------------  ---------------      ----- ------------  ---------------
   217      1.010176  10 C  s               311      1.008054  20 C  s         
   200     -0.517294   9 S  s               294     -0.516593  19 S  s         
   264      0.505829  15 C  s               358      0.505125  25 C  s         
   230     -0.363457  11 H  s               334     -0.362681  23 H  s         
   235     -0.358970  12 H  s               240     -0.357937  13 H  s         

 Vector  146  Occ=0.000000D+00  E= 2.062905D-01
              MO Center= -4.6D-04,  2.6D+00, -4.3D-03, r^2= 2.2D+01
   Bfn.  Coefficient  Atom+Function         Bfn.  Coefficient  Atom+Function  
  ----- ------------  ---------------      ----- ------------  ---------------
   217      1.336657  10 C  s               311     -1.337709  20 C  s         
     5     -0.681570   1 Fe s                67      0.680815   3 Fe s         
     4      0.606289   1 Fe s                66     -0.606472   3 Fe s         
   240     -0.532340  13 H  s               324      0.532768  21 H  s         
   235     -0.523520  12 H  s               329      0.523840  22 H  s         

 Vector  147  Occ=0.000000D+00  E= 2.126514D-01
              MO Center=  1.1D-02, -1.1D+00, -7.7D-03, r^2= 2.9D+01
   Bfn.  Coefficient  Atom+Function         Bfn.  Coefficient  Atom+Function  
  ----- ------------  ---------------      ----- ------------  ---------------
   264      1.219269  15 C  s               358      1.211733  25 C  s         
   217     -0.749706  10 C  s               311     -0.751084  20 C  s         
     5      0.566397   1 Fe s                67      0.567175   3 Fe s         
   287     -0.503347  18 H  s               371     -0.500386  26 H  s         
   282     -0.476012  17 H  s               376     -0.472916  27 H  s         

 Vector  148  Occ=0.000000D+00  E= 2.167190D-01
              MO Center= -1.2D-02, -2.8D+00,  7.2D-03, r^2= 2.4D+01
   Bfn.  Coefficient  Atom+Function         Bfn.  Coefficient  Atom+Function  
  ----- ------------  ---------------      ----- ------------  ---------------
   264      1.505375  15 C  s               358     -1.510767  25 C  s         
    36     -0.664619   2 Fe s                98      0.666107   4 Fe s         
   277     -0.634073  16 H  s               381      0.635862  28 H  s         
   282     -0.624571  17 H  s               376      0.626606  27 H  s         
   287     -0.606947  18 H  s               371      0.609171  26 H  s         

 Vector  149  Occ=0.000000D+00  E= 2.243112D-01
              MO Center= -2.6D-03,  3.4D-01,  2.8D-03, r^2= 2.7D+01
   Bfn.  Coefficient  Atom+Function         Bfn.  Coefficient  Atom+Function  
  ----- ------------  ---------------      ----- ------------  ---------------
   264      0.789418  15 C  s               358      0.791979  25 C  s         
   217      0.738162  10 C  s               311      0.738310  20 C  s         
     5     -0.638874   1 Fe s                67     -0.638393   3 Fe s         
    36     -0.385165   2 Fe s                98     -0.385655   4 Fe s         
   230     -0.380854  11 H  s               277     -0.379388  16 H  s         

 Vector  150  Occ=0.000000D+00  E= 2.474171D-01
              MO Center=  2.0D-03,  2.4D+00, -1.6D-03, r^2= 2.1D+01
   Bfn.  Coefficient  Atom+Function         Bfn.  Coefficient  Atom+Function  
  ----- ------------  ---------------      ----- ------------  ---------------
     5      0.801741   1 Fe s                67     -0.802049   3 Fe s         
   217     -0.752406  10 C  s               311      0.751282  20 C  s         
   200     -0.520020   9 S  s               294      0.520079  19 S  s         
   240      0.503329  13 H  s               324     -0.502958  21 H  s         
   235      0.477744  12 H  s               329     -0.477134  22 H  s         

 Vector  151  Occ=0.000000D+00  E= 2.530848D-01
              MO Center=  7.8D-03, -6.5D-01, -4.7D-03, r^2= 2.5D+01
   Bfn.  Coefficient  Atom+Function         Bfn.  Coefficient  Atom+Function  
  ----- ------------  ---------------      ----- ------------  ---------------
    36      0.618789   2 Fe s                98      0.616404   4 Fe s         
   247     -0.449771  14 S  s               341     -0.447378  24 S  s         
   217      0.431752  10 C  s               311      0.433341  20 C  s         
     5     -0.419219   1 Fe s                67     -0.418913   3 Fe s         
   264     -0.411859  15 C  s               358     -0.408424  25 C  s         

 Vector  152  Occ=0.000000D+00  E= 2.579799D-01
              MO Center= -8.3D-03, -2.3D+00,  5.7D-03, r^2= 1.9D+01
   Bfn.  Coefficient  Atom+Function         Bfn.  Coefficient  Atom+Function  
  ----- ------------  ---------------      ----- ------------  ---------------
    36      0.730618   2 Fe s                98     -0.732683   4 Fe s         
   247     -0.577867  14 S  s               341      0.579776  24 S  s         
   358      0.453561  25 C  s               264     -0.451087  15 C  s         
   277      0.395410  16 H  s               381     -0.396663  28 H  s         
   282      0.367887  17 H  s               376     -0.369584  27 H  s         

 Vector  153  Occ=0.000000D+00  E= 2.771744D-01
              MO Center=  1.6D-02,  1.1D+00,  3.1D-02, r^2= 2.6D+01
   Bfn.  Coefficient  Atom+Function         Bfn.  Coefficient  Atom+Function  
  ----- ------------  ---------------      ----- ------------  ---------------
   217      0.941692  10 C  s               311      0.938335  20 C  s         
     5      0.881382   1 Fe s                67      0.874764   3 Fe s         
   240     -0.733621  13 H  s               324     -0.731257  21 H  s         
   235     -0.536910  12 H  s               329     -0.535780  22 H  s         
   287     -0.451897  18 H  s               371     -0.452264  26 H  s         

 Vector  154  Occ=0.000000D+00  E= 2.802759D-01
              MO Center= -3.0D-01,  5.8D-01, -3.6D-02, r^2= 3.4D+01
   Bfn.  Coefficient  Atom+Function         Bfn.  Coefficient  Atom+Function  
  ----- ------------  ---------------      ----- ------------  ---------------
    67     -1.238424   3 Fe s                 5      1.229553   1 Fe s         
   230     -0.974397  11 H  s               334      0.978754  23 H  s         
   282     -0.767970  17 H  s               376     -0.762869  27 H  s         
   311     -0.748558  20 C  s               217      0.744049  10 C  s         
    66      0.533570   3 Fe s                 4     -0.528122   1 Fe s         

 Vector  155  Occ=0.000000D+00  E= 2.808071D-01
              MO Center=  3.7D-01,  1.5D+00, -2.5D-01, r^2= 3.4D+01
   Bfn.  Coefficient  Atom+Function         Bfn.  Coefficient  Atom+Function  
  ----- ------------  ---------------      ----- ------------  ---------------
   235      1.057831  12 H  s               329      1.049559  22 H  s         
    36      0.987246   2 Fe s                98     -0.839868   4 Fe s         
   371      0.653878  26 H  s               287     -0.650443  18 H  s         
   264      0.617627  15 C  s               240     -0.560498  13 H  s         
   324     -0.554493  21 H  s               223      0.510259  10 C  pz        

 Vector  156  Occ=0.000000D+00  E= 2.810852D-01
              MO Center= -1.3D-01,  2.0D-01,  2.7D-01, r^2= 3.4D+01
   Bfn.  Coefficient  Atom+Function         Bfn.  Coefficient  Atom+Function  
  ----- ------------  ---------------      ----- ------------  ---------------
    98      0.905183   4 Fe s               277     -0.786435  16 H  s         
   381     -0.783133  28 H  s               240      0.772971  13 H  s         
   324      0.764638  21 H  s                36      0.733603   2 Fe s         
   230     -0.711029  11 H  s               334     -0.707635  23 H  s         
   358      0.692940  25 C  s               264      0.589885  15 C  s         

 Vector  157  Occ=0.000000D+00  E= 2.853378D-01
              MO Center=  3.7D-01,  3.4D+00, -4.6D-01, r^2= 3.0D+01
   Bfn.  Coefficient  Atom+Function         Bfn.  Coefficient  Atom+Function  
  ----- ------------  ---------------      ----- ------------  ---------------
   329     -1.308420  22 H  s               235      1.296612  12 H  s         
   324      0.798057  21 H  s               240     -0.778471  13 H  s         
   315      0.654757  20 C  px              223      0.644966  10 C  pz        
   221     -0.567318  10 C  px              317     -0.568549  20 C  pz        
   230     -0.527387  11 H  s               334      0.519541  23 H  s         

 Vector  158  Occ=0.000000D+00  E= 2.856816D-01
              MO Center= -1.9D-01,  1.0D+00,  2.3D-01, r^2= 4.0D+01
   Bfn.  Coefficient  Atom+Function         Bfn.  Coefficient  Atom+Function  
  ----- ------------  ---------------      ----- ------------  ---------------
   230      0.944891  11 H  s               240     -0.937821  13 H  s         
   324      0.872920  21 H  s               334     -0.863943  23 H  s         
   282     -0.799228  17 H  s               376     -0.766064  27 H  s         
   222     -0.575738  10 C  py              316      0.530820  20 C  py        
   277      0.425299  16 H  s               381      0.411911  28 H  s         

 Vector  159  Occ=0.000000D+00  E= 2.862751D-01
              MO Center= -1.1D-01, -8.6D-01,  2.9D-01, r^2= 4.0D+01
   Bfn.  Coefficient  Atom+Function         Bfn.  Coefficient  Atom+Function  
  ----- ------------  ---------------      ----- ------------  ---------------
   371     -0.915810  26 H  s               277      0.908555  16 H  s         
   381      0.897929  28 H  s               287     -0.866144  18 H  s         
   334     -0.797909  23 H  s               230     -0.709199  11 H  s         
   324      0.673763  21 H  s               240      0.575084  13 H  s         
   363     -0.550125  25 C  py              269     -0.537450  15 C  py        

 Vector  160  Occ=0.000000D+00  E= 2.864307D-01
              MO Center=  4.9D-01, -2.7D+00,  2.7D-01, r^2= 3.4D+01
   Bfn.  Coefficient  Atom+Function         Bfn.  Coefficient  Atom+Function  
  ----- ------------  ---------------      ----- ------------  ---------------
   287      1.199947  18 H  s               371     -1.188404  26 H  s         
   277     -0.854502  16 H  s               381      0.832435  28 H  s         
   269      0.643711  15 C  py              363     -0.633346  25 C  py        
   235      0.540920  12 H  s               329      0.492430  22 H  s         
   270     -0.439949  15 C  pz              362      0.437622  25 C  px        

 Vector  161  Occ=0.000000D+00  E= 2.869277D-01
              MO Center= -4.7D-01, -3.3D+00, -3.5D-01, r^2= 3.0D+01
   Bfn.  Coefficient  Atom+Function         Bfn.  Coefficient  Atom+Function  
  ----- ------------  ---------------      ----- ------------  ---------------
   376     -1.295754  27 H  s               282      1.279506  17 H  s         
   381      0.898310  28 H  s               277     -0.867826  16 H  s         
   364     -0.679258  25 C  pz              268      0.664544  15 C  px        
   270      0.522873  15 C  pz              362     -0.523612  25 C  px        
   287     -0.404632  18 H  s               371      0.391297  26 H  s         

 Vector  162  Occ=0.000000D+00  E= 2.968357D-01
              MO Center= -1.4D-01,  6.9D-02, -8.7D-02, r^2= 3.1D+01
   Bfn.  Coefficient  Atom+Function         Bfn.  Coefficient  Atom+Function  
  ----- ------------  ---------------      ----- ------------  ---------------
    67     -1.799751   3 Fe s                 5      1.772498   1 Fe s         
   311     -0.849760  20 C  s               217      0.837287  10 C  s         
    66      0.752290   3 Fe s                 4     -0.742771   1 Fe s         
   240     -0.731839  13 H  s               282      0.722377  17 H  s         
   376      0.724611  27 H  s               324      0.718220  21 H  s         

 Vector  163  Occ=0.000000D+00  E= 2.987498D-01
              MO Center=  5.9D-03, -3.2D-01,  1.4D-01, r^2= 2.9D+01
   Bfn.  Coefficient  Atom+Function         Bfn.  Coefficient  Atom+Function  
  ----- ------------  ---------------      ----- ------------  ---------------
    36     -1.367763   2 Fe s                98     -1.352507   4 Fe s         
     5      1.282007   1 Fe s                67      1.246763   3 Fe s         
   287      0.804184  18 H  s               371      0.800938  26 H  s         
   230     -0.751000  11 H  s               334     -0.753197  23 H  s         
   264     -0.643750  15 C  s               358     -0.637055  25 C  s         

 Vector  164  Occ=0.000000D+00  E= 3.012230D-01
              MO Center=  8.7D-02, -4.3D-01, -5.7D-02, r^2= 2.7D+01
   Bfn.  Coefficient  Atom+Function         Bfn.  Coefficient  Atom+Function  
  ----- ------------  ---------------      ----- ------------  ---------------
    98     -1.933988   4 Fe s                36      1.923816   2 Fe s         
   358     -0.863712  25 C  s               264      0.859072  15 C  s         
    97      0.773674   4 Fe s                35     -0.768687   2 Fe s         
   381      0.696467  28 H  s               277     -0.690537  16 H  s         
   235     -0.586074  12 H  s               329     -0.587041  22 H  s         

 Vector  165  Occ=0.000000D+00  E= 3.498261D-01
              MO Center= -8.6D-04,  4.0D-03,  3.9D-04, r^2= 8.2D+00
   Bfn.  Coefficient  Atom+Function         Bfn.  Coefficient  Atom+Function  
  ----- ------------  ---------------      ----- ------------  ---------------
     4      0.991056   1 Fe s                66      0.991070   3 Fe s         
    35      0.764048   2 Fe s                97      0.764511   4 Fe s         
    36     -0.493305   2 Fe s                98     -0.494648   4 Fe s         
     5     -0.477718   1 Fe s                67     -0.478662   3 Fe s         
   135     -0.332201   5 S  px              137      0.332186   5 S  pz        

 Vector  166  Occ=0.000000D+00  E= 3.735546D-01
              MO Center= -6.9D-03,  9.8D-01,  1.3D-02, r^2= 8.1D+00
   Bfn.  Coefficient  Atom+Function         Bfn.  Coefficient  Atom+Function  
  ----- ------------  ---------------      ----- ------------  ---------------
    13      0.675739   1 Fe py               75      0.669868   3 Fe py        
    97     -0.636109   4 Fe s                35     -0.626553   2 Fe s         
    66      0.548252   3 Fe s                98      0.534527   4 Fe s         
     4      0.530565   1 Fe s                36      0.528580   2 Fe s         
    67     -0.468863   3 Fe s                 5     -0.457140   1 Fe s         

 Vector  167  Occ=0.000000D+00  E= 3.763159D-01
              MO Center= -1.5D-03,  4.5D-01, -2.5D-03, r^2= 1.0D+01
   Bfn.  Coefficient  Atom+Function         Bfn.  Coefficient  Atom+Function  
  ----- ------------  ---------------      ----- ------------  ---------------
     4      1.320871   1 Fe s                66     -1.311388   3 Fe s         
     5     -0.555188   1 Fe s                67      0.545600   3 Fe s         
   190      0.465173   8 S  py              154     -0.461889   6 S  py        
    75      0.441707   3 Fe py               13     -0.433672   1 Fe py        
   182      0.375122   8 S  s               146     -0.369826   6 S  s         

 Vector  168  Occ=0.000000D+00  E= 3.771542D-01
              MO Center=  6.7D-03,  3.0D-01, -9.2D-03, r^2= 9.3D+00
   Bfn.  Coefficient  Atom+Function         Bfn.  Coefficient  Atom+Function  
  ----- ------------  ---------------      ----- ------------  ---------------
    36      0.880290   2 Fe s                98     -0.876623   4 Fe s         
    35     -0.796455   2 Fe s                97      0.785849   4 Fe s         
    12     -0.598204   1 Fe px               76      0.599250   3 Fe pz        
    14      0.595181   1 Fe pz               74     -0.596255   3 Fe px        
   128     -0.490462   5 S  s               164      0.487638   7 S  s         

 Vector  169  Occ=0.000000D+00  E= 3.904936D-01
              MO Center=  5.3D-03,  4.8D-01, -4.2D-03, r^2= 7.7D+00
   Bfn.  Coefficient  Atom+Function         Bfn.  Coefficient  Atom+Function  
  ----- ------------  ---------------      ----- ------------  ---------------
    12      0.598705   1 Fe px               14     -0.597197   1 Fe pz        
    74     -0.595349   3 Fe px               76      0.596939   3 Fe pz        
   135      0.364578   5 S  px              137      0.363590   5 S  pz        
   171     -0.361795   7 S  px              173     -0.362737   7 S  pz        
    43      0.300257   2 Fe px               45      0.300361   2 Fe pz        

 Vector  170  Occ=0.000000D+00  E= 3.952503D-01
              MO Center=  7.0D-05, -4.1D-01, -4.3D-04, r^2= 9.9D+00
   Bfn.  Coefficient  Atom+Function         Bfn.  Coefficient  Atom+Function  
  ----- ------------  ---------------      ----- ------------  ---------------
    66      0.808393   3 Fe s                 4      0.801142   1 Fe s         
    97     -0.554669   4 Fe s                35     -0.548958   2 Fe s         
    13     -0.353916   1 Fe py               75     -0.353833   3 Fe py        
   154     -0.341136   6 S  py              190     -0.342309   8 S  py        
   302      0.316332  19 S  py               43      0.314252   2 Fe px        

 Vector  171  Occ=0.000000D+00  E= 4.011355D-01
              MO Center= -5.7D-03,  1.5D+00,  6.4D-03, r^2= 9.3D+00
   Bfn.  Coefficient  Atom+Function         Bfn.  Coefficient  Atom+Function  
  ----- ------------  ---------------      ----- ------------  ---------------
     4      0.728623   1 Fe s                66     -0.725654   3 Fe s         
    13      0.592691   1 Fe py               75     -0.594790   3 Fe py        
     5      0.393186   1 Fe s                67     -0.391599   3 Fe s         
   207      0.338336   9 S  px              209      0.338515   9 S  pz        
   301      0.337205  19 S  px              303      0.337028  19 S  pz        

 Vector  172  Occ=0.000000D+00  E= 4.080876D-01
              MO Center=  6.1D-03,  1.8D-01,  3.9D-03, r^2= 1.2D+01
   Bfn.  Coefficient  Atom+Function         Bfn.  Coefficient  Atom+Function  
  ----- ------------  ---------------      ----- ------------  ---------------
     4      0.776971   1 Fe s                66      0.775434   3 Fe s         
    44     -0.724878   2 Fe py              106     -0.724294   4 Fe py        
    36     -0.394564   2 Fe s                98     -0.393913   4 Fe s         
   136     -0.387731   5 S  py              172     -0.388359   7 S  py        
   208      0.353227   9 S  py              302      0.353311  19 S  py        

 Vector  173  Occ=0.000000D+00  E= 4.170375D-01
              MO Center=  2.2D-03, -1.0D+00, -3.2D-03, r^2= 1.1D+01
   Bfn.  Coefficient  Atom+Function         Bfn.  Coefficient  Atom+Function  
  ----- ------------  ---------------      ----- ------------  ---------------
    35      1.306954   2 Fe s                97     -1.304684   4 Fe s         
   254      0.378114  14 S  px              256     -0.378101  14 S  pz        
   348      0.377561  24 S  px              350     -0.377580  24 S  pz        
   255     -0.375678  14 S  py              349      0.375300  24 S  py        
    12     -0.344337   1 Fe px               14      0.345126   1 Fe pz        

 Vector  174  Occ=0.000000D+00  E= 4.289600D-01
              MO Center= -1.2D-02, -2.8D-01, -9.2D-04, r^2= 9.6D+00
   Bfn.  Coefficient  Atom+Function         Bfn.  Coefficient  Atom+Function  
  ----- ------------  ---------------      ----- ------------  ---------------
    43      0.579843   2 Fe px               45      0.579441   2 Fe pz        
   105      0.579470   4 Fe px              107      0.579842   4 Fe pz        
    13      0.535364   1 Fe py               75     -0.534428   3 Fe py        
    12     -0.355304   1 Fe px               14     -0.355351   1 Fe pz        
    74     -0.355356   3 Fe px               76     -0.355355   3 Fe pz        

 Vector  175  Occ=0.000000D+00  E= 4.297547D-01
              MO Center= -1.5D-03, -7.5D-01,  1.4D-03, r^2= 1.9D+01
   Bfn.  Coefficient  Atom+Function         Bfn.  Coefficient  Atom+Function  
  ----- ------------  ---------------      ----- ------------  ---------------
    35      1.206196   2 Fe s                97      1.207551   4 Fe s         
   264     -0.564231  15 C  s               358     -0.564342  25 C  s         
   255     -0.492690  14 S  py              349     -0.493028  24 S  py        
   254      0.467799  14 S  px              256     -0.467712  14 S  pz        
   348     -0.467796  24 S  px              350      0.467897  24 S  pz        

 Vector  176  Occ=0.000000D+00  E= 4.356635D-01
              MO Center= -3.7D-03, -4.8D-01, -1.2D-02, r^2= 9.3D+00
   Bfn.  Coefficient  Atom+Function         Bfn.  Coefficient  Atom+Function  
  ----- ------------  ---------------      ----- ------------  ---------------
    43      0.657452   2 Fe px               45      0.657974   2 Fe pz        
   105     -0.657685   4 Fe px              107     -0.657197   4 Fe pz        
    12     -0.428201   1 Fe px               14      0.428421   1 Fe pz        
    74      0.429389   3 Fe px               76     -0.429131   3 Fe pz        
   153     -0.298328   6 S  px              155      0.298464   6 S  pz        

 Vector  177  Occ=0.000000D+00  E= 4.400955D-01
              MO Center=  1.2D-02, -9.5D-01,  9.2D-03, r^2= 8.9D+00
   Bfn.  Coefficient  Atom+Function         Bfn.  Coefficient  Atom+Function  
  ----- ------------  ---------------      ----- ------------  ---------------
    44      0.882195   2 Fe py              106     -0.882818   4 Fe py        
    43      0.386669   2 Fe px               45     -0.385577   2 Fe pz        
   105      0.385433   4 Fe px              107     -0.386539   4 Fe pz        
   136     -0.347263   5 S  py              172      0.347369   7 S  py        
    12     -0.265540   1 Fe px               14      0.266048   1 Fe pz        

 Vector  178  Occ=0.000000D+00  E= 4.983821D-01
              MO Center=  8.4D-04,  1.6D+00,  1.1D-03, r^2= 1.8D+01
   Bfn.  Coefficient  Atom+Function         Bfn.  Coefficient  Atom+Function  
  ----- ------------  ---------------      ----- ------------  ---------------
    12      0.818363   1 Fe px               14      0.818298   1 Fe pz        
    74      0.817794   3 Fe px               76      0.817860   3 Fe pz        
   217     -0.789868  10 C  s               311      0.789205  20 C  s         
    13      0.707237   1 Fe py               75     -0.706385   3 Fe py        
   207      0.536618   9 S  px              208      0.537720   9 S  py        

 Vector  179  Occ=0.000000D+00  E= 5.036865D-01
              MO Center=  3.2D-03, -1.2D-01, -6.0D-03, r^2= 2.1D+01
   Bfn.  Coefficient  Atom+Function         Bfn.  Coefficient  Atom+Function  
  ----- ------------  ---------------      ----- ------------  ---------------
    44      0.678338   2 Fe py              106      0.675968   4 Fe py        
    13      0.639705   1 Fe py               75      0.640691   3 Fe py        
   264      0.580403  15 C  s               358      0.577490  25 C  s         
   217     -0.535038  10 C  s               311     -0.536027  20 C  s         
    43     -0.493591   2 Fe px               45      0.493198   2 Fe pz        

 Vector  180  Occ=0.000000D+00  E= 5.086276D-01
              MO Center= -4.3D-03, -1.7D+00,  4.7D-03, r^2= 1.8D+01
   Bfn.  Coefficient  Atom+Function         Bfn.  Coefficient  Atom+Function  
  ----- ------------  ---------------      ----- ------------  ---------------
    43      0.795297   2 Fe px               45     -0.795379   2 Fe pz        
   105      0.797227   4 Fe px              107     -0.797166   4 Fe pz        
   264     -0.777964  15 C  s               358      0.780117  25 C  s         
    44     -0.622140   2 Fe py              106      0.624691   4 Fe py        
   269     -0.533622  15 C  py              363      0.534848  25 C  py        

 Vector  181  Occ=0.000000D+00  E= 5.857757D-01
              MO Center=  3.8D-02,  2.3D+00, -4.9D-02, r^2= 2.6D+01
   Bfn.  Coefficient  Atom+Function         Bfn.  Coefficient  Atom+Function  
  ----- ------------  ---------------      ----- ------------  ---------------
   222      0.658459  10 C  py              316      0.657945  20 C  py        
   229     -0.473188  11 H  s               333     -0.473245  23 H  s         
   239      0.416458  13 H  s               323      0.416828  21 H  s         
   223     -0.212435  10 C  pz              315      0.213046  20 C  px        
   317      0.211526  20 C  pz              221     -0.210233  10 C  px        

 Vector  182  Occ=0.000000D+00  E= 5.866328D-01
              MO Center=  1.0D-02,  6.5D-01,  7.8D-02, r^2= 3.1D+01
   Bfn.  Coefficient  Atom+Function         Bfn.  Coefficient  Atom+Function  
  ----- ------------  ---------------      ----- ------------  ---------------
   234     -0.436701  12 H  s               221      0.428768  10 C  px        
   223     -0.430170  10 C  pz              328      0.430815  22 H  s         
   315     -0.424666  20 C  px              317      0.422828  20 C  pz        
   281      0.346582  17 H  s               375     -0.347758  27 H  s         
   268      0.344221  15 C  px              364     -0.345191  25 C  pz        

 Vector  183  Occ=0.000000D+00  E= 5.889877D-01
              MO Center= -4.6D-02,  1.5D+00, -3.2D-02, r^2= 2.9D+01
   Bfn.  Coefficient  Atom+Function         Bfn.  Coefficient  Atom+Function  
  ----- ------------  ---------------      ----- ------------  ---------------
   328     -0.487287  22 H  s               234     -0.480443  12 H  s         
   317     -0.473248  20 C  pz              221      0.466682  10 C  px        
   315      0.467518  20 C  px              223     -0.460552  10 C  pz        
   340     -0.277468  24 S  s               246      0.275250  14 S  s         
    98     -0.255234   4 Fe s                36      0.252880   2 Fe s         

 Vector  184  Occ=0.000000D+00  E= 5.893723D-01
              MO Center=  6.6D-02, -2.4D-01,  7.3D-03, r^2= 3.1D+01
   Bfn.  Coefficient  Atom+Function         Bfn.  Coefficient  Atom+Function  
  ----- ------------  ---------------      ----- ------------  ---------------
   281      0.409047  17 H  s               375      0.405529  27 H  s         
   268      0.400539  15 C  px              364      0.397413  25 C  pz        
   270      0.391662  15 C  pz              362      0.387948  25 C  px        
   239     -0.334531  13 H  s               323      0.333063  21 H  s         
   221      0.326511  10 C  px              223      0.327578  10 C  pz        

 Vector  185  Occ=0.000000D+00  E= 5.898693D-01
              MO Center= -7.0D-02, -1.5D+00, -1.4D-02, r^2= 2.9D+01
   Bfn.  Coefficient  Atom+Function         Bfn.  Coefficient  Atom+Function  
  ----- ------------  ---------------      ----- ------------  ---------------
   363      0.496697  25 C  py              269      0.494155  15 C  py        
   380     -0.427883  28 H  s               276     -0.421036  16 H  s         
   370      0.404420  26 H  s               286      0.400831  18 H  s         
   222      0.331499  10 C  py              293      0.324038  19 S  s         
   316      0.324603  20 C  py              362     -0.319640  25 C  px        

 Vector  186  Occ=0.000000D+00  E= 5.935117D-01
              MO Center= -3.4D-04, -5.7D-01, -9.4D-03, r^2= 2.8D+01
   Bfn.  Coefficient  Atom+Function         Bfn.  Coefficient  Atom+Function  
  ----- ------------  ---------------      ----- ------------  ---------------
   269      0.517241  15 C  py              363      0.516078  25 C  py        
    35      0.469408   2 Fe s                97      0.470024   4 Fe s         
   246     -0.436178  14 S  s               340     -0.435540  24 S  s         
    36     -0.371457   2 Fe s                98     -0.370487   4 Fe s         
     4      0.359737   1 Fe s                66      0.360969   3 Fe s         

 Vector  187  Occ=0.000000D+00  E= 5.987100D-01
              MO Center=  6.0D-02,  8.0D-01, -3.4D-02, r^2= 3.1D+01
   Bfn.  Coefficient  Atom+Function         Bfn.  Coefficient  Atom+Function  
  ----- ------------  ---------------      ----- ------------  ---------------
   222      0.530692  10 C  py              316     -0.532151  20 C  py        
   229     -0.398970  11 H  s               333      0.400191  23 H  s         
   239      0.379269  13 H  s               323     -0.380656  21 H  s         
   281      0.338818  17 H  s               270      0.333241  15 C  pz        
   375      0.334789  27 H  s               268      0.330976  15 C  px        

 Vector  188  Occ=0.000000D+00  E= 5.998118D-01
              MO Center=  4.5D-02, -6.5D-01,  1.3D-01, r^2= 3.1D+01
   Bfn.  Coefficient  Atom+Function         Bfn.  Coefficient  Atom+Function  
  ----- ------------  ---------------      ----- ------------  ---------------
   364     -0.443736  25 C  pz              375     -0.440745  27 H  s         
   268      0.438419  15 C  px              281      0.435227  17 H  s         
   362     -0.424499  25 C  px              270      0.419159  15 C  pz        
   234      0.360498  12 H  s               221     -0.352208  10 C  px        
   223      0.352873  10 C  pz              328     -0.343217  22 H  s         

 Vector  189  Occ=0.000000D+00  E= 6.004441D-01
              MO Center= -1.1D-01, -1.9D+00, -7.9D-02, r^2= 2.8D+01
   Bfn.  Coefficient  Atom+Function         Bfn.  Coefficient  Atom+Function  
  ----- ------------  ---------------      ----- ------------  ---------------
   269      0.558391  15 C  py              363     -0.560052  25 C  py        
   370     -0.441064  26 H  s               276     -0.438857  16 H  s         
   286      0.439952  18 H  s               380      0.438948  28 H  s         
   270     -0.318375  15 C  pz              362      0.318265  25 C  px        
   268      0.291626  15 C  px              364     -0.290918  25 C  pz        

 Vector  190  Occ=0.000000D+00  E= 6.343726D-01
              MO Center=  1.2D-02,  1.2D+00,  4.8D-03, r^2= 2.1D+01
   Bfn.  Coefficient  Atom+Function         Bfn.  Coefficient  Atom+Function  
  ----- ------------  ---------------      ----- ------------  ---------------
     5      0.909708   1 Fe s                67     -0.909416   3 Fe s         
    12     -0.539150   1 Fe px               14     -0.540032   1 Fe pz        
    74     -0.540500   3 Fe px               76     -0.539550   3 Fe pz        
   222      0.457027  10 C  py              316     -0.457281  20 C  py        
    13     -0.367087   1 Fe py               75      0.365683   3 Fe py        

 Vector  191  Occ=0.000000D+00  E= 6.372466D-01
              MO Center=  3.1D-03, -2.4D-01, -1.0D-02, r^2= 2.2D+01
   Bfn.  Coefficient  Atom+Function         Bfn.  Coefficient  Atom+Function  
  ----- ------------  ---------------      ----- ------------  ---------------
    36      0.685603   2 Fe s                98      0.682972   4 Fe s         
     5     -0.614797   1 Fe s                67     -0.615333   3 Fe s         
    44      0.529286   2 Fe py              106      0.529680   4 Fe py        
    13      0.502117   1 Fe py               75      0.501166   3 Fe py        
   268      0.320544  15 C  px              270     -0.322069  15 C  pz        

 Vector  192  Occ=0.000000D+00  E= 6.402343D-01
              MO Center= -1.4D-02, -1.2D+00,  6.4D-03, r^2= 2.0D+01
   Bfn.  Coefficient  Atom+Function         Bfn.  Coefficient  Atom+Function  
  ----- ------------  ---------------      ----- ------------  ---------------
    36      0.926170   2 Fe s                98     -0.928468   4 Fe s         
    43     -0.546931   2 Fe px               45      0.546145   2 Fe pz        
   105     -0.546291   4 Fe px              107      0.547193   4 Fe pz        
   269     -0.433546  15 C  py              363      0.433771  25 C  py        
   263      0.356799  15 C  s               357     -0.357779  25 C  s         

 Vector  193  Occ=0.000000D+00  E= 6.907791D-01
              MO Center= -2.3D-03,  1.8D+00,  2.1D-02, r^2= 1.6D+01
   Bfn.  Coefficient  Atom+Function         Bfn.  Coefficient  Atom+Function  
  ----- ------------  ---------------      ----- ------------  ---------------
   200      1.671297   9 S  s               294      1.659105  19 S  s         
   199     -1.153467   9 S  s               293     -1.146016  19 S  s         
   128     -0.979466   5 S  s               164     -0.959433   7 S  s         
   127      0.808431   5 S  s               163      0.792704   7 S  s         
   217     -0.500854  10 C  s               311     -0.496725  20 C  s         

 Vector  194  Occ=0.000000D+00  E= 6.918747D-01
              MO Center=  1.8D-02,  2.8D-02, -2.3D-02, r^2= 1.4D+01
   Bfn.  Coefficient  Atom+Function         Bfn.  Coefficient  Atom+Function  
  ----- ------------  ---------------      ----- ------------  ---------------
   164     -1.507374   7 S  s               128      1.498002   5 S  s         
   247      1.219541  14 S  s               341     -1.196766  24 S  s         
   163      1.174179   7 S  s               127     -1.165726   5 S  s         
   246     -0.855238  14 S  s               340      0.840684  24 S  s         
   264     -0.400642  15 C  s               358      0.393338  25 C  s         

 Vector  195  Occ=0.000000D+00  E= 6.928571D-01
              MO Center= -5.5D-03,  1.7D-01, -1.0D-02, r^2= 1.5D+01
   Bfn.  Coefficient  Atom+Function         Bfn.  Coefficient  Atom+Function  
  ----- ------------  ---------------      ----- ------------  ---------------
   146      1.443285   6 S  s               182     -1.443255   8 S  s         
   294      1.336098  19 S  s               200     -1.322825   9 S  s         
   145     -1.111696   6 S  s               181      1.112082   8 S  s         
   293     -0.927258  19 S  s               199      0.918866   9 S  s         
   311     -0.412425  20 C  s               217      0.408003  10 C  s         

 Vector  196  Occ=0.000000D+00  E= 6.941889D-01
              MO Center= -8.4D-03, -1.8D+00,  1.2D-02, r^2= 1.5D+01
   Bfn.  Coefficient  Atom+Function         Bfn.  Coefficient  Atom+Function  
  ----- ------------  ---------------      ----- ------------  ---------------
   341      1.611643  24 S  s               247      1.597679  14 S  s         
   340     -1.117956  24 S  s               246     -1.109207  14 S  s         
   146     -1.005358   6 S  s               182     -1.002060   8 S  s         
   145      0.829737   6 S  s               181      0.827118   8 S  s         
   164      0.532375   7 S  s               128      0.521608   5 S  s         

 Vector  197  Occ=0.000000D+00  E= 7.475945D-01
              MO Center=  2.1D-02,  1.1D+00,  2.7D-02, r^2= 1.7D+01
   Bfn.  Coefficient  Atom+Function         Bfn.  Coefficient  Atom+Function  
  ----- ------------  ---------------      ----- ------------  ---------------
   200      1.913654   9 S  s               294     -1.865921  19 S  s         
   182     -1.282421   8 S  s               146      1.245552   6 S  s         
   199     -1.191115   9 S  s               293      1.162435  19 S  s         
     5     -1.098925   1 Fe s                67      1.072405   3 Fe s         
   181      0.958013   8 S  s               145     -0.929336   6 S  s         

 Vector  198  Occ=0.000000D+00  E= 7.484183D-01
              MO Center= -6.4D-03,  4.5D-02, -5.3D-02, r^2= 1.9D+01
   Bfn.  Coefficient  Atom+Function         Bfn.  Coefficient  Atom+Function  
  ----- ------------  ---------------      ----- ------------  ---------------
   247     -1.398846  14 S  s               294      1.376433  19 S  s         
   341     -1.342904  24 S  s               200      1.303198   9 S  s         
   128      0.902005   5 S  s               246      0.875247  14 S  s         
   164      0.857449   7 S  s               293     -0.855851  19 S  s         
   340      0.840915  24 S  s               146     -0.836185   6 S  s         

 Vector  199  Occ=0.000000D+00  E= 7.499572D-01
              MO Center= -1.9D-02, -1.3D+00,  2.8D-02, r^2= 1.8D+01
   Bfn.  Coefficient  Atom+Function         Bfn.  Coefficient  Atom+Function  
  ----- ------------  ---------------      ----- ------------  ---------------
   341     -1.983170  24 S  s               247      1.938425  14 S  s         
   340      1.240520  24 S  s               246     -1.212179  14 S  s         
   164      1.178215   7 S  s               128     -1.142043   5 S  s         
    98      1.115961   4 Fe s                36     -1.089413   2 Fe s         
   163     -0.883145   7 S  s               127      0.854165   5 S  s         

 Vector  200  Occ=0.000000D+00  E= 7.620950D-01
              MO Center=  1.6D-02,  7.7D-01, -5.0D-02, r^2= 1.3D+01
   Bfn.  Coefficient  Atom+Function         Bfn.  Coefficient  Atom+Function  
  ----- ------------  ---------------      ----- ------------  ---------------
   235      0.310749  12 H  s               329     -0.310205  22 H  s         
   134      0.230213   5 S  pz              132      0.224887   5 S  px        
   170     -0.225590   7 S  pz              168     -0.219542   7 S  px        
   137     -0.215339   5 S  pz              173      0.214255   7 S  pz        
   135     -0.209837   5 S  px              171      0.210186   7 S  px        

 Vector  201  Occ=0.000000D+00  E= 7.626621D-01
              MO Center= -3.8D-03,  7.2D-02,  5.2D-02, r^2= 1.3D+01
   Bfn.  Coefficient  Atom+Function         Bfn.  Coefficient  Atom+Function  
  ----- ------------  ---------------      ----- ------------  ---------------
   230      0.275706  11 H  s               277     -0.263188  16 H  s         
   334      0.260396  23 H  s               381     -0.255701  28 H  s         
   187      0.231014   8 S  py              151      0.221369   6 S  py        
   324     -0.221853  21 H  s               154     -0.220593   6 S  py        
   190     -0.220642   8 S  py              240     -0.211633  13 H  s         

 Vector  202  Occ=0.000000D+00  E= 7.712647D-01
              MO Center= -1.6D-03,  3.2D-01, -1.1D-02, r^2= 6.3D+00
   Bfn.  Coefficient  Atom+Function         Bfn.  Coefficient  Atom+Function  
  ----- ------------  ---------------      ----- ------------  ---------------
   176      0.332915   7 S  d  0            140      0.328736   5 S  d  0      
   171     -0.221398   7 S  px              173     -0.220704   7 S  pz        
   137      0.215861   5 S  pz              135      0.214617   5 S  px        
   157      0.194723   6 S  d -1            192      0.194611   8 S  d -2      
   178     -0.193396   7 S  d  2            156     -0.192320   6 S  d -2      

 Vector  203  Occ=0.000000D+00  E= 7.730041D-01
              MO Center=  9.2D-03, -4.0D-02,  1.1D-02, r^2= 5.8D+00
   Bfn.  Coefficient  Atom+Function         Bfn.  Coefficient  Atom+Function  
  ----- ------------  ---------------      ----- ------------  ---------------
   160      0.275951   6 S  d  2            142      0.269576   5 S  d  2      
   196      0.267171   8 S  d  2            178      0.264285   7 S  d  2      
   154      0.217043   6 S  py              190      0.208240   8 S  py        
   136     -0.194388   5 S  py              172     -0.192431   7 S  py        
   195      0.185693   8 S  d  1            164     -0.183601   7 S  s         

 Vector  204  Occ=0.000000D+00  E= 7.774021D-01
              MO Center= -7.2D-02,  4.0D-01,  1.9D-02, r^2= 1.2D+01
   Bfn.  Coefficient  Atom+Function         Bfn.  Coefficient  Atom+Function  
  ----- ------------  ---------------      ----- ------------  ---------------
   324     -0.482453  21 H  s               240      0.474377  13 H  s         
   311      0.397510  20 C  s               217     -0.386728  10 C  s         
   190     -0.277949   8 S  py              154      0.266981   6 S  py        
   196     -0.248669   8 S  d  2            160      0.238082   6 S  d  2      
   187      0.227364   8 S  py              151     -0.217989   6 S  py        

 Vector  205  Occ=0.000000D+00  E= 7.810868D-01
              MO Center=  6.9D-02,  1.0D-01, -1.3D-02, r^2= 1.4D+01
   Bfn.  Coefficient  Atom+Function         Bfn.  Coefficient  Atom+Function  
  ----- ------------  ---------------      ----- ------------  ---------------
   358     -0.623256  25 C  s               264      0.616186  15 C  s         
   287     -0.509985  18 H  s               371      0.509976  26 H  s         
   363      0.311587  25 C  py              269     -0.309164  15 C  py        
   178      0.290440   7 S  d  2            235     -0.290246  12 H  s         
   142     -0.285684   5 S  d  2            329     -0.283850  22 H  s         

 Vector  206  Occ=0.000000D+00  E= 7.843565D-01
              MO Center= -3.7D-02, -1.2D+00, -1.7D-02, r^2= 1.2D+01
   Bfn.  Coefficient  Atom+Function         Bfn.  Coefficient  Atom+Function  
  ----- ------------  ---------------      ----- ------------  ---------------
   376     -0.489842  27 H  s               282      0.478247  17 H  s         
   158      0.311308   6 S  d  0            194      0.306644   8 S  d  0      
   362     -0.304973  25 C  px              270      0.294836  15 C  pz        
   364     -0.287267  25 C  pz              268      0.280792  15 C  px        
   371      0.280951  26 H  s               153     -0.278550   6 S  px        

 Vector  207  Occ=0.000000D+00  E= 7.860384D-01
              MO Center= -2.3D-01,  1.2D+00, -1.5D-01, r^2= 3.3D+01
   Bfn.  Coefficient  Atom+Function         Bfn.  Coefficient  Atom+Function  
  ----- ------------  ---------------      ----- ------------  ---------------
   311      2.427440  20 C  s               217      2.216829  10 C  s         
   358     -1.501209  25 C  s               264     -1.418789  15 C  s         
   310     -0.948957  20 C  s               216     -0.867505  10 C  s         
   334     -0.831404  23 H  s               329     -0.816819  22 H  s         
   324     -0.766010  21 H  s               230     -0.758933  11 H  s         

 Vector  208  Occ=0.000000D+00  E= 7.863394D-01
              MO Center=  2.2D-01,  2.8D+00,  2.1D-01, r^2= 2.8D+01
   Bfn.  Coefficient  Atom+Function         Bfn.  Coefficient  Atom+Function  
  ----- ------------  ---------------      ----- ------------  ---------------
   217      2.874915  10 C  s               311     -2.667705  20 C  s         
   216     -1.121479  10 C  s               310      1.041651  20 C  s         
   230     -1.001874  11 H  s               235     -0.944727  12 H  s         
   334      0.933915  23 H  s               240     -0.912284  13 H  s         
   329      0.876946  22 H  s               324      0.839224  21 H  s         

 Vector  209  Occ=0.000000D+00  E= 7.868063D-01
              MO Center=  1.3D-01, -2.7D+00, -9.0D-02, r^2= 2.6D+01
   Bfn.  Coefficient  Atom+Function         Bfn.  Coefficient  Atom+Function  
  ----- ------------  ---------------      ----- ------------  ---------------
   264      2.716152  15 C  s               358     -2.600506  25 C  s         
   277     -1.078641  16 H  s               263     -1.066432  15 C  s         
   381      1.047156  28 H  s               357      1.021663  25 C  s         
   282     -0.878534  17 H  s               376      0.839026  27 H  s         
   287     -0.735737  18 H  s               371      0.691144  26 H  s         

 Vector  210  Occ=0.000000D+00  E= 7.884461D-01
              MO Center= -1.0D-01, -1.2D+00,  3.9D-02, r^2= 3.9D+01
   Bfn.  Coefficient  Atom+Function         Bfn.  Coefficient  Atom+Function  
  ----- ------------  ---------------      ----- ------------  ---------------
   358      2.481473  25 C  s               264      2.403729  15 C  s         
   311      1.717991  20 C  s               217      1.667419  10 C  s         
   357     -0.945354  25 C  s               263     -0.914946  15 C  s         
   371     -0.858066  26 H  s               287     -0.843414  18 H  s         
   376     -0.836970  27 H  s               282     -0.811926  17 H  s         

 Vector  211  Occ=0.000000D+00  E= 7.997622D-01
              MO Center=  1.5D-01,  1.4D+00,  1.3D-02, r^2= 3.4D+01
   Bfn.  Coefficient  Atom+Function         Bfn.  Coefficient  Atom+Function  
  ----- ------------  ---------------      ----- ------------  ---------------
   235      1.071479  12 H  s               329      1.021254  22 H  s         
   317      0.734337  20 C  pz              221     -0.726891  10 C  px        
   264      0.725613  15 C  s               287     -0.725056  18 H  s         
   223      0.682836  10 C  pz              315     -0.657719  20 C  px        
   371      0.659371  26 H  s               334     -0.555144  23 H  s         

 Vector  212  Occ=0.000000D+00  E= 8.002542D-01
              MO Center=  1.6D-01,  3.5D-01,  4.2D-02, r^2= 3.5D+01
   Bfn.  Coefficient  Atom+Function         Bfn.  Coefficient  Atom+Function  
  ----- ------------  ---------------      ----- ------------  ---------------
   240      0.914484  13 H  s               324      0.918673  21 H  s         
   277     -0.841440  16 H  s               381     -0.792452  28 H  s         
   316      0.638708  20 C  py              358      0.608814  25 C  s         
   222      0.605576  10 C  py              269      0.608456  15 C  py        
   230     -0.587926  11 H  s               287      0.588615  18 H  s         

 Vector  213  Occ=0.000000D+00  E= 8.007772D-01
              MO Center= -2.9D-01, -7.8D-01, -1.3D-01, r^2= 3.4D+01
   Bfn.  Coefficient  Atom+Function         Bfn.  Coefficient  Atom+Function  
  ----- ------------  ---------------      ----- ------------  ---------------
   282      0.978050  17 H  s               376      0.950934  27 H  s         
   230      0.804133  11 H  s               334     -0.782509  23 H  s         
   362      0.676496  25 C  px              316      0.658129  20 C  py        
   270      0.642235  15 C  pz              268      0.638006  15 C  px        
   364      0.618901  25 C  pz              222     -0.606430  10 C  py        

 Vector  214  Occ=0.000000D+00  E= 8.044688D-01
              MO Center=  9.1D-02,  2.2D+00,  2.6D-02, r^2= 2.7D+01
   Bfn.  Coefficient  Atom+Function         Bfn.  Coefficient  Atom+Function  
  ----- ------------  ---------------      ----- ------------  ---------------
   240      1.114163  13 H  s               324     -1.055865  21 H  s         
   223     -0.956405  10 C  pz              315     -0.957563  20 C  px        
   329      0.786560  22 H  s               235     -0.761057  12 H  s         
   222      0.513772  10 C  py              220      0.500207  10 C  pz        
   312      0.501591  20 C  px              316     -0.405005  20 C  py        

 Vector  215  Occ=0.000000D+00  E= 8.050947D-01
              MO Center= -3.1D-02,  1.8D+00, -3.5D-01, r^2= 2.9D+01
   Bfn.  Coefficient  Atom+Function         Bfn.  Coefficient  Atom+Function  
  ----- ------------  ---------------      ----- ------------  ---------------
   317      0.917198  20 C  pz              329      0.895088  22 H  s         
   334     -0.889560  23 H  s               230      0.877449  11 H  s         
   221      0.819887  10 C  px              235     -0.769389  12 H  s         
   282     -0.622696  17 H  s               222     -0.550285  10 C  py        
   316      0.528656  20 C  py              314     -0.479162  20 C  pz        

 Vector  216  Occ=0.000000D+00  E= 8.063948D-01
              MO Center= -1.3D+00, -9.1D-01,  1.8D+00, r^2= 2.5D+01
   Bfn.  Coefficient  Atom+Function         Bfn.  Coefficient  Atom+Function  
  ----- ------------  ---------------      ----- ------------  ---------------
   371      1.177557  26 H  s               363      1.106833  25 C  py        
   381     -0.992753  28 H  s               230      0.666255  11 H  s         
   360     -0.577251  25 C  py              221      0.536169  10 C  px        
   235     -0.521284  12 H  s               334      0.507519  23 H  s         
   264      0.498103  15 C  s               364      0.467651  25 C  pz        

 Vector  217  Occ=0.000000D+00  E= 8.067124D-01
              MO Center=  1.4D+00, -2.2D-01, -1.4D+00, r^2= 2.7D+01
   Bfn.  Coefficient  Atom+Function         Bfn.  Coefficient  Atom+Function  
  ----- ------------  ---------------      ----- ------------  ---------------
   277      1.060341  16 H  s               287     -0.952672  18 H  s         
   269     -0.920105  15 C  py              324      0.701227  21 H  s         
   222      0.666787  10 C  py              316      0.659544  20 C  py        
   230     -0.627158  11 H  s               334     -0.612394  23 H  s         
   270      0.583198  15 C  pz              240      0.557756  13 H  s         

 Vector  218  Occ=0.000000D+00  E= 8.085941D-01
              MO Center= -2.8D-01, -2.8D+00,  6.0D-03, r^2= 2.3D+01
   Bfn.  Coefficient  Atom+Function         Bfn.  Coefficient  Atom+Function  
  ----- ------------  ---------------      ----- ------------  ---------------
   376     -1.075491  27 H  s               282      1.009207  17 H  s         
   364     -0.887776  25 C  pz              268      0.861719  15 C  px        
   362     -0.768373  25 C  px              270      0.703861  15 C  pz        
   277     -0.672222  16 H  s               381      0.663732  28 H  s         
   371      0.589045  26 H  s               287     -0.524818  18 H  s         

 Vector  219  Occ=0.000000D+00  E= 8.108390D-01
              MO Center=  1.4D-01, -4.7D-01, -1.7D-01, r^2= 1.7D+01
   Bfn.  Coefficient  Atom+Function         Bfn.  Coefficient  Atom+Function  
  ----- ------------  ---------------      ----- ------------  ---------------
   358     -0.855941  25 C  s               287      0.824295  18 H  s         
   311      0.737626  20 C  s               371      0.707043  26 H  s         
   264     -0.700349  15 C  s               217      0.622757  10 C  s         
   269      0.586344  15 C  py               98     -0.553891   4 Fe s         
    67      0.510027   3 Fe s               363      0.465201  25 C  py        

 Vector  220  Occ=0.000000D+00  E= 8.120076D-01
              MO Center= -4.3D-02, -6.7D-01,  1.3D-01, r^2= 1.6D+01
   Bfn.  Coefficient  Atom+Function         Bfn.  Coefficient  Atom+Function  
  ----- ------------  ---------------      ----- ------------  ---------------
   264      0.985671  15 C  s               358     -0.937968  25 C  s         
   376      0.709190  27 H  s               277     -0.677424  16 H  s         
    36      0.668285   2 Fe s                98     -0.625081   4 Fe s         
   362      0.575929  25 C  px              311     -0.449834  20 C  s         
   381      0.432992  28 H  s               217      0.405489  10 C  s         

 Vector  221  Occ=0.000000D+00  E= 8.122164D-01
              MO Center= -4.4D-02, -3.1D-01, -2.2D-02, r^2= 1.7D+01
   Bfn.  Coefficient  Atom+Function         Bfn.  Coefficient  Atom+Function  
  ----- ------------  ---------------      ----- ------------  ---------------
   217      0.854887  10 C  s               311     -0.786101  20 C  s         
     5      0.652874   1 Fe s               282      0.637658  17 H  s         
   381     -0.633977  28 H  s                67     -0.606875   3 Fe s         
   264     -0.518541  15 C  s               329      0.496314  22 H  s         
   358      0.435096  25 C  s               240     -0.428140  13 H  s         

 Vector  222  Occ=0.000000D+00  E= 8.591188D-01
              MO Center=  4.3D-04, -1.1D-03,  2.3D-04, r^2= 1.3D+01
   Bfn.  Coefficient  Atom+Function         Bfn.  Coefficient  Atom+Function  
  ----- ------------  ---------------      ----- ------------  ---------------
   146      1.449008   6 S  s               182      1.451713   8 S  s         
   128      1.428914   5 S  s               164      1.422720   7 S  s         
   145     -0.976034   6 S  s               181     -0.977657   8 S  s         
   127     -0.962895   5 S  s               163     -0.959194   7 S  s         
   247      0.603281  14 S  s               341      0.603413  24 S  s         

 Vector  223  Occ=0.000000D+00  E= 8.636253D-01
              MO Center= -1.1D-01,  1.8D+00,  4.3D-03, r^2= 1.1D+01
   Bfn.  Coefficient  Atom+Function         Bfn.  Coefficient  Atom+Function  
  ----- ------------  ---------------      ----- ------------  ---------------
   128      0.428395   5 S  s               141     -0.428610   5 S  d  1      
   164     -0.420659   7 S  s               177      0.403737   7 S  d  1      
   306     -0.353836  19 S  d  0            127     -0.275594   5 S  s         
   163      0.262647   7 S  s               214     -0.258231   9 S  d  2      
   305      0.241445  19 S  d -1            210     -0.232992   9 S  d -2      

 Vector  224  Occ=0.000000D+00  E= 8.649715D-01
              MO Center=  2.1D-01,  9.4D-01,  1.2D-01, r^2= 1.1D+01
   Bfn.  Coefficient  Atom+Function         Bfn.  Coefficient  Atom+Function  
  ----- ------------  ---------------      ----- ------------  ---------------
   146      0.348221   6 S  s               175     -0.286249   7 S  d -1      
   138     -0.278325   5 S  d -2            308     -0.278309  19 S  d  2      
   182     -0.276718   8 S  s               174     -0.268375   7 S  d -2      
   139     -0.254969   5 S  d -1            212      0.245549   9 S  d  0      
   145     -0.220027   6 S  s               156      0.217717   6 S  d -2      

 Vector  225  Occ=0.000000D+00  E= 8.666494D-01
              MO Center= -9.4D-02,  1.0D-01, -1.6D-01, r^2= 1.5D+01
   Bfn.  Coefficient  Atom+Function         Bfn.  Coefficient  Atom+Function  
  ----- ------------  ---------------      ----- ------------  ---------------
   182      0.376554   8 S  s               164     -0.310820   7 S  s         
   308      0.288794  19 S  d  2            146      0.281789   6 S  s         
   128     -0.278226   5 S  s               192     -0.265828   8 S  d -2      
   156      0.261309   6 S  d -2            174      0.262286   7 S  d -2      
   261     -0.244473  14 S  d  2            181     -0.242850   8 S  s         

 Vector  226  Occ=0.000000D+00  E= 8.669918D-01
              MO Center= -1.1D-01,  1.5D-01, -1.7D-02, r^2= 1.1D+01
   Bfn.  Coefficient  Atom+Function         Bfn.  Coefficient  Atom+Function  
  ----- ------------  ---------------      ----- ------------  ---------------
   139      0.349995   5 S  d -1            193     -0.349183   8 S  d -1      
   175     -0.317149   7 S  d -1            157      0.300107   6 S  d -1      
   174     -0.238572   7 S  d -2            138      0.218204   5 S  d -2      
   192      0.216020   8 S  d -2            306      0.199755  19 S  d  0      
   156     -0.190685   6 S  d -2            212      0.183734   9 S  d  0      

 Vector  227  Occ=0.000000D+00  E= 8.687492D-01
              MO Center=  8.7D-02, -8.0D-01, -2.3D-02, r^2= 1.1D+01
   Bfn.  Coefficient  Atom+Function         Bfn.  Coefficient  Atom+Function  
  ----- ------------  ---------------      ----- ------------  ---------------
   157     -0.279126   6 S  d -1            261      0.276547  14 S  d  2      
   156      0.267018   6 S  d -2            177      0.251855   7 S  d  1      
   192      0.249727   8 S  d -2            141     -0.244541   5 S  d  1      
   175      0.241861   7 S  d -1            193     -0.242590   8 S  d -1      
   164      0.236006   7 S  s               128     -0.226579   5 S  s         

 Vector  228  Occ=0.000000D+00  E= 8.709713D-01
              MO Center=  2.8D-02, -1.8D+00,  7.9D-02, r^2= 9.7D+00
   Bfn.  Coefficient  Atom+Function         Bfn.  Coefficient  Atom+Function  
  ----- ------------  ---------------      ----- ------------  ---------------
   159      0.462571   6 S  d  1            195     -0.448184   8 S  d  1      
   146      0.387057   6 S  s               259     -0.323471  14 S  d  0      
   182     -0.321551   8 S  s               355     -0.252291  24 S  d  2      
   145     -0.247311   6 S  s               353      0.225787  24 S  d  0      
   351     -0.222793  24 S  d -2            364     -0.221992  25 C  pz        

 Vector  229  Occ=0.000000D+00  E= 8.905508D-01
              MO Center=  3.4D-02,  1.5D+00, -8.5D-03, r^2= 1.5D+01
   Bfn.  Coefficient  Atom+Function         Bfn.  Coefficient  Atom+Function  
  ----- ------------  ---------------      ----- ------------  ---------------
   213      0.390331   9 S  d  1            305      0.346879  19 S  d -1      
   235     -0.341923  12 H  s               307     -0.329085  19 S  d  1      
   214      0.314603   9 S  d  2            329      0.313186  22 H  s         
   334     -0.274964  23 H  s               308     -0.249134  19 S  d  2      
   210      0.239589   9 S  d -2            306     -0.193660  19 S  d  0      

 Vector  230  Occ=0.000000D+00  E= 8.924697D-01
              MO Center= -4.3D-03,  9.5D-01,  7.1D-02, r^2= 1.7D+01
   Bfn.  Coefficient  Atom+Function         Bfn.  Coefficient  Atom+Function  
  ----- ------------  ---------------      ----- ------------  ---------------
   304     -0.347628  19 S  d -2            211      0.342536   9 S  d -1      
   324      0.315127  21 H  s               210     -0.295744   9 S  d -2      
   230     -0.290516  11 H  s               212     -0.286389   9 S  d  0      
   240      0.276254  13 H  s               306      0.248649  19 S  d  0      
   307      0.233089  19 S  d  1            261     -0.226524  14 S  d  2      

 Vector  231  Occ=0.000000D+00  E= 8.955077D-01
              MO Center= -1.6D-01,  2.0D+00, -1.1D-01, r^2= 1.3D+01
   Bfn.  Coefficient  Atom+Function         Bfn.  Coefficient  Atom+Function  
  ----- ------------  ---------------      ----- ------------  ---------------
   324     -0.427442  21 H  s               304      0.412108  19 S  d -2      
   240      0.403997  13 H  s               211      0.389730   9 S  d -1      
   334      0.355624  23 H  s               230     -0.331991  11 H  s         
   305     -0.331305  19 S  d -1            316     -0.327426  20 C  py        
   306     -0.317517  19 S  d  0            222      0.307570  10 C  py        

 Vector  232  Occ=0.000000D+00  E= 8.967212D-01
              MO Center= -1.8D-03,  4.8D-02,  1.7D-03, r^2= 1.1D+01
   Bfn.  Coefficient  Atom+Function         Bfn.  Coefficient  Atom+Function  
  ----- ------------  ---------------      ----- ------------  ---------------
   217      0.673806  10 C  s               311      0.673902  20 C  s         
   264      0.537218  15 C  s               358      0.536108  25 C  s         
   128     -0.496452   5 S  s               164     -0.494890   7 S  s         
   146     -0.488936   6 S  s               182     -0.486626   8 S  s         
   200     -0.371786   9 S  s               294     -0.370587  19 S  s         

 Vector  233  Occ=0.000000D+00  E= 8.985861D-01
              MO Center=  2.3D-01,  2.0D+00,  8.5D-02, r^2= 1.4D+01
   Bfn.  Coefficient  Atom+Function         Bfn.  Coefficient  Atom+Function  
  ----- ------------  ---------------      ----- ------------  ---------------
   235      0.459369  12 H  s               329      0.429140  22 H  s         
   213     -0.410438   9 S  d  1            307     -0.386861  19 S  d  1      
   221     -0.358948  10 C  px              308     -0.332949  19 S  d  2      
   317      0.330410  20 C  pz              230     -0.311157  11 H  s         
   212     -0.288511   9 S  d  0            223      0.282660  10 C  pz        

 Vector  234  Occ=0.000000D+00  E= 9.025922D-01
              MO Center= -2.0D-01, -1.2D+00, -6.8D-02, r^2= 1.6D+01
   Bfn.  Coefficient  Atom+Function         Bfn.  Coefficient  Atom+Function  
  ----- ------------  ---------------      ----- ------------  ---------------
   351      0.351772  24 S  d -2            260      0.343985  14 S  d  1      
   354     -0.305001  24 S  d  1            355      0.289261  24 S  d  2      
   258     -0.273127  14 S  d -1            259     -0.273657  14 S  d  0      
   282      0.265588  17 H  s               376     -0.256657  27 H  s         
   329     -0.242843  22 H  s               308      0.240660  19 S  d  2      

 Vector  235  Occ=0.000000D+00  E= 9.064938D-01
              MO Center=  3.2D-01, -7.9D-02, -9.5D-02, r^2= 1.8D+01
   Bfn.  Coefficient  Atom+Function         Bfn.  Coefficient  Atom+Function  
  ----- ------------  ---------------      ----- ------------  ---------------
   214      0.336125   9 S  d  2            222      0.337076  10 C  py        
   316      0.328547  20 C  py              257      0.320069  14 S  d -2      
   240      0.307990  13 H  s               306      0.284511  19 S  d  0      
   352      0.260669  24 S  d -1            324      0.255783  21 H  s         
   258      0.252308  14 S  d -1            277     -0.251808  16 H  s         

 Vector  236  Occ=0.000000D+00  E= 9.082285D-01
              MO Center= -2.4D-01, -1.9D+00,  2.1D-01, r^2= 1.4D+01
   Bfn.  Coefficient  Atom+Function         Bfn.  Coefficient  Atom+Function  
  ----- ------------  ---------------      ----- ------------  ---------------
   352      0.425962  24 S  d -1            257     -0.384234  14 S  d -2      
   381     -0.384478  28 H  s               277      0.346657  16 H  s         
   351      0.306364  24 S  d -2            371      0.304511  26 H  s         
   259      0.297722  14 S  d  0            353      0.294119  24 S  d  0      
   287     -0.276270  18 H  s               258     -0.270210  14 S  d -1      

 Vector  237  Occ=0.000000D+00  E= 9.114611D-01
              MO Center=  1.9D-02, -2.1D+00, -1.4D-01, r^2= 1.3D+01
   Bfn.  Coefficient  Atom+Function         Bfn.  Coefficient  Atom+Function  
  ----- ------------  ---------------      ----- ------------  ---------------
   260      0.412137  14 S  d  1            282      0.407812  17 H  s         
   354      0.401702  24 S  d  1            376      0.394106  27 H  s         
   261     -0.369906  14 S  d  2            270      0.308317  15 C  pz        
   362      0.297397  25 C  px              258     -0.275321  14 S  d -1      
   287     -0.271340  18 H  s               351     -0.263981  24 S  d -2      

 Vector  238  Occ=0.000000D+00  E= 9.180935D-01
              MO Center=  3.7D-03,  4.8D-02,  1.5D-01, r^2= 1.8D+01
   Bfn.  Coefficient  Atom+Function         Bfn.  Coefficient  Atom+Function  
  ----- ------------  ---------------      ----- ------------  ---------------
   212      0.355381   9 S  d  0            223     -0.307186  10 C  pz        
   270      0.306627  15 C  pz              317      0.306418  20 C  pz        
   364     -0.299430  25 C  pz              353      0.280161  24 S  d  0      
   376     -0.277026  27 H  s               221      0.263718  10 C  px        
   260      0.248435  14 S  d  1            306      0.247076  19 S  d  0      

 Vector  239  Occ=0.000000D+00  E= 9.196144D-01
              MO Center= -2.1D-02, -7.6D-01, -9.0D-02, r^2= 1.8D+01
   Bfn.  Coefficient  Atom+Function         Bfn.  Coefficient  Atom+Function  
  ----- ------------  ---------------      ----- ------------  ---------------
   363      0.379821  25 C  py              269      0.368316  15 C  py        
   355     -0.340206  24 S  d  2            259     -0.337569  14 S  d  0      
   277     -0.324548  16 H  s               351      0.302091  24 S  d -2      
   258      0.273352  14 S  d -1            371      0.271278  26 H  s         
   381     -0.272550  28 H  s               268      0.258707  15 C  px        

 Vector  240  Occ=0.000000D+00  E= 9.318721D-01
              MO Center=  1.6D-03,  1.4D+00, -5.6D-03, r^2= 1.5D+01
   Bfn.  Coefficient  Atom+Function         Bfn.  Coefficient  Atom+Function  
  ----- ------------  ---------------      ----- ------------  ---------------
   311     -2.212809  20 C  s               217      2.189109  10 C  s         
   294      0.833338  19 S  s               200     -0.824525   9 S  s         
   310      0.749326  20 C  s               216     -0.741193  10 C  s         
   240     -0.415996  13 H  s               324      0.416470  21 H  s         
   151      0.365165   6 S  py              187     -0.361516   8 S  py        

 Vector  241  Occ=0.000000D+00  E= 9.343537D-01
              MO Center=  1.5D-01,  2.2D-01,  1.5D-01, r^2= 1.9D+01
   Bfn.  Coefficient  Atom+Function         Bfn.  Coefficient  Atom+Function  
  ----- ------------  ---------------      ----- ------------  ---------------
   217      2.115206  10 C  s               311      1.732155  20 C  s         
   264     -1.564078  15 C  s               358     -1.570359  25 C  s         
   200     -0.762337   9 S  s               216     -0.708753  10 C  s         
   294     -0.627069  19 S  s               247      0.606362  14 S  s         
   341      0.608073  24 S  s               310     -0.580885  20 C  s         

 Vector  242  Occ=0.000000D+00  E= 9.345608D-01
              MO Center= -5.0D-03,  1.1D+00, -1.3D-01, r^2= 1.8D+01
   Bfn.  Coefficient  Atom+Function         Bfn.  Coefficient  Atom+Function  
  ----- ------------  ---------------      ----- ------------  ---------------
   311      1.323235  20 C  s               217     -0.624943  10 C  s         
   294     -0.480602  19 S  s               310     -0.441963  20 C  s         
   302     -0.394934  19 S  py              208      0.372647   9 S  py        
   214     -0.320631   9 S  d  2            205     -0.306246   9 S  py        
   264     -0.305716  15 C  s               334     -0.286150  23 H  s         

 Vector  243  Occ=0.000000D+00  E= 9.355085D-01
              MO Center= -7.6D-02, -1.2D+00, -6.6D-02, r^2= 1.6D+01
   Bfn.  Coefficient  Atom+Function         Bfn.  Coefficient  Atom+Function  
  ----- ------------  ---------------      ----- ------------  ---------------
   264      2.218236  15 C  s               358     -2.193316  25 C  s         
   247     -0.828526  14 S  s               341      0.823978  24 S  s         
   263     -0.747124  15 C  s               357      0.738979  25 C  s         
   255      0.372687  14 S  py              349     -0.373698  24 S  py        
   287     -0.350943  18 H  s               371      0.350124  26 H  s         

 Vector  244  Occ=0.000000D+00  E= 9.360677D-01
              MO Center= -1.3D-01, -5.7D-01, -1.3D-01, r^2= 1.8D+01
   Bfn.  Coefficient  Atom+Function         Bfn.  Coefficient  Atom+Function  
  ----- ------------  ---------------      ----- ------------  ---------------
   358     -0.441109  25 C  s               264      0.411314  15 C  s         
   353     -0.336766  24 S  d  0            364      0.280443  25 C  pz        
   268     -0.278238  15 C  px              259     -0.259878  14 S  d  0      
   270     -0.258514  15 C  pz              362      0.253948  25 C  px        
   261      0.243948  14 S  d  2            256      0.238753  14 S  pz        

 Vector  245  Occ=0.000000D+00  E= 9.369130D-01
              MO Center=  8.6D-02, -9.4D-01,  1.7D-01, r^2= 1.8D+01
   Bfn.  Coefficient  Atom+Function         Bfn.  Coefficient  Atom+Function  
  ----- ------------  ---------------      ----- ------------  ---------------
   358     -1.014619  25 C  s               264      0.998939  15 C  s         
   363     -0.403526  25 C  py              269      0.395938  15 C  py        
   247     -0.376896  14 S  s               341      0.377068  24 S  s         
   355      0.352047  24 S  d  2            357      0.339309  25 C  s         
   263     -0.334275  15 C  s               133      0.304545   5 S  py        

 Vector  246  Occ=0.000000D+00  E= 9.461786D-01
              MO Center= -5.3D-03,  5.2D-01,  1.6D-04, r^2= 2.8D+01
   Bfn.  Coefficient  Atom+Function         Bfn.  Coefficient  Atom+Function  
  ----- ------------  ---------------      ----- ------------  ---------------
   217      2.581770  10 C  s               311      2.582527  20 C  s         
   264      2.128598  15 C  s               358      2.138085  25 C  s         
   200     -0.845790   9 S  s               294     -0.844627  19 S  s         
   216     -0.828213  10 C  s               310     -0.828442  20 C  s         
   247     -0.711671  14 S  s               341     -0.714178  24 S  s         

 Vector  247  Occ=0.000000D+00  E= 9.493757D-01
              MO Center=  6.8D-03,  1.3D+00,  3.8D-02, r^2= 1.9D+01
   Bfn.  Coefficient  Atom+Function         Bfn.  Coefficient  Atom+Function  
  ----- ------------  ---------------      ----- ------------  ---------------
   217      2.571917  10 C  s               311     -2.568218  20 C  s         
   200     -0.868248   9 S  s               294      0.870786  19 S  s         
   216     -0.797706  10 C  s               310      0.796679  20 C  s         
   230     -0.400260  11 H  s               334      0.399710  23 H  s         
   235     -0.379734  12 H  s               329      0.380201  22 H  s         

 Vector  248  Occ=0.000000D+00  E= 9.513594D-01
              MO Center=  1.8D-01, -9.2D-01, -2.6D-01, r^2= 2.0D+01
   Bfn.  Coefficient  Atom+Function         Bfn.  Coefficient  Atom+Function  
  ----- ------------  ---------------      ----- ------------  ---------------
   264      2.414033  15 C  s               358      1.984148  25 C  s         
   311     -1.131261  20 C  s               217     -1.123729  10 C  s         
   247     -0.824991  14 S  s               263     -0.751602  15 C  s         
   341     -0.681038  24 S  s               357     -0.618607  25 C  s         
   277     -0.391916  16 H  s               200      0.387904   9 S  s         

 Vector  249  Occ=0.000000D+00  E= 9.515956D-01
              MO Center= -2.0D-01, -1.2D+00,  2.3D-01, r^2= 1.9D+01
   Bfn.  Coefficient  Atom+Function         Bfn.  Coefficient  Atom+Function  
  ----- ------------  ---------------      ----- ------------  ---------------
   358      2.554193  25 C  s               264     -2.146982  15 C  s         
   341     -0.875222  24 S  s               357     -0.790501  25 C  s         
   247      0.738298  14 S  s               263      0.663664  15 C  s         
   371     -0.408904  26 H  s               376     -0.378706  27 H  s         
   370     -0.365850  26 H  s               381     -0.358633  28 H  s         

 Vector  250  Occ=0.000000D+00  E= 9.654614D-01
              MO Center= -2.3D-01,  3.9D-01,  2.2D-01, r^2= 2.0D+01
   Bfn.  Coefficient  Atom+Function         Bfn.  Coefficient  Atom+Function  
  ----- ------------  ---------------      ----- ------------  ---------------
   264      1.534975  15 C  s               311     -0.797240  20 C  s         
   217     -0.735633  10 C  s               247     -0.590535  14 S  s         
   208      0.470242   9 S  py              302      0.471680  19 S  py        
   263     -0.455458  15 C  s               204      0.425900   9 S  px        
   300     -0.424949  19 S  pz              349      0.417367  24 S  py        

 Vector  251  Occ=0.000000D+00  E= 9.655365D-01
              MO Center=  2.3D-01,  4.3D-01, -2.3D-01, r^2= 2.0D+01
   Bfn.  Coefficient  Atom+Function         Bfn.  Coefficient  Atom+Function  
  ----- ------------  ---------------      ----- ------------  ---------------
   358      1.751000  25 C  s               264     -0.884585  15 C  s         
   341     -0.674272  24 S  s               357     -0.519323  25 C  s         
   206      0.493064   9 S  pz              298     -0.491114  19 S  px        
   252     -0.440045  14 S  py              209     -0.424498   9 S  pz        
   301      0.417738  19 S  px              311     -0.386648  20 C  s         

 Vector  252  Occ=0.000000D+00  E= 9.667910D-01
              MO Center=  5.8D-03, -9.2D-01,  1.1D-02, r^2= 1.9D+01
   Bfn.  Coefficient  Atom+Function         Bfn.  Coefficient  Atom+Function  
  ----- ------------  ---------------      ----- ------------  ---------------
   217      1.101576  10 C  s               311     -1.050866  20 C  s         
   200     -0.429368   9 S  s               251      0.429679  14 S  px        
   347      0.430602  24 S  pz              253      0.420239  14 S  pz        
   345      0.421349  24 S  px              254     -0.407915  14 S  px        
   256     -0.406787  14 S  pz              294      0.406229  19 S  s         

 Vector  253  Occ=0.000000D+00  E= 9.842464D-01
              MO Center= -2.1D-03,  5.0D-01, -9.9D-03, r^2= 1.7D+01
   Bfn.  Coefficient  Atom+Function         Bfn.  Coefficient  Atom+Function  
  ----- ------------  ---------------      ----- ------------  ---------------
   206     -0.462074   9 S  pz              209      0.460959   9 S  pz        
   298     -0.461343  19 S  px              300      0.463144  19 S  pz        
   303     -0.460917  19 S  pz              204      0.457499   9 S  px        
   301      0.459786  19 S  px              207     -0.455293   9 S  px        
   253      0.357151  14 S  pz              347     -0.357661  24 S  pz        

 Vector  254  Occ=0.000000D+00  E= 9.850210D-01
              MO Center= -2.5D-03, -4.8D-01,  1.3D-02, r^2= 1.7D+01
   Bfn.  Coefficient  Atom+Function         Bfn.  Coefficient  Atom+Function  
  ----- ------------  ---------------      ----- ------------  ---------------
   349     -0.515511  24 S  py              255     -0.511984  14 S  py        
   346      0.512252  24 S  py              252      0.509325  14 S  py        
   205     -0.433306   9 S  py              299     -0.429745  19 S  py        
   208      0.418719   9 S  py              302      0.413703  19 S  py        
   345     -0.273233  24 S  px              251      0.270683  14 S  px        

 Vector  255  Occ=0.000000D+00  E= 1.009278D+00
              MO Center= -6.5D-04,  8.5D-01, -9.0D-03, r^2= 1.5D+01
   Bfn.  Coefficient  Atom+Function         Bfn.  Coefficient  Atom+Function  
  ----- ------------  ---------------      ----- ------------  ---------------
   208     -0.557379   9 S  py              302      0.558574  19 S  py        
   205      0.521639   9 S  py              299     -0.523071  19 S  py        
   151      0.277225   6 S  py              187     -0.277382   8 S  py        
   204     -0.276302   9 S  px              300     -0.277246  19 S  pz        
   207      0.274773   9 S  px              303      0.276007  19 S  pz        

 Vector  256  Occ=0.000000D+00  E= 1.013002D+00
              MO Center=  9.6D-03, -5.5D-01,  2.6D-02, r^2= 1.5D+01
   Bfn.  Coefficient  Atom+Function         Bfn.  Coefficient  Atom+Function  
  ----- ------------  ---------------      ----- ------------  ---------------
   350      0.445159  24 S  pz              254     -0.440812  14 S  px        
   347     -0.435871  24 S  pz              251      0.431471  14 S  px        
   348      0.430483  24 S  px              256     -0.426176  14 S  pz        
   345     -0.422263  24 S  px              253      0.417907  14 S  pz        
   209     -0.331787   9 S  pz              207      0.326197   9 S  px        

 Vector  257  Occ=0.000000D+00  E= 1.013950D+00
              MO Center= -1.2D-02, -5.9D-01, -1.7D-02, r^2= 1.5D+01
   Bfn.  Coefficient  Atom+Function         Bfn.  Coefficient  Atom+Function  
  ----- ------------  ---------------      ----- ------------  ---------------
   252      0.529347  14 S  py              255     -0.527645  14 S  py        
   346     -0.528933  24 S  py              349      0.527414  24 S  py        
   133     -0.348500   5 S  py              169      0.348666   7 S  py        
   256      0.284561  14 S  pz              301      0.285279  19 S  px        
   303     -0.283884  19 S  pz              348     -0.284214  24 S  px        

 Vector  258  Occ=0.000000D+00  E= 1.061426D+00
              MO Center=  4.8D-03,  1.9D-01, -1.6D-03, r^2= 9.2D+00
   Bfn.  Coefficient  Atom+Function         Bfn.  Coefficient  Atom+Function  
  ----- ------------  ---------------      ----- ------------  ---------------
    14     -0.538814   1 Fe pz               74     -0.539332   3 Fe px        
    12     -0.535044   1 Fe px               76     -0.535752   3 Fe pz        
    66     -0.502865   3 Fe s                 4      0.497623   1 Fe s         
   146      0.485859   6 S  s               182     -0.480507   8 S  s         
   154      0.467165   6 S  py              190     -0.467966   8 S  py        

 Vector  259  Occ=0.000000D+00  E= 1.063868D+00
              MO Center= -3.1D-04, -1.9D-02,  4.2D-03, r^2= 1.1D+01
   Bfn.  Coefficient  Atom+Function         Bfn.  Coefficient  Atom+Function  
  ----- ------------  ---------------      ----- ------------  ---------------
    13      0.548083   1 Fe py               75      0.546588   3 Fe py        
   106      0.542513   4 Fe py               44      0.539195   2 Fe py        
   182      0.436254   8 S  s               146      0.426518   6 S  s         
     4     -0.390702   1 Fe s                66     -0.381173   3 Fe s         
    97      0.365238   4 Fe s               164     -0.360330   7 S  s         

 Vector  260  Occ=0.000000D+00  E= 1.064977D+00
              MO Center= -6.5D-05, -4.4D-02, -2.6D-03, r^2= 1.1D+01
   Bfn.  Coefficient  Atom+Function         Bfn.  Coefficient  Atom+Function  
  ----- ------------  ---------------      ----- ------------  ---------------
   128     -0.570487   5 S  s               164      0.564748   7 S  s         
    35      0.521014   2 Fe s                97     -0.515941   4 Fe s         
    74     -0.434240   3 Fe px               76      0.434543   3 Fe pz        
    12     -0.431180   1 Fe px               14      0.430771   1 Fe pz        
    36     -0.396991   2 Fe s                98      0.393293   4 Fe s         

 Vector  261  Occ=0.000000D+00  E= 1.068531D+00
              MO Center= -3.3D-03,  1.2D-01, -1.6D-03, r^2= 1.0D+01
   Bfn.  Coefficient  Atom+Function         Bfn.  Coefficient  Atom+Function  
  ----- ------------  ---------------      ----- ------------  ---------------
   135     -0.407448   5 S  px              137     -0.408378   5 S  pz        
   171     -0.406490   7 S  px              173     -0.405571   7 S  pz        
   132      0.385579   5 S  px              134      0.386444   5 S  pz        
   168      0.384186   7 S  px              170      0.383349   7 S  pz        
    43      0.356100   2 Fe px               45      0.356816   2 Fe pz        

 Vector  262  Occ=0.000000D+00  E= 1.071617D+00
              MO Center= -1.2D-03,  8.3D-02,  3.8D-03, r^2= 7.9D+00
   Bfn.  Coefficient  Atom+Function         Bfn.  Coefficient  Atom+Function  
  ----- ------------  ---------------      ----- ------------  ---------------
   171     -0.415443   7 S  px              173     -0.415415   7 S  pz        
   135      0.413277   5 S  px              137      0.413286   5 S  pz        
    12      0.375331   1 Fe px               14     -0.372165   1 Fe pz        
    76      0.372854   3 Fe pz               74     -0.369695   3 Fe px        
   105      0.357511   4 Fe px              191      0.356351   8 S  pz        

 Vector  263  Occ=0.000000D+00  E= 1.074663D+00
              MO Center= -3.2D-03,  2.0D-01, -1.4D-03, r^2= 8.7D+00
   Bfn.  Coefficient  Atom+Function         Bfn.  Coefficient  Atom+Function  
  ----- ------------  ---------------      ----- ------------  ---------------
    44      0.556870   2 Fe py              106     -0.555570   4 Fe py        
   136     -0.495389   5 S  py              172      0.495322   7 S  py        
   135     -0.397540   5 S  px              137      0.397573   5 S  pz        
   171     -0.396071   7 S  px              173      0.396005   7 S  pz        
   133      0.365942   5 S  py              169     -0.365887   7 S  py        

 Vector  264  Occ=0.000000D+00  E= 1.076700D+00
              MO Center=  1.2D-02,  8.7D-02,  7.6D-03, r^2= 9.7D+00
   Bfn.  Coefficient  Atom+Function         Bfn.  Coefficient  Atom+Function  
  ----- ------------  ---------------      ----- ------------  ---------------
   200      0.606762   9 S  s               294     -0.599773  19 S  s         
   217     -0.582318  10 C  s               311      0.575190  20 C  s         
   146      0.527536   6 S  s               182     -0.526864   8 S  s         
   153     -0.451554   6 S  px              155     -0.453086   6 S  pz        
   189     -0.452588   8 S  px              191     -0.451070   8 S  pz        

 Vector  265  Occ=0.000000D+00  E= 1.078481D+00
              MO Center= -9.2D-03,  4.2D-01, -8.5D-03, r^2= 9.6D+00
   Bfn.  Coefficient  Atom+Function         Bfn.  Coefficient  Atom+Function  
  ----- ------------  ---------------      ----- ------------  ---------------
   294      0.658438  19 S  s               311     -0.660756  20 C  s         
   200      0.653315   9 S  s               217     -0.655970  10 C  s         
    75     -0.592728   3 Fe py               13     -0.588361   1 Fe py        
    44     -0.557261   2 Fe py              106     -0.559189   4 Fe py        
   128      0.516911   5 S  s               164      0.518219   7 S  s         

 Vector  266  Occ=0.000000D+00  E= 1.086552D+00
              MO Center=  1.8D-03, -8.7D-01, -2.2D-04, r^2= 8.2D+00
   Bfn.  Coefficient  Atom+Function         Bfn.  Coefficient  Atom+Function  
  ----- ------------  ---------------      ----- ------------  ---------------
    43      0.607640   2 Fe px               45     -0.605630   2 Fe pz        
   105      0.605474   4 Fe px              107     -0.607470   4 Fe pz        
   128      0.551715   5 S  s               164     -0.552179   7 S  s         
   247     -0.489166  14 S  s               341      0.486892  24 S  s         
   264      0.400042  15 C  s               358     -0.397687  25 C  s         

 Vector  267  Occ=0.000000D+00  E= 1.099743D+00
              MO Center= -1.2D-03, -3.3D-01,  4.6D-04, r^2= 1.2D+01
   Bfn.  Coefficient  Atom+Function         Bfn.  Coefficient  Atom+Function  
  ----- ------------  ---------------      ----- ------------  ---------------
   247      0.946912  14 S  s               341      0.947844  24 S  s         
   264     -0.908008  15 C  s               358     -0.909052  25 C  s         
   217     -0.858951  10 C  s               311     -0.859451  20 C  s         
   200      0.835381   9 S  s               294      0.835805  19 S  s         
   146      0.547814   6 S  s               182      0.548448   8 S  s         

 Vector  268  Occ=0.000000D+00  E= 1.212765D+00
              MO Center= -1.6D-02,  9.0D-01, -2.3D-02, r^2= 1.2D+01
   Bfn.  Coefficient  Atom+Function         Bfn.  Coefficient  Atom+Function  
  ----- ------------  ---------------      ----- ------------  ---------------
   294     -1.680766  19 S  s               200      1.630468   9 S  s         
   311      1.378922  20 C  s               217     -1.337107  10 C  s         
   293      0.828097  19 S  s               199     -0.803070   9 S  s         
    67      0.756171   3 Fe s                 5     -0.734475   1 Fe s         
    66      0.526862   3 Fe s                 4     -0.507018   1 Fe s         

 Vector  269  Occ=0.000000D+00  E= 1.213371D+00
              MO Center=  2.0D-02,  4.1D-01,  3.4D-02, r^2= 1.1D+01
   Bfn.  Coefficient  Atom+Function         Bfn.  Coefficient  Atom+Function  
  ----- ------------  ---------------      ----- ------------  ---------------
   341     -1.073712  24 S  s               200      1.057348   9 S  s         
   247     -1.058300  14 S  s               294      0.963787  19 S  s         
   217     -0.875165  10 C  s               358      0.864876  25 C  s         
   264      0.852852  15 C  s               311     -0.798470  20 C  s         
   340      0.540383  24 S  s               246      0.532707  14 S  s         

 Vector  270  Occ=0.000000D+00  E= 1.217547D+00
              MO Center=  7.5D-03, -9.9D-01, -2.2D-02, r^2= 1.2D+01
   Bfn.  Coefficient  Atom+Function         Bfn.  Coefficient  Atom+Function  
  ----- ------------  ---------------      ----- ------------  ---------------
   247      1.670201  14 S  s               341     -1.628461  24 S  s         
   264     -1.339174  15 C  s               358      1.307059  25 C  s         
   246     -0.832940  14 S  s               340      0.812578  24 S  s         
    36     -0.703174   2 Fe s                98      0.686533   4 Fe s         
    35     -0.522621   2 Fe s                97      0.515503   4 Fe s         

 Vector  271  Occ=0.000000D+00  E= 1.219526D+00
              MO Center= -1.5D-02, -3.1D-01, -2.4D-03, r^2= 9.4D+00
   Bfn.  Coefficient  Atom+Function         Bfn.  Coefficient  Atom+Function  
  ----- ------------  ---------------      ----- ------------  ---------------
   154      0.708749   6 S  py              190      0.712063   8 S  py        
   106     -0.530625   4 Fe py               44     -0.515895   2 Fe py        
   151     -0.485459   6 S  py              187     -0.486819   8 S  py        
   341     -0.477251  24 S  s               172     -0.411143   7 S  py        
   294      0.407341  19 S  s               136     -0.405054   5 S  py        

 Vector  272  Occ=0.000000D+00  E= 1.221411D+00
              MO Center=  3.6D-03,  5.4D-02,  1.2D-02, r^2= 8.8D+00
   Bfn.  Coefficient  Atom+Function         Bfn.  Coefficient  Atom+Function  
  ----- ------------  ---------------      ----- ------------  ---------------
   153     -0.469366   6 S  px              155      0.471044   6 S  pz        
   189      0.464348   8 S  px              137      0.461313   5 S  pz        
   191     -0.462211   8 S  pz              135      0.458056   5 S  px        
   171     -0.457203   7 S  px              173     -0.453472   7 S  pz        
    43      0.385967   2 Fe px               45      0.384435   2 Fe pz        

 Vector  273  Occ=0.000000D+00  E= 1.235522D+00
              MO Center=  3.0D-05,  2.4D-02,  4.0D-05, r^2= 5.7D+00
   Bfn.  Coefficient  Atom+Function         Bfn.  Coefficient  Atom+Function  
  ----- ------------  ---------------      ----- ------------  ---------------
   153      0.353178   6 S  px              155     -0.353122   6 S  pz        
   189     -0.353025   8 S  px              191      0.353517   8 S  pz        
   135     -0.277140   5 S  px              137     -0.277376   5 S  pz        
   171      0.277771   7 S  px              173      0.278025   7 S  pz        
    20      0.269416   1 Fe d -2             21     -0.268539   1 Fe d -1      

 Vector  274  Occ=0.000000D+00  E= 1.237761D+00
              MO Center=  1.2D-04,  3.3D-02,  3.7D-04, r^2= 6.4D+00
   Bfn.  Coefficient  Atom+Function         Bfn.  Coefficient  Atom+Function  
  ----- ------------  ---------------      ----- ------------  ---------------
   136      0.484997   5 S  py              172      0.484381   7 S  py        
   341     -0.422730  24 S  s               247     -0.418221  14 S  s         
   294      0.389074  19 S  s               200      0.386264   9 S  s         
   358      0.335204  25 C  s               264      0.331313  15 C  s         
   133     -0.320241   5 S  py              169     -0.320023   7 S  py        

 Vector  275  Occ=0.000000D+00  E= 1.346127D+00
              MO Center=  1.0D-03,  1.4D-01,  1.0D-04, r^2= 1.7D+01
   Bfn.  Coefficient  Atom+Function         Bfn.  Coefficient  Atom+Function  
  ----- ------------  ---------------      ----- ------------  ---------------
   217      1.599574  10 C  s               311      1.598614  20 C  s         
   264      1.539021  15 C  s               358      1.538123  25 C  s         
   200     -1.151707   9 S  s               294     -1.151223  19 S  s         
   247     -1.097899  14 S  s               341     -1.097513  24 S  s         
   128     -0.933666   5 S  s               164     -0.933289   7 S  s         

 Vector  276  Occ=0.000000D+00  E= 1.365259D+00
              MO Center=  9.2D-02,  1.2D+00, -8.4D-02, r^2= 1.7D+01
   Bfn.  Coefficient  Atom+Function         Bfn.  Coefficient  Atom+Function  
  ----- ------------  ---------------      ----- ------------  ---------------
    97      1.039207   4 Fe s               164      1.012650   7 S  s         
    35     -0.933732   2 Fe s               128     -0.884324   5 S  s         
   264      0.592669  15 C  s               358     -0.556179  25 C  s         
   106      0.543645   4 Fe py               44     -0.530768   2 Fe py        
   163     -0.515015   7 S  s               247     -0.508450  14 S  s         

 Vector  277  Occ=0.000000D+00  E= 1.367932D+00
              MO Center=  1.1D-01,  2.3D-01,  1.7D-01, r^2= 1.4D+01
   Bfn.  Coefficient  Atom+Function         Bfn.  Coefficient  Atom+Function  
  ----- ------------  ---------------      ----- ------------  ---------------
   146      1.777166   6 S  s               182     -1.521079   8 S  s         
    66      1.462914   3 Fe s                 4     -1.233222   1 Fe s         
   145     -0.948466   6 S  s               154      0.819974   6 S  py        
   181      0.812680   8 S  s               190     -0.800617   8 S  py        
    75     -0.782921   3 Fe py               13      0.728881   1 Fe py        

 Vector  278  Occ=0.000000D+00  E= 1.368221D+00
              MO Center= -1.9D-01, -1.3D-01, -7.9D-02, r^2= 1.3D+01
   Bfn.  Coefficient  Atom+Function         Bfn.  Coefficient  Atom+Function  
  ----- ------------  ---------------      ----- ------------  ---------------
   182      1.329285   8 S  s               128     -1.261350   5 S  s         
     4      1.147027   1 Fe s               164     -1.082829   7 S  s         
    35     -1.053215   2 Fe s               146      0.959086   6 S  s         
    97     -0.888463   4 Fe s                66      0.835948   3 Fe s         
   181     -0.710840   8 S  s               127      0.674933   5 S  s         

 Vector  279  Occ=0.000000D+00  E= 1.375774D+00
              MO Center= -9.6D-01,  1.0D+00, -7.7D-01, r^2= 1.7D+01
   Bfn.  Coefficient  Atom+Function         Bfn.  Coefficient  Atom+Function  
  ----- ------------  ---------------      ----- ------------  ---------------
   182      1.242101   8 S  s               164     -1.125467   7 S  s         
   217      0.800750  10 C  s               358     -0.796422  25 C  s         
    97     -0.784278   4 Fe s                 4      0.777337   1 Fe s         
   181     -0.710370   8 S  s               191      0.664627   8 S  pz        
   163      0.638648   7 S  s               173     -0.627341   7 S  pz        

 Vector  280  Occ=0.000000D+00  E= 1.375846D+00
              MO Center=  6.2D-01,  7.5D-01,  7.0D-01, r^2= 1.5D+01
   Bfn.  Coefficient  Atom+Function         Bfn.  Coefficient  Atom+Function  
  ----- ------------  ---------------      ----- ------------  ---------------
   164      1.354751   7 S  s               146     -1.054623   6 S  s         
    97      0.957363   4 Fe s               358      0.922210  25 C  s         
   128     -0.832577   5 S  s               163     -0.766124   7 S  s         
   311     -0.672340  20 C  s               153      0.665873   6 S  px        
    66     -0.659733   3 Fe s               171     -0.640712   7 S  px        

 Vector  281  Occ=0.000000D+00  E= 1.376210D+00
              MO Center=  2.8D-01,  1.7D-01,  2.2D-01, r^2= 1.7D+01
   Bfn.  Coefficient  Atom+Function         Bfn.  Coefficient  Atom+Function  
  ----- ------------  ---------------      ----- ------------  ---------------
   128      1.527891   5 S  s               264      1.105226  15 C  s         
    35      1.055840   2 Fe s               127     -0.869232   5 S  s         
   146     -0.815144   6 S  s               155      0.650415   6 S  pz        
   247     -0.631122  14 S  s               137     -0.619425   5 S  pz        
   254     -0.581761  14 S  px              256      0.583310  14 S  pz        

 Vector  282  Occ=0.000000D+00  E= 1.378178D+00
              MO Center= -3.2D-01,  1.4D+00,  5.5D-02, r^2= 3.2D+01
   Bfn.  Coefficient  Atom+Function         Bfn.  Coefficient  Atom+Function  
  ----- ------------  ---------------      ----- ------------  ---------------
   315      0.263323  20 C  px              223      0.254753  10 C  pz        
   330      0.250418  22 H  px              238      0.238786  12 H  pz        
   317     -0.224481  20 C  pz              209     -0.221869   9 S  pz        
   221     -0.216666  10 C  px              301     -0.211533  19 S  px        
   326      0.206284  21 H  py              242     -0.203107  13 H  py        

 Vector  283  Occ=0.000000D+00  E= 1.378559D+00
              MO Center=  4.0D-01, -1.6D+00, -4.3D-01, r^2= 3.0D+01
   Bfn.  Coefficient  Atom+Function         Bfn.  Coefficient  Atom+Function  
  ----- ------------  ---------------      ----- ------------  ---------------
   217      0.349491  10 C  s               182      0.331023   8 S  s         
   311     -0.289164  20 C  s               283     -0.272302  17 H  px        
   207     -0.264200   9 S  px              268     -0.264870  15 C  px        
   270     -0.258069  15 C  pz              254      0.247908  14 S  px        
   303     -0.225062  19 S  pz              379     -0.225635  27 H  pz        

 Vector  284  Occ=0.000000D+00  E= 1.379241D+00
              MO Center=  1.3D-01, -2.6D+00,  2.0D-01, r^2= 2.7D+01
   Bfn.  Coefficient  Atom+Function         Bfn.  Coefficient  Atom+Function  
  ----- ------------  ---------------      ----- ------------  ---------------
   255      0.332247  14 S  py              349     -0.316022  24 S  py        
   363      0.298387  25 C  py              269     -0.287657  15 C  py        
   372     -0.280974  26 H  px              290      0.277003  18 H  pz        
   382      0.236818  28 H  px              280     -0.233029  16 H  pz        
   383      0.211382  28 H  py              279     -0.205344  16 H  py        

 Vector  285  Occ=0.000000D+00  E= 1.381049D+00
              MO Center= -9.1D-02, -1.4D-01,  7.9D-02, r^2= 3.3D+01
   Bfn.  Coefficient  Atom+Function         Bfn.  Coefficient  Atom+Function  
  ----- ------------  ---------------      ----- ------------  ---------------
   363      0.260525  25 C  py              269      0.241737  15 C  py        
   302      0.236866  19 S  py              290     -0.217741  18 H  pz        
   337     -0.212974  23 H  pz              208      0.210337   9 S  py        
   372     -0.208327  26 H  px              316     -0.205962  20 C  py        
   222     -0.199669  10 C  py              231      0.194972  11 H  px        

 Vector  286  Occ=0.000000D+00  E= 1.381274D+00
              MO Center= -1.5D-01, -1.5D+00, -2.6D-02, r^2= 3.2D+01
   Bfn.  Coefficient  Atom+Function         Bfn.  Coefficient  Atom+Function  
  ----- ------------  ---------------      ----- ------------  ---------------
   379     -0.263526  27 H  pz              268      0.248451  15 C  px        
   364     -0.247284  25 C  pz              283      0.243777  17 H  px        
   362     -0.242821  25 C  px              348      0.222167  24 S  px        
   270      0.218265  15 C  pz              374      0.199119  26 H  pz        
   256     -0.195717  14 S  pz              279      0.190142  16 H  py        

 Vector  287  Occ=0.000000D+00  E= 1.390737D+00
              MO Center=  9.5D-02,  8.8D-01, -7.4D-02, r^2= 2.2D+01
   Bfn.  Coefficient  Atom+Function         Bfn.  Coefficient  Atom+Function  
  ----- ------------  ---------------      ----- ------------  ---------------
   264      1.203741  15 C  s               358     -1.199989  25 C  s         
   247     -0.784459  14 S  s               341      0.785215  24 S  s         
    97      0.647211   4 Fe s                35     -0.618561   2 Fe s         
   256      0.541582  14 S  pz              254     -0.537624  14 S  px        
   348     -0.538595  24 S  px              350      0.534581  24 S  pz        

 Vector  288  Occ=0.000000D+00  E= 1.397418D+00
              MO Center= -4.9D-02,  7.7D-01, -8.4D-03, r^2= 1.7D+01
   Bfn.  Coefficient  Atom+Function         Bfn.  Coefficient  Atom+Function  
  ----- ------------  ---------------      ----- ------------  ---------------
   311     -1.581740  20 C  s               217      1.556003  10 C  s         
   294      0.929274  19 S  s               200     -0.914978   9 S  s         
   303     -0.744491  19 S  pz              301     -0.738385  19 S  px        
   207     -0.733328   9 S  px              209     -0.726932   9 S  pz        
   302      0.658794  19 S  py              208     -0.644794   9 S  py        

 Vector  289  Occ=0.000000D+00  E= 1.398189D+00
              MO Center=  1.4D-02, -3.8D-01,  5.7D-02, r^2= 1.7D+01
   Bfn.  Coefficient  Atom+Function         Bfn.  Coefficient  Atom+Function  
  ----- ------------  ---------------      ----- ------------  ---------------
   264     -1.157368  15 C  s               358     -1.159672  25 C  s         
   217      1.074905  10 C  s               311      1.037140  20 C  s         
   247      0.676140  14 S  s               341      0.675660  24 S  s         
   200     -0.635855   9 S  s               294     -0.616085  19 S  s         
   255     -0.594336  14 S  py              349     -0.596346  24 S  py        

 Vector  290  Occ=0.000000D+00  E= 1.479096D+00
              MO Center= -3.7D-03,  9.9D-01,  2.1D-03, r^2= 7.2D+00
   Bfn.  Coefficient  Atom+Function         Bfn.  Coefficient  Atom+Function  
  ----- ------------  ---------------      ----- ------------  ---------------
   217      1.314984  10 C  s               311     -1.313411  20 C  s         
   207     -0.863923   9 S  px              209     -0.865070   9 S  pz        
   301     -0.863973  19 S  px              303     -0.862819  19 S  pz        
   208     -0.775359   9 S  py              302      0.774273  19 S  py        
     4     -0.645084   1 Fe s                66      0.644389   3 Fe s         

 Vector  291  Occ=0.000000D+00  E= 1.494316D+00
              MO Center=  1.4D-02, -8.2D-01,  4.4D-03, r^2= 1.1D+01
   Bfn.  Coefficient  Atom+Function         Bfn.  Coefficient  Atom+Function  
  ----- ------------  ---------------      ----- ------------  ---------------
   264      2.113532  15 C  s               358     -2.109033  25 C  s         
   255      1.430174  14 S  py              349     -1.427022  24 S  py        
   254     -1.373478  14 S  px              256      1.375195  14 S  pz        
   348     -1.372079  24 S  px              350      1.370362  24 S  pz        
    35     -1.029519   2 Fe s                97      1.027072   4 Fe s         

 Vector  292  Occ=0.000000D+00  E= 1.496567D+00
              MO Center= -1.1D-02, -4.3D-02, -9.8D-03, r^2= 5.5D+00
   Bfn.  Coefficient  Atom+Function         Bfn.  Coefficient  Atom+Function  
  ----- ------------  ---------------      ----- ------------  ---------------
    51      0.424902   2 Fe d -2            114     -0.426507   4 Fe d -1      
    52      0.422527   2 Fe d -1            113     -0.424172   4 Fe d -2      
    82     -0.397131   3 Fe d -2             83      0.397671   3 Fe d -1      
    20      0.389302   1 Fe d -2             21     -0.388748   1 Fe d -1      
   137      0.268664   5 S  pz              171     -0.268656   7 S  px        

 Vector  293  Occ=0.000000D+00  E= 1.504365D+00
              MO Center= -5.7D-03, -3.9D-02,  3.6D-03, r^2= 1.3D+01
   Bfn.  Coefficient  Atom+Function         Bfn.  Coefficient  Atom+Function  
  ----- ------------  ---------------      ----- ------------  ---------------
   217      1.650042  10 C  s               311      1.655309  20 C  s         
   358     -1.656057  25 C  s               264     -1.646280  15 C  s         
   349     -1.132566  24 S  py              208     -1.121864   9 S  py        
   255     -1.126037  14 S  py              302     -1.125253  19 S  py        
   348     -1.110430  24 S  px              350      1.110001  24 S  pz        

 Vector  294  Occ=0.000000D+00  E= 1.513616D+00
              MO Center=  2.2D-03,  3.8D-01, -9.1D-04, r^2= 1.1D+01
   Bfn.  Coefficient  Atom+Function         Bfn.  Coefficient  Atom+Function  
  ----- ------------  ---------------      ----- ------------  ---------------
   217      1.936896  10 C  s               311     -1.931609  20 C  s         
   208     -1.351728   9 S  py              302      1.348122  19 S  py        
   207     -1.317642   9 S  px              209     -1.317678   9 S  pz        
   301     -1.314081  19 S  px              303     -1.314027  19 S  pz        
     4     -0.875615   1 Fe s                66      0.872412   3 Fe s         

 Vector  295  Occ=0.000000D+00  E= 1.520606D+00
              MO Center=  4.3D-03, -1.2D+00, -1.9D-05, r^2= 6.1D+00
   Bfn.  Coefficient  Atom+Function         Bfn.  Coefficient  Atom+Function  
  ----- ------------  ---------------      ----- ------------  ---------------
   264      1.254336  15 C  s               358     -1.244496  25 C  s         
   254     -0.904705  14 S  px              256      0.903806  14 S  pz        
   348     -0.897169  24 S  px              350      0.898026  24 S  pz        
   255      0.804385  14 S  py              349     -0.797624  24 S  py        
    44      0.609390   2 Fe py              106     -0.606618   4 Fe py        

 Vector  296  Occ=0.000000D+00  E= 1.535102D+00
              MO Center= -2.3D-03,  2.5D-01,  5.5D-04, r^2= 1.4D+01
   Bfn.  Coefficient  Atom+Function         Bfn.  Coefficient  Atom+Function  
  ----- ------------  ---------------      ----- ------------  ---------------
   217      1.869254  10 C  s               311      1.871526  20 C  s         
   264      1.670434  15 C  s               358      1.674485  25 C  s         
     4     -1.634730   1 Fe s                66     -1.635692   3 Fe s         
    35     -1.546141   2 Fe s                97     -1.547878   4 Fe s         
   207     -1.288434   9 S  px              301      1.289893  19 S  px        

 Vector  297  Occ=0.000000D+00  E= 1.606110D+00
              MO Center= -3.3D-04,  7.2D-02,  1.3D-03, r^2= 5.0D+00
   Bfn.  Coefficient  Atom+Function         Bfn.  Coefficient  Atom+Function  
  ----- ------------  ---------------      ----- ------------  ---------------
    13      0.597368   1 Fe py               75      0.597738   3 Fe py        
    24      0.527744   1 Fe d  2             86      0.527297   3 Fe d  2      
   154      0.477528   6 S  py              190      0.477476   8 S  py        
    55      0.373899   2 Fe d  2            117      0.374197   4 Fe d  2      
   160     -0.363020   6 S  d  2            196     -0.362715   8 S  d  2      

 Vector  298  Occ=0.000000D+00  E= 1.608510D+00
              MO Center=  6.9D-04,  1.9D-01, -1.4D-03, r^2= 4.9D+00
   Bfn.  Coefficient  Atom+Function         Bfn.  Coefficient  Atom+Function  
  ----- ------------  ---------------      ----- ------------  ---------------
    22      0.535615   1 Fe d  0             84      0.535520   3 Fe d  0      
    12      0.446565   1 Fe px               14     -0.446449   1 Fe pz        
    74     -0.446570   3 Fe px               76      0.446538   3 Fe pz        
   140     -0.392311   5 S  d  0            176     -0.392338   7 S  d  0      
   135      0.358723   5 S  px              137      0.358575   5 S  pz        

 Vector  299  Occ=0.000000D+00  E= 1.640496D+00
              MO Center= -3.5D+00,  3.5D+00, -3.5D+00, r^2= 1.5D+00
   Bfn.  Coefficient  Atom+Function         Bfn.  Coefficient  Atom+Function  
  ----- ------------  ---------------      ----- ------------  ---------------
   327      0.486316  21 H  pz              331     -0.486091  22 H  py        
   335      0.486109  23 H  px              325     -0.243140  21 H  px        
   326      0.243086  21 H  py              330     -0.243204  22 H  px        
   332     -0.243087  22 H  pz              336      0.243025  23 H  py        
   337     -0.242955  23 H  pz        

 Vector  300  Occ=0.000000D+00  E= 1.640497D+00
              MO Center=  3.5D+00,  3.5D+00,  3.5D+00, r^2= 1.5D+00
   Bfn.  Coefficient  Atom+Function         Bfn.  Coefficient  Atom+Function  
  ----- ------------  ---------------      ----- ------------  ---------------
   233      0.486110  11 H  pz              237      0.486091  12 H  py        
   241      0.486315  13 H  px              231     -0.242956  11 H  px        
   232     -0.243026  11 H  py              236     -0.243087  12 H  px        
   238     -0.243202  12 H  pz              242     -0.243086  13 H  py        
   243     -0.243139  13 H  pz        

 Vector  301  Occ=0.000000D+00  E= 1.641565D+00
              MO Center=  3.5D+00, -3.5D+00, -3.5D+00, r^2= 1.5D+00
   Bfn.  Coefficient  Atom+Function         Bfn.  Coefficient  Atom+Function  
  ----- ------------  ---------------      ----- ------------  ---------------
   280      0.486173  16 H  pz              284      0.486161  17 H  py        
   288     -0.486192  18 H  px              278      0.243096  16 H  px        
   279     -0.243099  16 H  py              283      0.243074  17 H  px        
   285     -0.243062  17 H  pz              289     -0.243098  18 H  py        
   290     -0.243074  18 H  pz        

 Vector  302  Occ=0.000000D+00  E= 1.641594D+00
              MO Center= -3.5D+00, -3.5D+00,  3.5D+00, r^2= 1.5D+00
   Bfn.  Coefficient  Atom+Function         Bfn.  Coefficient  Atom+Function  
  ----- ------------  ---------------      ----- ------------  ---------------
   374      0.486193  26 H  pz              378     -0.486162  27 H  py        
   382     -0.486171  28 H  px              372      0.243076  26 H  px        
   373      0.243099  26 H  py              377      0.243062  27 H  px        
   379     -0.243073  27 H  pz              383      0.243099  28 H  py        
   384     -0.243095  28 H  pz        

 Vector  303  Occ=0.000000D+00  E= 1.661828D+00
              MO Center=  5.8D-05,  1.3D+00,  1.2D-04, r^2= 7.8D+00
   Bfn.  Coefficient  Atom+Function         Bfn.  Coefficient  Atom+Function  
  ----- ------------  ---------------      ----- ------------  ---------------
   217      1.375260  10 C  s               311     -1.375171  20 C  s         
   208     -1.064599   9 S  py              302      1.064545  19 S  py        
   207     -1.022337   9 S  px              209     -1.022329   9 S  pz        
   301     -1.022239  19 S  px              303     -1.022249  19 S  pz        
     4     -0.822599   1 Fe s                66      0.822744   3 Fe s         

 Vector  304  Occ=0.000000D+00  E= 1.680510D+00
              MO Center= -1.4D-04,  8.5D-02,  9.1D-05, r^2= 9.2D+00
   Bfn.  Coefficient  Atom+Function         Bfn.  Coefficient  Atom+Function  
  ----- ------------  ---------------      ----- ------------  ---------------
   146      1.427510   6 S  s               182      1.426574   8 S  s         
    35     -1.278901   2 Fe s                97     -1.278953   4 Fe s         
   264      1.041448  15 C  s               358      1.041538  25 C  s         
   254     -0.803100  14 S  px              256      0.803086  14 S  pz        
   348      0.803124  24 S  px              350     -0.803144  24 S  pz        

 Vector  305  Occ=0.000000D+00  E= 1.703825D+00
              MO Center=  5.0D-04, -1.1D+00, -5.6D-04, r^2= 8.1D+00
   Bfn.  Coefficient  Atom+Function         Bfn.  Coefficient  Atom+Function  
  ----- ------------  ---------------      ----- ------------  ---------------
   264      1.314627  15 C  s               358     -1.314493  25 C  s         
   255      1.015387  14 S  py              349     -1.015338  24 S  py        
   254     -0.969740  14 S  px              256      0.969785  14 S  pz        
   348     -0.969730  24 S  px              350      0.969701  24 S  pz        
   128     -0.962064   5 S  s               164      0.961477   7 S  s         

 Vector  306  Occ=0.000000D+00  E= 1.721389D+00
              MO Center= -3.8D-03,  3.8D-01,  2.2D-03, r^2= 4.9D+00
   Bfn.  Coefficient  Atom+Function         Bfn.  Coefficient  Atom+Function  
  ----- ------------  ---------------      ----- ------------  ---------------
    13      0.808165   1 Fe py               75     -0.809577   3 Fe py        
    24      0.775222   1 Fe d  2             86     -0.775068   3 Fe d  2      
   182     -0.758157   8 S  s               146      0.749309   6 S  s         
   190     -0.602220   8 S  py              154      0.599184   6 S  py        
    22      0.447180   1 Fe d  0             84     -0.447786   3 Fe d  0      

 Vector  307  Occ=0.000000D+00  E= 1.725019D+00
              MO Center= -1.3D-04, -3.4D-01,  3.1D-04, r^2= 7.6D+00
   Bfn.  Coefficient  Atom+Function         Bfn.  Coefficient  Atom+Function  
  ----- ------------  ---------------      ----- ------------  ---------------
   128      2.838670   5 S  s               164      2.838748   7 S  s         
   146      2.449328   6 S  s               182      2.446999   8 S  s         
     4     -1.814408   1 Fe s                66     -1.814029   3 Fe s         
    35     -1.515914   2 Fe s                97     -1.515660   4 Fe s         
   127     -1.310347   5 S  s               163     -1.310412   7 S  s         

 Vector  308  Occ=0.000000D+00  E= 1.744996D+00
              MO Center=  4.9D-03,  1.6D-01,  1.1D-03, r^2= 5.3D+00
   Bfn.  Coefficient  Atom+Function         Bfn.  Coefficient  Atom+Function  
  ----- ------------  ---------------      ----- ------------  ---------------
   128      0.990636   5 S  s               164     -0.990313   7 S  s         
    22      0.627470   1 Fe d  0             84     -0.623622   3 Fe d  0      
    12      0.601258   1 Fe px               14     -0.601932   1 Fe pz        
    74      0.598888   3 Fe px               76     -0.598267   3 Fe pz        
    55      0.501710   2 Fe d  2            117     -0.498780   4 Fe d  2      

 Vector  309  Occ=0.000000D+00  E= 1.747508D+00
              MO Center= -1.9D-03, -3.4D-01, -4.3D-03, r^2= 4.9D+00
   Bfn.  Coefficient  Atom+Function         Bfn.  Coefficient  Atom+Function  
  ----- ------------  ---------------      ----- ------------  ---------------
    53      0.637347   2 Fe d  0            115      0.635352   4 Fe d  0      
    45      0.488026   2 Fe pz              105     -0.488234   4 Fe px        
    43      0.485105   2 Fe px              107     -0.485432   4 Fe pz        
    84     -0.469611   3 Fe d  0             22     -0.465284   1 Fe d  0      
    74      0.376552   3 Fe px               76     -0.376831   3 Fe pz        

 Vector  310  Occ=0.000000D+00  E= 1.804964D+00
              MO Center=  4.6D-03,  3.3D-03, -5.5D-04, r^2= 8.7D+00
   Bfn.  Coefficient  Atom+Function         Bfn.  Coefficient  Atom+Function  
  ----- ------------  ---------------      ----- ------------  ---------------
   128      2.832976   5 S  s               164     -2.835162   7 S  s         
   127     -1.239803   5 S  s               163      1.240884   7 S  s         
   136     -1.107824   5 S  py              172      1.108196   7 S  py        
   135      0.886252   5 S  px              137     -0.886384   5 S  pz        
   171      0.887090   7 S  px              173     -0.886957   7 S  pz        

 Vector  311  Occ=0.000000D+00  E= 1.808690D+00
              MO Center=  2.3D-04, -1.6D-01,  5.4D-03, r^2= 9.3D+00
   Bfn.  Coefficient  Atom+Function         Bfn.  Coefficient  Atom+Function  
  ----- ------------  ---------------      ----- ------------  ---------------
   146     -2.189337   6 S  s               182     -2.185925   8 S  s         
   128      2.036398   5 S  s               164      2.033065   7 S  s         
   145      0.960789   6 S  s               181      0.959092   8 S  s         
   127     -0.891557   5 S  s               163     -0.889915   7 S  s         
    44     -0.878541   2 Fe py              106     -0.879754   4 Fe py        

 Vector  312  Occ=0.000000D+00  E= 1.824200D+00
              MO Center= -4.2D-03, -1.1D+00, -4.7D-03, r^2= 1.1D+01
   Bfn.  Coefficient  Atom+Function         Bfn.  Coefficient  Atom+Function  
  ----- ------------  ---------------      ----- ------------  ---------------
   146      2.733886   6 S  s               182     -2.736743   8 S  s         
   145     -1.196526   6 S  s               181      1.197998   8 S  s         
   153     -0.940323   6 S  px              155     -0.940415   6 S  pz        
   189     -0.941306   8 S  px              191     -0.941235   8 S  pz        
    43     -0.933971   2 Fe px               45     -0.933090   2 Fe pz        

 Vector  313  Occ=0.000000D+00  E= 1.857875D+00
              MO Center=  2.2D-02,  1.8D+00,  3.1D-02, r^2= 3.4D+01
   Bfn.  Coefficient  Atom+Function         Bfn.  Coefficient  Atom+Function  
  ----- ------------  ---------------      ----- ------------  ---------------
   223     -0.529027  10 C  pz              315     -0.518939  20 C  px        
   221      0.509266  10 C  px              317      0.509870  20 C  pz        
   238      0.317875  12 H  pz              241     -0.313420  13 H  px        
   327     -0.311532  21 H  pz              330      0.312319  22 H  px        
   364     -0.291911  25 C  pz              268      0.288143  15 C  px        

 Vector  314  Occ=0.000000D+00  E= 1.857978D+00
              MO Center=  1.2D-02,  7.1D-01, -7.2D-02, r^2= 3.7D+01
   Bfn.  Coefficient  Atom+Function         Bfn.  Coefficient  Atom+Function  
  ----- ------------  ---------------      ----- ------------  ---------------
   316      0.535160  20 C  py              222      0.528240  10 C  py        
   269     -0.434834  15 C  py              363     -0.423136  25 C  py        
   326     -0.308993  21 H  py              242     -0.304344  13 H  py        
   221     -0.273106  10 C  px              315      0.269510  20 C  px        
   331     -0.268354  22 H  py              237     -0.266901  12 H  py        

 Vector  315  Occ=0.000000D+00  E= 1.859699D+00
              MO Center=  5.5D-03,  2.6D+00,  6.6D-02, r^2= 3.1D+01
   Bfn.  Coefficient  Atom+Function         Bfn.  Coefficient  Atom+Function  
  ----- ------------  ---------------      ----- ------------  ---------------
   222      0.649152  10 C  py              316     -0.641708  20 C  py        
   242     -0.370382  13 H  py              326      0.366189  21 H  py        
   221     -0.334009  10 C  px              317     -0.329755  20 C  pz        
   237     -0.325375  12 H  py              331      0.321592  22 H  py        
   223     -0.316951  10 C  pz              315     -0.313818  20 C  px        

 Vector  316  Occ=0.000000D+00  E= 1.860514D+00
              MO Center= -2.5D-01,  3.1D-01, -1.5D-01, r^2= 3.7D+01
   Bfn.  Coefficient  Atom+Function         Bfn.  Coefficient  Atom+Function  
  ----- ------------  ---------------      ----- ------------  ---------------
   315      0.465482  20 C  px              363      0.465922  25 C  py        
   317     -0.461696  20 C  pz              269     -0.452277  15 C  py        
   223     -0.418785  10 C  pz              221      0.414014  10 C  px        
   327      0.276437  21 H  pz              330     -0.274945  22 H  px        
   362     -0.274052  25 C  px              270      0.267932  15 C  pz        

 Vector  317  Occ=0.000000D+00  E= 1.860645D+00
              MO Center=  2.2D-01, -1.8D+00,  1.2D-01, r^2= 3.4D+01
   Bfn.  Coefficient  Atom+Function         Bfn.  Coefficient  Atom+Function  
  ----- ------------  ---------------      ----- ------------  ---------------
   268      0.543426  15 C  px              364     -0.533707  25 C  pz        
   270      0.499289  15 C  pz              362     -0.489126  25 C  px        
   221     -0.321535  10 C  px              283     -0.321824  17 H  px        
   223      0.318625  10 C  pz              379      0.316075  27 H  pz        
   280     -0.309158  16 H  pz              382      0.303191  28 H  px        

 Vector  318  Occ=0.000000D+00  E= 1.864700D+00
              MO Center=  5.7D-02, -3.2D-01, -5.1D-02, r^2= 3.5D+01
   Bfn.  Coefficient  Atom+Function         Bfn.  Coefficient  Atom+Function  
  ----- ------------  ---------------      ----- ------------  ---------------
   164     -1.044649   7 S  s               128      1.019285   5 S  s         
   269      0.513645  15 C  py              363     -0.497190  25 C  py        
   163      0.445892   7 S  s               127     -0.435474   5 S  s         
   172      0.404670   7 S  py              223     -0.402201  10 C  pz        
   315      0.399905  20 C  px              136     -0.395835   5 S  py        

 Vector  319  Occ=0.000000D+00  E= 1.865493D+00
              MO Center= -6.2D-02, -7.0D-01,  3.1D-02, r^2= 3.4D+01
   Bfn.  Coefficient  Atom+Function         Bfn.  Coefficient  Atom+Function  
  ----- ------------  ---------------      ----- ------------  ---------------
   128      0.831237   5 S  s               182     -0.834534   8 S  s         
   146     -0.829185   6 S  s               164      0.800182   7 S  s         
   363     -0.526831  25 C  py              269     -0.513260  15 C  py        
   316     -0.419481  20 C  py              222     -0.416202  10 C  py        
   106     -0.398260   4 Fe py               44     -0.390805   2 Fe py        

 Vector  320  Occ=0.000000D+00  E= 1.868601D+00
              MO Center= -2.8D-03, -2.3D+00,  2.3D-02, r^2= 2.6D+01
   Bfn.  Coefficient  Atom+Function         Bfn.  Coefficient  Atom+Function  
  ----- ------------  ---------------      ----- ------------  ---------------
   146      1.503129   6 S  s               182     -1.500283   8 S  s         
   145     -0.645158   6 S  s               181      0.643363   8 S  s         
    43     -0.535031   2 Fe px               45     -0.535498   2 Fe pz        
   105     -0.536396   4 Fe px              107     -0.535883   4 Fe pz        
   364     -0.532849  25 C  pz              268     -0.529951  15 C  px        

 Vector  321  Occ=0.000000D+00  E= 1.976218D+00
              MO Center=  7.4D-02,  3.3D+00,  7.4D-02, r^2= 2.5D+01
   Bfn.  Coefficient  Atom+Function         Bfn.  Coefficient  Atom+Function  
  ----- ------------  ---------------      ----- ------------  ---------------
   200      1.127435   9 S  s               294      1.101997  19 S  s         
   217     -0.821615  10 C  s               311     -0.804165  20 C  s         
   221      0.618374  10 C  px              222      0.616735  10 C  py        
   223      0.617987  10 C  pz              315     -0.604497  20 C  px        
   316      0.603201  20 C  py              317     -0.604891  20 C  pz        

 Vector  322  Occ=0.000000D+00  E= 1.976484D+00
              MO Center= -7.4D-02,  3.3D+00, -7.4D-02, r^2= 2.5D+01
   Bfn.  Coefficient  Atom+Function         Bfn.  Coefficient  Atom+Function  
  ----- ------------  ---------------      ----- ------------  ---------------
   294     -1.153989  19 S  s               200      1.129153   9 S  s         
   311      0.790304  20 C  s               217     -0.772183  10 C  s         
   315      0.611623  20 C  px              316     -0.613659  20 C  py        
   317      0.611229  20 C  pz              221      0.597610  10 C  px        
   222      0.600060  10 C  py              223      0.598014  10 C  pz        

 Vector  323  Occ=0.000000D+00  E= 1.979786D+00
              MO Center=  2.1D-01, -3.2D+00, -2.1D-01, r^2= 2.5D+01
   Bfn.  Coefficient  Atom+Function         Bfn.  Coefficient  Atom+Function  
  ----- ------------  ---------------      ----- ------------  ---------------
   247      1.160489  14 S  s               341      1.085968  24 S  s         
   264     -0.800690  15 C  s               358     -0.752570  25 C  s         
   268      0.621261  15 C  px              269     -0.619393  15 C  py        
   270     -0.621728  15 C  pz              362     -0.583202  25 C  px        
   363     -0.580707  25 C  py              364      0.582709  25 C  pz        

 Vector  324  Occ=0.000000D+00  E= 1.980359D+00
              MO Center= -2.1D-01, -3.3D+00,  2.1D-01, r^2= 2.4D+01
   Bfn.  Coefficient  Atom+Function         Bfn.  Coefficient  Atom+Function  
  ----- ------------  ---------------      ----- ------------  ---------------
   341     -1.185591  24 S  s               247      1.112674  14 S  s         
   358      0.767687  25 C  s               264     -0.717243  15 C  s         
   362      0.613836  25 C  px              363      0.616153  25 C  py        
   364     -0.614193  25 C  pz              268      0.575085  15 C  px        
   269     -0.577187  15 C  py              270     -0.574697  15 C  pz        

 Vector  325  Occ=0.000000D+00  E= 2.075802D+00
              MO Center= -1.3D-01,  3.4D+00,  1.5D-01, r^2= 2.5D+01
   Bfn.  Coefficient  Atom+Function         Bfn.  Coefficient  Atom+Function  
  ----- ------------  ---------------      ----- ------------  ---------------
   243      0.424467  13 H  pz              325     -0.422934  21 H  px        
   240     -0.309588  13 H  s               322     -0.307278  20 C  d  2      
   324     -0.307966  21 H  s               232     -0.299982  11 H  py        
   336     -0.301269  23 H  py              230      0.285874  11 H  s         
   233     -0.287048  11 H  pz              334      0.286465  23 H  s         

 Vector  326  Occ=0.000000D+00  E= 2.075944D+00
              MO Center=  2.7D-01,  3.2D+00,  1.9D-02, r^2= 2.6D+01
   Bfn.  Coefficient  Atom+Function         Bfn.  Coefficient  Atom+Function  
  ----- ------------  ---------------      ----- ------------  ---------------
   236      0.437272  12 H  px              332      0.418838  22 H  pz        
   235     -0.347074  12 H  s               329      0.331440  22 H  s         
   320      0.288798  20 C  d  0            241     -0.282059  13 H  px        
   327     -0.270659  21 H  pz              232     -0.268632  11 H  py        
   220     -0.253165  10 C  pz              336      0.252078  23 H  py        

 Vector  327  Occ=0.000000D+00  E= 2.076021D+00
              MO Center= -1.1D-02,  3.4D+00, -3.0D-01, r^2= 2.5D+01
   Bfn.  Coefficient  Atom+Function         Bfn.  Coefficient  Atom+Function  
  ----- ------------  ---------------      ----- ------------  ---------------
   332     -0.427819  22 H  pz              236      0.407632  12 H  px        
   329     -0.351528  22 H  s               235     -0.335510  12 H  s         
   336     -0.321751  23 H  py              320     -0.314220  20 C  d  0      
   232     -0.309397  11 H  py              327      0.270945  21 H  pz        
   241     -0.257911  13 H  px              314     -0.253298  20 C  pz        

 Vector  328  Occ=0.000000D+00  E= 2.076169D+00
              MO Center= -1.3D-01,  3.4D+00,  1.3D-01, r^2= 2.5D+01
   Bfn.  Coefficient  Atom+Function         Bfn.  Coefficient  Atom+Function  
  ----- ------------  ---------------      ----- ------------  ---------------
   243      0.401180  13 H  pz              325      0.401318  21 H  px        
   232     -0.346178  11 H  py              336      0.346139  23 H  py        
   230      0.311031  11 H  s               334     -0.310972  23 H  s         
   322      0.298771  20 C  d  2            240     -0.282787  13 H  s         
   324      0.282935  21 H  s               233     -0.277074  11 H  pz        

 Vector  329  Occ=0.000000D+00  E= 2.077786D+00
              MO Center=  4.1D-01, -3.4D+00, -1.3D-01, r^2= 2.5D+01
   Bfn.  Coefficient  Atom+Function         Bfn.  Coefficient  Atom+Function  
  ----- ------------  ---------------      ----- ------------  ---------------
   278      0.434542  16 H  px              384      0.400803  28 H  pz        
   289      0.326749  18 H  py              275     -0.317415  15 C  d  2      
   277     -0.313193  16 H  s               287      0.306977  18 H  s         
   373      0.304593  26 H  py              288     -0.295608  18 H  px        
   266      0.286972  15 C  py              381     -0.288014  28 H  s         

 Vector  330  Occ=0.000000D+00  E= 2.078052D+00
              MO Center=  3.0D+00, -3.3D+00, -3.3D+00, r^2= 5.8D+00
   Bfn.  Coefficient  Atom+Function         Bfn.  Coefficient  Atom+Function  
  ----- ------------  ---------------      ----- ------------  ---------------
   285      0.590519  17 H  pz              282      0.477210  17 H  s         
   273      0.419727  15 C  d  0            289     -0.398469  18 H  py        
   280     -0.379163  16 H  pz              265      0.334379  15 C  px        
   267      0.327160  15 C  pz              284      0.297661  17 H  py        
   272      0.286531  15 C  d -1            277     -0.246180  16 H  s         

 Vector  331  Occ=0.000000D+00  E= 2.078095D+00
              MO Center= -3.3D+00, -3.3D+00,  3.0D+00, r^2= 5.4D+00
   Bfn.  Coefficient  Atom+Function         Bfn.  Coefficient  Atom+Function  
  ----- ------------  ---------------      ----- ------------  ---------------
   377      0.591445  27 H  px              376      0.478120  27 H  s         
   373     -0.399336  26 H  py              382     -0.379876  28 H  px        
   361      0.334824  25 C  pz              359      0.327772  25 C  px        
   369      0.327608  25 C  d  2            378      0.298253  27 H  py        
   365      0.287057  25 C  d -2            367     -0.273588  25 C  d  0      

 Vector  332  Occ=0.000000D+00  E= 2.078267D+00
              MO Center= -1.3D-01, -3.4D+00,  4.0D-01, r^2= 2.5D+01
   Bfn.  Coefficient  Atom+Function         Bfn.  Coefficient  Atom+Function  
  ----- ------------  ---------------      ----- ------------  ---------------
   384     -0.422738  28 H  pz              278      0.391144  16 H  px        
   373     -0.350446  26 H  py              289      0.322229  18 H  py        
   371     -0.319522  26 H  s               381      0.300690  28 H  s         
   287      0.294247  18 H  s               374      0.290777  26 H  pz        
   275     -0.288936  15 C  d  2            360     -0.286211  25 C  py        

 Vector  333  Occ=0.000000D+00  E= 2.329767D+00
              MO Center=  7.0D-03,  3.2D+00,  3.8D-03, r^2= 2.6D+01
   Bfn.  Coefficient  Atom+Function         Bfn.  Coefficient  Atom+Function  
  ----- ------------  ---------------      ----- ------------  ---------------
   216      0.398238  10 C  s               310      0.397598  20 C  s         
   231     -0.367936  11 H  px              238     -0.368243  12 H  pz        
   242     -0.368389  13 H  py              326     -0.367791  21 H  py        
   330      0.367643  22 H  px              337      0.367336  23 H  pz        
   217      0.358426  10 C  s               311      0.357850  20 C  s         

 Vector  334  Occ=0.000000D+00  E= 2.330188D+00
              MO Center= -5.4D-03,  3.4D+00, -5.3D-03, r^2= 2.5D+01
   Bfn.  Coefficient  Atom+Function         Bfn.  Coefficient  Atom+Function  
  ----- ------------  ---------------      ----- ------------  ---------------
   216      0.402757  10 C  s               310     -0.403394  20 C  s         
   231     -0.373335  11 H  px              238     -0.373087  12 H  pz        
   242     -0.372914  13 H  py              326      0.373497  21 H  py        
   330     -0.373671  22 H  px              337     -0.373918  23 H  pz        
   217      0.363925  10 C  s               311     -0.364506  20 C  s         

 Vector  335  Occ=0.000000D+00  E= 2.331992D+00
              MO Center=  3.6D-01, -3.2D+00, -3.6D-01, r^2= 2.6D+01
   Bfn.  Coefficient  Atom+Function         Bfn.  Coefficient  Atom+Function  
  ----- ------------  ---------------      ----- ------------  ---------------
   263      0.420514  15 C  s               279      0.387123  16 H  py        
   283     -0.386905  17 H  px              290      0.386510  18 H  pz        
   357      0.377156  25 C  s               264      0.375091  15 C  s         
   372      0.346540  26 H  px              379     -0.346973  27 H  pz        
   383      0.347207  28 H  py              358      0.336415  25 C  s         

 Vector  336  Occ=0.000000D+00  E= 2.332343D+00
              MO Center= -3.6D-01, -3.4D+00,  3.6D-01, r^2= 2.5D+01
   Bfn.  Coefficient  Atom+Function         Bfn.  Coefficient  Atom+Function  
  ----- ------------  ---------------      ----- ------------  ---------------
   357      0.425992  25 C  s               372      0.392425  26 H  px        
   379     -0.392108  27 H  pz              383      0.391974  28 H  py        
   263     -0.383015  15 C  s               358      0.380066  25 C  s         
   279     -0.352433  16 H  py              283      0.352592  17 H  px        
   290     -0.352953  18 H  pz              264     -0.341732  15 C  s         

 Vector  337  Occ=0.000000D+00  E= 2.535812D+00
              MO Center= -2.9D-02,  3.3D+00,  9.5D-02, r^2= 2.5D+01
   Bfn.  Coefficient  Atom+Function         Bfn.  Coefficient  Atom+Function  
  ----- ------------  ---------------      ----- ------------  ---------------
   226      0.529315  10 C  d  0            322     -0.436394  20 C  d  2      
   233     -0.385406  11 H  pz              335     -0.381775  23 H  px        
   225      0.372032  10 C  d -1            318      0.368555  20 C  d -2      
   227      0.333585  10 C  d  1            321     -0.330311  20 C  d  1      
   320      0.292715  20 C  d  0            241      0.289124  13 H  px        

 Vector  338  Occ=0.000000D+00  E= 2.535826D+00
              MO Center=  6.5D-02,  3.3D+00, -6.1D-02, r^2= 2.5D+01
   Bfn.  Coefficient  Atom+Function         Bfn.  Coefficient  Atom+Function  
  ----- ------------  ---------------      ----- ------------  ---------------
   228      0.523714  10 C  d  2            320      0.483198  20 C  d  0      
   224     -0.391532  10 C  d -2            319      0.390907  20 C  d -1      
   237      0.363704  12 H  py              331      0.362976  22 H  py        
   241     -0.323369  13 H  px              327      0.323575  21 H  pz        
   231      0.314432  11 H  px              337     -0.313971  23 H  pz        

 Vector  339  Occ=0.000000D+00  E= 2.536006D+00
              MO Center=  6.8D-02,  3.4D+00, -5.8D-02, r^2= 2.4D+01
   Bfn.  Coefficient  Atom+Function         Bfn.  Coefficient  Atom+Function  
  ----- ------------  ---------------      ----- ------------  ---------------
   228      0.530750  10 C  d  2            320     -0.443492  20 C  d  0      
   224     -0.408811  10 C  d -2            319     -0.407660  20 C  d -1      
   237      0.391437  12 H  py              331     -0.389584  22 H  py        
   231      0.323762  11 H  px              337      0.323126  23 H  pz        
   322     -0.292514  20 C  d  2            222     -0.282456  10 C  py        

 Vector  340  Occ=0.000000D+00  E= 2.536037D+00
              MO Center= -1.0D-01,  3.4D+00,  1.9D-02, r^2= 2.4D+01
   Bfn.  Coefficient  Atom+Function         Bfn.  Coefficient  Atom+Function  
  ----- ------------  ---------------      ----- ------------  ---------------
   226      0.525346  10 C  d  0            322      0.491362  20 C  d  2      
   335      0.403129  23 H  px              318     -0.400352  20 C  d -2      
   233     -0.397834  11 H  pz              225      0.394444  10 C  d -1      
   326     -0.309888  21 H  py              242     -0.305073  13 H  py        
   227      0.286402  10 C  d  1            321      0.286754  20 C  d  1      

 Vector  341  Occ=0.000000D+00  E= 2.537174D+00
              MO Center=  1.0D+00, -3.3D+00, -9.0D-01, r^2= 2.3D+01
   Bfn.  Coefficient  Atom+Function         Bfn.  Coefficient  Atom+Function  
  ----- ------------  ---------------      ----- ------------  ---------------
   367     -0.444553  25 C  d  0            275      0.441549  15 C  d  2      
   274     -0.411991  15 C  d  1            288     -0.411203  18 H  px        
   273     -0.403922  15 C  d  0            271     -0.386272  15 C  d -2      
   280     -0.369192  16 H  pz              283      0.335416  17 H  px        
   374      0.335580  26 H  pz              366      0.332826  25 C  d -1      

 Vector  342  Occ=0.000000D+00  E= 2.537194D+00
              MO Center=  6.5D-01, -3.3D+00, -7.7D-01, r^2= 2.4D+01
   Bfn.  Coefficient  Atom+Function         Bfn.  Coefficient  Atom+Function  
  ----- ------------  ---------------      ----- ------------  ---------------
   273     -0.475247  15 C  d  0            272      0.447406  15 C  d -1      
   369     -0.443200  25 C  d  2            284      0.429108  17 H  py        
   290      0.353854  18 H  pz              275     -0.334541  15 C  d  2      
   382     -0.321980  28 H  px              365      0.319664  25 C  d -2      
   269     -0.307633  15 C  py              368     -0.302782  25 C  d  1      

 Vector  343  Occ=0.000000D+00  E= 2.537333D+00
              MO Center= -8.2D-01, -3.4D+00,  7.0D-01, r^2= 2.3D+01
   Bfn.  Coefficient  Atom+Function         Bfn.  Coefficient  Atom+Function  
  ----- ------------  ---------------      ----- ------------  ---------------
   369      0.583064  25 C  d  2            365     -0.434910  25 C  d -2      
   378     -0.403364  27 H  py              382      0.363687  28 H  px        
   272      0.360957  15 C  d -1            284      0.354235  17 H  py        
   372     -0.348856  26 H  px              273     -0.340033  15 C  d  0      
   368      0.328050  25 C  d  1            275     -0.323622  15 C  d  2      

 Vector  344  Occ=0.000000D+00  E= 2.537355D+00
              MO Center= -8.6D-01, -3.4D+00,  9.7D-01, r^2= 2.3D+01
   Bfn.  Coefficient  Atom+Function         Bfn.  Coefficient  Atom+Function  
  ----- ------------  ---------------      ----- ------------  ---------------
   367      0.581094  25 C  d  0            366     -0.460061  25 C  d -1      
   374     -0.453792  26 H  pz              275      0.387036  15 C  d  2      
   383      0.359306  28 H  py              288     -0.333545  18 H  px        
   271     -0.323908  15 C  d -2            364      0.306864  25 C  pz        
   274     -0.275965  15 C  d  1            368     -0.274293  25 C  d  1      

 Vector  345  Occ=0.000000D+00  E= 2.805801D+00
              MO Center=  5.7D-03,  3.2D+00,  1.7D-03, r^2= 2.7D+01
   Bfn.  Coefficient  Atom+Function         Bfn.  Coefficient  Atom+Function  
  ----- ------------  ---------------      ----- ------------  ---------------
   216      1.075116  10 C  s               310      1.073935  20 C  s         
   217      0.604887  10 C  s               311      0.604211  20 C  s         
   232      0.527467  11 H  py              236      0.527620  12 H  px        
   243      0.527469  13 H  pz              325     -0.526891  21 H  px        
   332     -0.527042  22 H  pz              336      0.526885  23 H  py        

 Vector  346  Occ=0.000000D+00  E= 2.806161D+00
              MO Center= -3.7D-03,  3.4D+00, -3.5D-03, r^2= 2.5D+01
   Bfn.  Coefficient  Atom+Function         Bfn.  Coefficient  Atom+Function  
  ----- ------------  ---------------      ----- ------------  ---------------
   216      1.089554  10 C  s               310     -1.090705  20 C  s         
   217      0.624608  10 C  s               311     -0.625259  20 C  s         
   232      0.535011  11 H  py              236      0.535037  12 H  px        
   243      0.535459  13 H  pz              325      0.536026  21 H  px        
   332      0.535602  22 H  pz              336     -0.535576  23 H  py        

 Vector  347  Occ=0.000000D+00  E= 2.807627D+00
              MO Center=  4.9D-01, -3.2D+00, -4.9D-01, r^2= 2.6D+01
   Bfn.  Coefficient  Atom+Function         Bfn.  Coefficient  Atom+Function  
  ----- ------------  ---------------      ----- ------------  ---------------
   263      1.149149  15 C  s               357      0.991988  25 C  s         
   264      0.652776  15 C  s               278      0.564150  16 H  px        
   285     -0.564467  17 H  pz              289     -0.564509  18 H  py        
   358      0.562371  25 C  s               276     -0.511023  16 H  s         
   281     -0.511218  17 H  s               286     -0.511039  18 H  s         

 Vector  348  Occ=0.000000D+00  E= 2.807892D+00
              MO Center= -4.9D-01, -3.4D+00,  4.9D-01, r^2= 2.5D+01
   Bfn.  Coefficient  Atom+Function         Bfn.  Coefficient  Atom+Function  
  ----- ------------  ---------------      ----- ------------  ---------------
   357      1.164073  25 C  s               263     -1.008591  15 C  s         
   358      0.668933  25 C  s               264     -0.580738  15 C  s         
   373     -0.572088  26 H  py              377     -0.571921  27 H  px        
   384      0.572233  28 H  pz              370     -0.518482  26 H  s         
   375     -0.518064  27 H  s               380     -0.518222  28 H  s         

 Vector  349  Occ=0.000000D+00  E= 3.005180D+00
              MO Center=  2.8D-01,  3.3D+00,  6.6D-02, r^2= 2.5D+01
   Bfn.  Coefficient  Atom+Function         Bfn.  Coefficient  Atom+Function  
  ----- ------------  ---------------      ----- ------------  ---------------
   234      0.783987  12 H  s               328     -0.763689  22 H  s         
   236     -0.691858  12 H  px              332     -0.674747  22 H  pz        
   220      0.644948  10 C  pz              239     -0.628197  13 H  s         
   320      0.617707  20 C  d  0            227     -0.604889  10 C  d  1      
   312      0.603072  20 C  px              321      0.569746  20 C  d  1      

 Vector  350  Occ=0.000000D+00  E= 3.005188D+00
              MO Center= -2.9D-01,  3.3D+00, -5.4D-02, r^2= 2.5D+01
   Bfn.  Coefficient  Atom+Function         Bfn.  Coefficient  Atom+Function  
  ----- ------------  ---------------      ----- ------------  ---------------
   323      0.793259  21 H  s               239      0.735128  13 H  s         
   325      0.700293  21 H  px              243     -0.648180  13 H  pz        
   313      0.639570  20 C  py              219      0.617761  10 C  py        
   226     -0.616630  10 C  d  0            229     -0.617316  11 H  s         
   333     -0.606920  23 H  s               318     -0.601803  20 C  d -2      

 Vector  351  Occ=0.000000D+00  E= 3.005272D+00
              MO Center= -7.6D-02,  3.5D+00,  1.4D-01, r^2= 2.4D+01
   Bfn.  Coefficient  Atom+Function         Bfn.  Coefficient  Atom+Function  
  ----- ------------  ---------------      ----- ------------  ---------------
   229      0.794978  11 H  s               333     -0.786591  23 H  s         
   232     -0.707012  11 H  py              336      0.699569  23 H  py        
   322     -0.631834  20 C  d  2            219     -0.616674  10 C  py        
   313      0.610657  20 C  py              239     -0.555544  13 H  s         
   225     -0.551999  10 C  d -1            226      0.554449  10 C  d  0      

 Vector  352  Occ=0.000000D+00  E= 3.005285D+00
              MO Center=  8.7D-02,  3.5D+00, -1.6D-01, r^2= 2.4D+01
   Bfn.  Coefficient  Atom+Function         Bfn.  Coefficient  Atom+Function  
  ----- ------------  ---------------      ----- ------------  ---------------
   328      0.801090  22 H  s               234      0.792980  12 H  s         
   332      0.712022  22 H  pz              236     -0.704798  12 H  px        
   228     -0.631390  10 C  d  2            314      0.609273  20 C  pz        
   218     -0.602651  10 C  px              320     -0.562695  20 C  d  0      
   319      0.543465  20 C  d -1            224     -0.537473  10 C  d -2      

 Vector  353  Occ=0.000000D+00  E= 3.006505D+00
              MO Center=  2.5D+00, -3.3D+00, -2.5D+00, r^2= 1.3D+01
   Bfn.  Coefficient  Atom+Function         Bfn.  Coefficient  Atom+Function  
  ----- ------------  ---------------      ----- ------------  ---------------
   276      1.044890  16 H  s               278     -0.928895  16 H  px        
   265     -0.790988  15 C  px              273      0.702369  15 C  d  0      
   274     -0.704728  15 C  d  1            281     -0.687192  17 H  s         
   266     -0.640547  15 C  py              271     -0.636326  15 C  d -2      
   285     -0.599349  17 H  pz              268     -0.544960  15 C  px        

 Vector  354  Occ=0.000000D+00  E= 3.006522D+00
              MO Center=  3.6D-01, -3.4D+00, -3.6D-01, r^2= 2.4D+01
   Bfn.  Coefficient  Atom+Function         Bfn.  Coefficient  Atom+Function  
  ----- ------------  ---------------      ----- ------------  ---------------
   286      0.818982  18 H  s               380     -0.737373  28 H  s         
   289      0.722943  18 H  py              267     -0.665350  15 C  pz        
   384      0.655967  28 H  pz              281     -0.637768  17 H  s         
   272      0.625063  15 C  d -1            275      0.580434  15 C  d  2      
   285     -0.572727  17 H  pz              361      0.570770  25 C  pz        

 Vector  355  Occ=0.000000D+00  E= 3.006591D+00
              MO Center= -8.9D-01, -3.4D+00,  1.1D+00, r^2= 2.2D+01
   Bfn.  Coefficient  Atom+Function         Bfn.  Coefficient  Atom+Function  
  ----- ------------  ---------------      ----- ------------  ---------------
   380      0.858159  28 H  s               384     -0.756847  28 H  pz        
   360     -0.715314  25 C  py              367     -0.716387  25 C  d  0      
   370     -0.708603  26 H  s               286      0.687883  18 H  s         
   366     -0.669156  25 C  d -1            373     -0.635368  26 H  py        
   289      0.608994  18 H  py              275      0.514894  15 C  d  2      

 Vector  356  Occ=0.000000D+00  E= 3.006616D+00
              MO Center= -2.0D+00, -3.5D+00,  1.8D+00, r^2= 1.7D+01
   Bfn.  Coefficient  Atom+Function         Bfn.  Coefficient  Atom+Function  
  ----- ------------  ---------------      ----- ------------  ---------------
   375      0.955443  27 H  s               377      0.851324  27 H  px        
   359      0.791178  25 C  px              369     -0.789024  25 C  d  2      
   370     -0.777450  26 H  s               365     -0.717035  25 C  d -2      
   373     -0.681170  26 H  py              362      0.545643  25 C  px        
   281      0.528520  17 H  s               368      0.529021  25 C  d  1      

 Vector  357  Occ=0.000000D+00  E= 4.155374D+00
              MO Center=  2.4D-03,  9.5D-01,  2.4D-03, r^2= 2.2D+00
   Bfn.  Coefficient  Atom+Function         Bfn.  Coefficient  Atom+Function  
  ----- ------------  ---------------      ----- ------------  ---------------
    27      0.442504   1 Fe f -1             89      0.441316   3 Fe f -1      
    25     -0.342554   1 Fe f -3             87     -0.341692   3 Fe f -3      
    31      0.305135   1 Fe f  3             93     -0.304408   3 Fe f  3      
    28      0.223947   1 Fe f  0             90     -0.223514   3 Fe f  0      
    30      0.209528   1 Fe f  2             92     -0.208902   3 Fe f  2      

 Vector  358  Occ=0.000000D+00  E= 4.156424D+00
              MO Center=  1.8D-03,  9.5D-01,  1.8D-03, r^2= 2.2D+00
   Bfn.  Coefficient  Atom+Function         Bfn.  Coefficient  Atom+Function  
  ----- ------------  ---------------      ----- ------------  ---------------
    31      0.387326   1 Fe f  3             93      0.386498   3 Fe f  3      
    25     -0.340108   1 Fe f -3             87      0.339568   3 Fe f -3      
    28     -0.306828   1 Fe f  0             90     -0.306492   3 Fe f  0      
    27     -0.263381   1 Fe f -1             89      0.262782   3 Fe f -1      
    30     -0.236048   1 Fe f  2             92     -0.235583   3 Fe f  2      

 Vector  359  Occ=0.000000D+00  E= 4.159088D+00
              MO Center=  9.5D-04,  9.5D-01,  9.5D-04, r^2= 2.2D+00
   Bfn.  Coefficient  Atom+Function         Bfn.  Coefficient  Atom+Function  
  ----- ------------  ---------------      ----- ------------  ---------------
    28      0.397672   1 Fe f  0             90     -0.397856   3 Fe f  0      
    31      0.380273   1 Fe f  3             93     -0.381019   3 Fe f  3      
    27     -0.316521   1 Fe f -1             89     -0.314856   3 Fe f -1      
    25      0.246577   1 Fe f -3             87      0.245050   3 Fe f -3      
    29     -0.157082   1 Fe f  1             91      0.156885   3 Fe f  1      

 Vector  360  Occ=0.000000D+00  E= 4.160370D+00
              MO Center= -2.6D-03,  9.5D-01, -2.6D-03, r^2= 2.2D+00
   Bfn.  Coefficient  Atom+Function         Bfn.  Coefficient  Atom+Function  
  ----- ------------  ---------------      ----- ------------  ---------------
    89     -0.441989   3 Fe f -1             27      0.439410   1 Fe f -1      
    25     -0.340675   1 Fe f -3             87      0.341994   3 Fe f -3      
    31      0.293645   1 Fe f  3             93      0.292443   3 Fe f  3      
    30      0.251721   1 Fe f  2             92      0.252464   3 Fe f  2      
    28      0.175974   1 Fe f  0             90      0.175589   3 Fe f  0      

 Vector  361  Occ=0.000000D+00  E= 4.160561D+00
              MO Center= -1.9D-03,  9.4D-01, -1.9D-03, r^2= 2.3D+00
   Bfn.  Coefficient  Atom+Function         Bfn.  Coefficient  Atom+Function  
  ----- ------------  ---------------      ----- ------------  ---------------
    31      0.369283   1 Fe f  3             93     -0.370585   3 Fe f  3      
    25     -0.325053   1 Fe f -3             87     -0.326273   3 Fe f -3      
    30     -0.323620   1 Fe f  2             92      0.323977   3 Fe f  2      
    27     -0.253096   1 Fe f -1             89     -0.252696   3 Fe f -1      
    28     -0.215156   1 Fe f  0             90      0.215338   3 Fe f  0      

 Vector  362  Occ=0.000000D+00  E= 4.166550D+00
              MO Center= -1.0D-05,  9.5D-01, -7.3D-06, r^2= 2.2D+00
   Bfn.  Coefficient  Atom+Function         Bfn.  Coefficient  Atom+Function  
  ----- ------------  ---------------      ----- ------------  ---------------
    26      0.591236   1 Fe f -2             88      0.591797   3 Fe f -2      
    25     -0.287361   1 Fe f -3             87     -0.286740   3 Fe f -3      
    27     -0.223217   1 Fe f -1             89     -0.223038   3 Fe f -1      
    30      0.094367   1 Fe f  2             92     -0.093580   3 Fe f  2      
    29     -0.078397   1 Fe f  1             91      0.077923   3 Fe f  1      

 Vector  363  Occ=0.000000D+00  E= 4.168524D+00
              MO Center=  5.3D-04,  9.6D-01,  5.4D-04, r^2= 2.2D+00
   Bfn.  Coefficient  Atom+Function         Bfn.  Coefficient  Atom+Function  
  ----- ------------  ---------------      ----- ------------  ---------------
    26      0.394006   1 Fe f -2             88     -0.393147   3 Fe f -2      
    30     -0.383355   1 Fe f  2             92     -0.382929   3 Fe f  2      
    29      0.347644   1 Fe f  1             91      0.347749   3 Fe f  1      
    31      0.176275   1 Fe f  3             93      0.176191   3 Fe f  3      
    87     -0.158856   3 Fe f -3             25      0.158000   1 Fe f -3      

 Vector  364  Occ=0.000000D+00  E= 4.171396D+00
              MO Center= -3.9D-02,  9.4D-01, -3.9D-02, r^2= 2.2D+00
   Bfn.  Coefficient  Atom+Function         Bfn.  Coefficient  Atom+Function  
  ----- ------------  ---------------      ----- ------------  ---------------
    92      0.426572   3 Fe f  2             30      0.405294   1 Fe f  2      
    91      0.330060   3 Fe f  1             89      0.310451   3 Fe f -1      
    29      0.307329   1 Fe f  1             27     -0.303913   1 Fe f -1      
    93      0.271243   3 Fe f  3             31      0.265775   1 Fe f  3      
    87     -0.240526   3 Fe f -3             25      0.235497   1 Fe f -3      

 Vector  365  Occ=0.000000D+00  E= 4.171564D+00
              MO Center=  3.9D-02,  9.5D-01,  3.9D-02, r^2= 2.2D+00
   Bfn.  Coefficient  Atom+Function         Bfn.  Coefficient  Atom+Function  
  ----- ------------  ---------------      ----- ------------  ---------------
    29      0.481347   1 Fe f  1             91     -0.466050   3 Fe f  1      
    30      0.450495   1 Fe f  2             92     -0.430733   3 Fe f  2      
    90      0.205387   3 Fe f  0             28     -0.204252   1 Fe f  0      
    27     -0.138477   1 Fe f -1             89     -0.123455   3 Fe f -1      
    31      0.114193   1 Fe f  3             25      0.107850   1 Fe f -3      

 Vector  366  Occ=0.000000D+00  E= 4.174861D+00
              MO Center= -1.7D-04,  9.2D-01, -1.6D-04, r^2= 2.3D+00
   Bfn.  Coefficient  Atom+Function         Bfn.  Coefficient  Atom+Function  
  ----- ------------  ---------------      ----- ------------  ---------------
    26      0.542631   1 Fe f -2             88     -0.543011   3 Fe f -2      
    25     -0.288791   1 Fe f -3             87      0.288522   3 Fe f -3      
   146      0.225452   6 S  s               182     -0.225312   8 S  s         
    27     -0.223102   1 Fe f -1             89      0.223175   3 Fe f -1      
    30      0.182623   1 Fe f  2             92      0.182514   3 Fe f  2      

 Vector  367  Occ=0.000000D+00  E= 4.179281D+00
              MO Center= -2.6D-04,  9.2D-01, -2.9D-04, r^2= 2.3D+00
   Bfn.  Coefficient  Atom+Function         Bfn.  Coefficient  Atom+Function  
  ----- ------------  ---------------      ----- ------------  ---------------
    30     -0.363002   1 Fe f  2             92      0.362850   3 Fe f  2      
    29      0.355937   1 Fe f  1             91     -0.356917   3 Fe f  1      
    26      0.317773   1 Fe f -2             88      0.317543   3 Fe f -2      
    25      0.255808   1 Fe f -3             87      0.255804   3 Fe f -3      
    27      0.197828   1 Fe f -1             89      0.198443   3 Fe f -1      

 Vector  368  Occ=0.000000D+00  E= 4.180808D+00
              MO Center= -1.8D-04,  9.2D-01, -1.3D-04, r^2= 2.3D+00
   Bfn.  Coefficient  Atom+Function         Bfn.  Coefficient  Atom+Function  
  ----- ------------  ---------------      ----- ------------  ---------------
    28      0.462982   1 Fe f  0             90      0.463279   3 Fe f  0      
    29     -0.373773   1 Fe f  1             91     -0.372796   3 Fe f  1      
    31      0.296527   1 Fe f  3             93      0.297098   3 Fe f  3      
   128     -0.284822   5 S  s               164      0.284595   7 S  s         
    27     -0.153979   1 Fe f -1             89      0.153931   3 Fe f -1      

 Vector  369  Occ=0.000000D+00  E= 4.199868D+00
              MO Center= -2.0D-04,  9.5D-01, -2.0D-04, r^2= 2.3D+00
   Bfn.  Coefficient  Atom+Function         Bfn.  Coefficient  Atom+Function  
  ----- ------------  ---------------      ----- ------------  ---------------
    28      0.388160   1 Fe f  0             90      0.388298   3 Fe f  0      
    29      0.330840   1 Fe f  1             91      0.330918   3 Fe f  1      
    25     -0.291159   1 Fe f -3             87      0.291269   3 Fe f -3      
    31     -0.234585   1 Fe f  3             93     -0.234719   3 Fe f  3      
    27     -0.225404   1 Fe f -1             89      0.225439   3 Fe f -1      

 Vector  370  Occ=0.000000D+00  E= 4.222236D+00
              MO Center=  1.8D-04,  8.0D-01,  2.4D-04, r^2= 2.6D+00
   Bfn.  Coefficient  Atom+Function         Bfn.  Coefficient  Atom+Function  
  ----- ------------  ---------------      ----- ------------  ---------------
   128      0.465774   5 S  s               164      0.465826   7 S  s         
    28      0.419370   1 Fe f  0             90     -0.419309   3 Fe f  0      
     4     -0.382447   1 Fe s                66     -0.382417   3 Fe s         
    29      0.305397   1 Fe f  1             91     -0.305307   3 Fe f  1      
    31     -0.293868   1 Fe f  3             93      0.293855   3 Fe f  3      

 Vector  371  Occ=0.000000D+00  E= 4.274019D+00
              MO Center= -1.1D-02, -9.5D-01,  1.1D-02, r^2= 2.2D+00
   Bfn.  Coefficient  Atom+Function         Bfn.  Coefficient  Atom+Function  
  ----- ------------  ---------------      ----- ------------  ---------------
   123      0.414760   4 Fe f  2             61      0.410337   2 Fe f  2      
   124      0.396094   4 Fe f  3             62      0.392193   2 Fe f  3      
   118     -0.239768   4 Fe f -3             56      0.236841   2 Fe f -3      
   122      0.218493   4 Fe f  1             60      0.215024   2 Fe f  1      
   120     -0.185447   4 Fe f -1             58      0.183503   2 Fe f -1      

 Vector  372  Occ=0.000000D+00  E= 4.276552D+00
              MO Center=  1.0D-02, -9.3D-01, -1.1D-02, r^2= 2.3D+00
   Bfn.  Coefficient  Atom+Function         Bfn.  Coefficient  Atom+Function  
  ----- ------------  ---------------      ----- ------------  ---------------
    61      0.422747   2 Fe f  2            123     -0.418294   4 Fe f  2      
    62      0.374278   2 Fe f  3            124     -0.369598   4 Fe f  3      
    56      0.248989   2 Fe f -3             60      0.247256   2 Fe f  1      
   118      0.246262   4 Fe f -3            122     -0.244902   4 Fe f  1      
    58      0.192202   2 Fe f -1            120      0.190144   4 Fe f -1      

 Vector  373  Occ=0.000000D+00  E= 4.276941D+00
              MO Center= -1.6D-02, -9.5D-01,  1.6D-02, r^2= 2.2D+00
   Bfn.  Coefficient  Atom+Function         Bfn.  Coefficient  Atom+Function  
  ----- ------------  ---------------      ----- ------------  ---------------
   123     -0.465079   4 Fe f  2             61      0.456732   2 Fe f  2      
   122      0.366673   4 Fe f  1             60     -0.360537   2 Fe f  1      
   124      0.282638   4 Fe f  3             62     -0.278228   2 Fe f  3      
   120      0.219994   4 Fe f -1             58      0.217361   2 Fe f -1      
   118     -0.169653   4 Fe f -3             56     -0.167886   2 Fe f -3      

 Vector  374  Occ=0.000000D+00  E= 4.278724D+00
              MO Center=  1.6D-02, -9.5D-01, -1.6D-02, r^2= 2.2D+00
   Bfn.  Coefficient  Atom+Function         Bfn.  Coefficient  Atom+Function  
  ----- ------------  ---------------      ----- ------------  ---------------
    61      0.486881   2 Fe f  2            123      0.479366   4 Fe f  2      
    60     -0.399369   2 Fe f  1            122     -0.393217   4 Fe f  1      
    62     -0.278867   2 Fe f  3            124     -0.274477   4 Fe f  3      
    58      0.142366   2 Fe f -1            120     -0.138222   4 Fe f -1      
    56     -0.110093   2 Fe f -3            118      0.107591   4 Fe f -3      

 Vector  375  Occ=0.000000D+00  E= 4.281077D+00
              MO Center= -2.7D-03, -9.5D-01,  2.7D-03, r^2= 2.2D+00
   Bfn.  Coefficient  Atom+Function         Bfn.  Coefficient  Atom+Function  
  ----- ------------  ---------------      ----- ------------  ---------------
    59      0.441334   2 Fe f  0            121     -0.442059   4 Fe f  0      
    60      0.341942   2 Fe f  1            122     -0.342585   4 Fe f  1      
    62     -0.293276   2 Fe f  3            124      0.294431   4 Fe f  3      
    58      0.240858   2 Fe f -1            120      0.242061   4 Fe f -1      
   118     -0.187167   4 Fe f -3             56     -0.186209   2 Fe f -3      

 Vector  376  Occ=0.000000D+00  E= 4.282444D+00
              MO Center= -7.3D-03, -9.5D-01,  7.3D-03, r^2= 2.3D+00
   Bfn.  Coefficient  Atom+Function         Bfn.  Coefficient  Atom+Function  
  ----- ------------  ---------------      ----- ------------  ---------------
   119      0.661824   4 Fe f -2             57      0.655244   2 Fe f -2      
    56      0.192108   2 Fe f -3            118      0.190510   4 Fe f -3      
    58      0.147914   2 Fe f -1            120      0.146775   4 Fe f -1      
   358     -0.082267  25 C  s               264     -0.081143  15 C  s         
    61     -0.061376   2 Fe f  2            123      0.059588   4 Fe f  2      

 Vector  377  Occ=0.000000D+00  E= 4.284117D+00
              MO Center=  5.0D-03, -9.6D-01, -5.0D-03, r^2= 2.2D+00
   Bfn.  Coefficient  Atom+Function         Bfn.  Coefficient  Atom+Function  
  ----- ------------  ---------------      ----- ------------  ---------------
    57      0.567448   2 Fe f -2            119     -0.560907   4 Fe f -2      
    60      0.225671   2 Fe f  1            122      0.226429   4 Fe f  1      
   118      0.210394   4 Fe f -3             56     -0.208193   2 Fe f -3      
    59     -0.192043   2 Fe f  0            121     -0.191898   4 Fe f  0      
   120      0.163671   4 Fe f -1             58     -0.161626   2 Fe f -1      

 Vector  378  Occ=0.000000D+00  E= 4.289086D+00
              MO Center= -3.2D-03, -9.4D-01,  3.2D-03, r^2= 2.2D+00
   Bfn.  Coefficient  Atom+Function         Bfn.  Coefficient  Atom+Function  
  ----- ------------  ---------------      ----- ------------  ---------------
   120     -0.461108   4 Fe f -1             58      0.456121   2 Fe f -1      
   118      0.357026   4 Fe f -3             56     -0.353460   2 Fe f -3      
    59      0.270578   2 Fe f  0            121      0.266305   4 Fe f  0      
    60      0.238792   2 Fe f  1            122      0.237721   4 Fe f  1      
    62     -0.157707   2 Fe f  3            124     -0.153189   4 Fe f  3      

 Vector  379  Occ=0.000000D+00  E= 4.289751D+00
              MO Center=  5.0D-03, -9.5D-01, -5.0D-03, r^2= 2.2D+00
   Bfn.  Coefficient  Atom+Function         Bfn.  Coefficient  Atom+Function  
  ----- ------------  ---------------      ----- ------------  ---------------
    58      0.457438   2 Fe f -1            120      0.451954   4 Fe f -1      
    56     -0.353882   2 Fe f -3            118     -0.349810   4 Fe f -3      
   124     -0.292271   4 Fe f  3             62      0.289993   2 Fe f  3      
   121      0.236027   4 Fe f  0             59     -0.232082   2 Fe f  0      
    61     -0.173910   2 Fe f  2            123      0.172051   4 Fe f  2      

 Vector  380  Occ=0.000000D+00  E= 4.295735D+00
              MO Center= -5.7D-05, -9.1D-01,  4.7D-05, r^2= 2.3D+00
   Bfn.  Coefficient  Atom+Function         Bfn.  Coefficient  Atom+Function  
  ----- ------------  ---------------      ----- ------------  ---------------
    57      0.411628   2 Fe f -2            119     -0.409733   4 Fe f -2      
    56      0.316132   2 Fe f -3            118     -0.316654   4 Fe f -3      
    60     -0.284249   2 Fe f  1            122     -0.285263   4 Fe f  1      
   128     -0.273030   5 S  s               164      0.272092   7 S  s         
    58      0.244481   2 Fe f -1             61     -0.244290   2 Fe f  2      

 Vector  381  Occ=0.000000D+00  E= 4.301541D+00
              MO Center=  2.3D-03, -8.8D-01, -2.3D-03, r^2= 2.4D+00
   Bfn.  Coefficient  Atom+Function         Bfn.  Coefficient  Atom+Function  
  ----- ------------  ---------------      ----- ------------  ---------------
    56      0.379696   2 Fe f -3            118      0.379084   4 Fe f -3      
   128      0.334180   5 S  s               164      0.334679   7 S  s         
    60     -0.323496   2 Fe f  1            122      0.322243   4 Fe f  1      
    58      0.294093   2 Fe f -1            120      0.293364   4 Fe f -1      
    61     -0.260970   2 Fe f  2            123      0.259940   4 Fe f  2      

 Vector  382  Occ=0.000000D+00  E= 4.308551D+00
              MO Center= -4.5D-04, -9.5D-01,  4.5D-04, r^2= 2.3D+00
   Bfn.  Coefficient  Atom+Function         Bfn.  Coefficient  Atom+Function  
  ----- ------------  ---------------      ----- ------------  ---------------
    59      0.398543   2 Fe f  0            121      0.399179   4 Fe f  0      
    56     -0.327779   2 Fe f -3            118      0.327627   4 Fe f -3      
    62      0.299215   2 Fe f  3            124      0.299386   4 Fe f  3      
   128      0.273456   5 S  s               164     -0.273552   7 S  s         
    60     -0.265990   2 Fe f  1            122     -0.266440   4 Fe f  1      

 Vector  383  Occ=0.000000D+00  E= 4.310730D+00
              MO Center=  9.4D-04, -9.3D-01, -9.4D-04, r^2= 2.3D+00
   Bfn.  Coefficient  Atom+Function         Bfn.  Coefficient  Atom+Function  
  ----- ------------  ---------------      ----- ------------  ---------------
    59      0.417606   2 Fe f  0            121      0.417173   4 Fe f  0      
    62     -0.382237   2 Fe f  3            124     -0.381876   4 Fe f  3      
   146     -0.379065   6 S  s               182      0.379105   8 S  s         
    58     -0.287503   2 Fe f -1            120      0.287353   4 Fe f -1      
    56      0.222116   2 Fe f -3            118     -0.221781   4 Fe f -3      

 Vector  384  Occ=0.000000D+00  E= 4.345891D+00
              MO Center=  6.1D-04, -8.5D-01, -6.1D-04, r^2= 2.5D+00
   Bfn.  Coefficient  Atom+Function         Bfn.  Coefficient  Atom+Function  
  ----- ------------  ---------------      ----- ------------  ---------------
   146      0.633260   6 S  s               182      0.633275   8 S  s         
    35     -0.485106   2 Fe s                97     -0.484944   4 Fe s         
    59     -0.434106   2 Fe f  0            121      0.433864   4 Fe f  0      
   128      0.373662   5 S  s               164      0.373838   7 S  s         
    62     -0.328696   2 Fe f  3            124      0.328470   4 Fe f  3      


                     DFT Final Beta Molecular Orbital Analysis
                     -----------------------------------------

 Vector    1  Occ=1.000000D+00  E=-2.545988D+02
              MO Center= -9.5D-01, -9.5D-01,  9.5D-01, r^2= 3.1D-02
   Bfn.  Coefficient  Atom+Function         Bfn.  Coefficient  Atom+Function  
  ----- ------------  ---------------      ----- ------------  ---------------
    94      0.993499   4 Fe s                32     -0.063358   2 Fe s         

 Vector    2  Occ=1.000000D+00  E=-2.545987D+02
              MO Center=  9.5D-01, -9.5D-01, -9.5D-01, r^2= 3.1D-02
   Bfn.  Coefficient  Atom+Function         Bfn.  Coefficient  Atom+Function  
  ----- ------------  ---------------      ----- ------------  ---------------
    32      0.993499   2 Fe s                94      0.063360   4 Fe s         

 Vector    3  Occ=1.000000D+00  E=-2.545909D+02
              MO Center=  6.1D-01,  9.5D-01,  6.1D-01, r^2= 1.1D+00
   Bfn.  Coefficient  Atom+Function         Bfn.  Coefficient  Atom+Function  
  ----- ------------  ---------------      ----- ------------  ---------------
     1      0.899913   1 Fe s                63     -0.425695   3 Fe s         

 Vector    4  Occ=1.000000D+00  E=-2.545909D+02
              MO Center= -6.1D-01,  9.5D-01, -6.1D-01, r^2= 1.1D+00
   Bfn.  Coefficient  Atom+Function         Bfn.  Coefficient  Atom+Function  
  ----- ------------  ---------------      ----- ------------  ---------------
    63      0.899913   3 Fe s                 1      0.425696   1 Fe s         

 Vector    5  Occ=1.000000D+00  E=-8.783120D+01
              MO Center=  5.6D-01, -1.3D+00,  5.7D-01, r^2= 2.8D+00
   Bfn.  Coefficient  Atom+Function         Bfn.  Coefficient  Atom+Function  
  ----- ------------  ---------------      ----- ------------  ---------------
   143      0.838311   6 S  s               179      0.522289   8 S  s         
   125      0.088872   5 S  s               161      0.071194   7 S  s         

 Vector    6  Occ=1.000000D+00  E=-8.783113D+01
              MO Center= -5.6D-01, -1.3D+00, -5.6D-01, r^2= 2.7D+00
   Bfn.  Coefficient  Atom+Function         Bfn.  Coefficient  Atom+Function  
  ----- ------------  ---------------      ----- ------------  ---------------
   179      0.841585   8 S  s               143     -0.528522   6 S  s         

 Vector    7  Occ=1.000000D+00  E=-8.783079D+01
              MO Center= -1.2D+00,  1.3D+00,  1.2D+00, r^2= 6.3D-01
   Bfn.  Coefficient  Atom+Function         Bfn.  Coefficient  Atom+Function  
  ----- ------------  ---------------      ----- ------------  ---------------
   125      0.969861   5 S  s               161      0.192110   7 S  s         
   179     -0.077059   8 S  s               143     -0.071150   6 S  s         

 Vector    8  Occ=1.000000D+00  E=-8.783068D+01
              MO Center=  1.2D+00,  1.3D+00, -1.2D+00, r^2= 5.5D-01
   Bfn.  Coefficient  Atom+Function         Bfn.  Coefficient  Atom+Function  
  ----- ------------  ---------------      ----- ------------  ---------------
   161      0.972732   7 S  s               125     -0.198535   5 S  s         
   179     -0.039349   8 S  s               143     -0.037065   6 S  s         

 Vector    9  Occ=1.000000D+00  E=-8.781088D+01
              MO Center=  2.3D+00, -2.3D+00, -2.3D+00, r^2= 5.4D-02
   Bfn.  Coefficient  Atom+Function         Bfn.  Coefficient  Atom+Function  
  ----- ------------  ---------------      ----- ------------  ---------------
   244      0.993666  14 S  s               338     -0.034582  24 S  s         

 Vector   10  Occ=1.000000D+00  E=-8.781075D+01
              MO Center= -2.3D+00, -2.3D+00,  2.3D+00, r^2= 5.4D-02
   Bfn.  Coefficient  Atom+Function         Bfn.  Coefficient  Atom+Function  
  ----- ------------  ---------------      ----- ------------  ---------------
   338      0.993663  24 S  s               244      0.034563  14 S  s         

 Vector   11  Occ=1.000000D+00  E=-8.780942D+01
              MO Center=  2.3D+00,  2.3D+00,  2.3D+00, r^2= 7.9D-02
   Bfn.  Coefficient  Atom+Function         Bfn.  Coefficient  Atom+Function  
  ----- ------------  ---------------      ----- ------------  ---------------
   197      0.993368   9 S  s               291     -0.042280  19 S  s         

 Vector   12  Occ=1.000000D+00  E=-8.780932D+01
              MO Center= -2.3D+00,  2.3D+00, -2.3D+00, r^2= 7.9D-02
   Bfn.  Coefficient  Atom+Function         Bfn.  Coefficient  Atom+Function  
  ----- ------------  ---------------      ----- ------------  ---------------
   291      0.993369  19 S  s               197      0.042261   9 S  s         

 Vector   13  Occ=1.000000D+00  E=-2.937428D+01
              MO Center= -9.1D-01, -9.5D-01,  9.1D-01, r^2= 1.9D-01
   Bfn.  Coefficient  Atom+Function         Bfn.  Coefficient  Atom+Function  
  ----- ------------  ---------------      ----- ------------  ---------------
    95      1.031006   4 Fe s                94     -0.330602   4 Fe s         
    33     -0.157048   2 Fe s                32      0.050359   2 Fe s         

 Vector   14  Occ=1.000000D+00  E=-2.937417D+01
              MO Center=  9.1D-01, -9.5D-01, -9.1D-01, r^2= 1.9D-01
   Bfn.  Coefficient  Atom+Function         Bfn.  Coefficient  Atom+Function  
  ----- ------------  ---------------      ----- ------------  ---------------
    33      1.031012   2 Fe s                32     -0.330604   2 Fe s         
    95      0.157089   4 Fe s                94     -0.050372   4 Fe s         

 Vector   15  Occ=1.000000D+00  E=-2.931095D+01
              MO Center=  4.4D-01,  9.5D-01,  4.4D-01, r^2= 1.5D+00
   Bfn.  Coefficient  Atom+Function         Bfn.  Coefficient  Atom+Function  
  ----- ------------  ---------------      ----- ------------  ---------------
     2      0.892789   1 Fe s                64     -0.540088   3 Fe s         
     1     -0.286255   1 Fe s                63      0.173168   3 Fe s         

 Vector   16  Occ=1.000000D+00  E=-2.931092D+01
              MO Center= -4.4D-01,  9.5D-01, -4.4D-01, r^2= 1.5D+00
   Bfn.  Coefficient  Atom+Function         Bfn.  Coefficient  Atom+Function  
  ----- ------------  ---------------      ----- ------------  ---------------
    64      0.892808   3 Fe s                 2      0.540118   1 Fe s         
    63     -0.286260   3 Fe s                 1     -0.173178   1 Fe s         

 Vector   17  Occ=1.000000D+00  E=-2.532477D+01
              MO Center= -9.4D-01, -9.5D-01,  9.4D-01, r^2= 7.6D-02
   Bfn.  Coefficient  Atom+Function         Bfn.  Coefficient  Atom+Function  
  ----- ------------  ---------------      ----- ------------  ---------------
   100      0.959562   4 Fe py               99     -0.168812   4 Fe px        
   101      0.168199   4 Fe pz               38     -0.085204   2 Fe py        

 Vector   18  Occ=1.000000D+00  E=-2.532466D+01
              MO Center=  9.4D-01, -9.5D-01, -9.4D-01, r^2= 7.6D-02
   Bfn.  Coefficient  Atom+Function         Bfn.  Coefficient  Atom+Function  
  ----- ------------  ---------------      ----- ------------  ---------------
    38      0.959535   2 Fe py               37      0.168582   2 Fe px        
    39     -0.168601   2 Fe pz              100      0.085291   4 Fe py        

 Vector   19  Occ=1.000000D+00  E=-2.531578D+01
              MO Center= -8.7D-01, -9.5D-01,  8.7D-01, r^2= 3.3D-01
   Bfn.  Coefficient  Atom+Function         Bfn.  Coefficient  Atom+Function  
  ----- ------------  ---------------      ----- ------------  ---------------
    99      0.664547   4 Fe px              101     -0.666921   4 Fe pz        
   100      0.233691   4 Fe py               37      0.144179   2 Fe px        
    39     -0.143688   2 Fe pz               38     -0.050679   2 Fe py        

 Vector   20  Occ=1.000000D+00  E=-2.531567D+01
              MO Center=  8.7D-01, -9.5D-01, -8.7D-01, r^2= 3.3D-01
   Bfn.  Coefficient  Atom+Function         Bfn.  Coefficient  Atom+Function  
  ----- ------------  ---------------      ----- ------------  ---------------
    37      0.666994   2 Fe px               39     -0.664469   2 Fe pz        
    38     -0.233782   2 Fe py               99     -0.143747   4 Fe px        
   101      0.144331   4 Fe pz              100     -0.050430   4 Fe py        

 Vector   21  Occ=1.000000D+00  E=-2.531529D+01
              MO Center= -9.4D-01, -9.5D-01,  9.4D-01, r^2= 7.3D-02
   Bfn.  Coefficient  Atom+Function         Bfn.  Coefficient  Atom+Function  
  ----- ------------  ---------------      ----- ------------  ---------------
    99      0.700435   4 Fe px              101      0.698226   4 Fe pz        
    37     -0.060253   2 Fe px               39     -0.060401   2 Fe pz        

 Vector   22  Occ=1.000000D+00  E=-2.531519D+01
              MO Center=  9.4D-01, -9.5D-01, -9.4D-01, r^2= 7.3D-02
   Bfn.  Coefficient  Atom+Function         Bfn.  Coefficient  Atom+Function  
  ----- ------------  ---------------      ----- ------------  ---------------
    37      0.698088   2 Fe px               39      0.700576   2 Fe pz        
    99      0.060468   4 Fe px              101      0.060225   4 Fe pz        

 Vector   23  Occ=1.000000D+00  E=-2.527325D+01
              MO Center=  6.9D-01,  9.5D-01,  6.9D-01, r^2= 8.8D-01
   Bfn.  Coefficient  Atom+Function         Bfn.  Coefficient  Atom+Function  
  ----- ------------  ---------------      ----- ------------  ---------------
     7      0.903097   1 Fe py               69     -0.358478   3 Fe py        
     6     -0.134829   1 Fe px                8     -0.135108   1 Fe pz        
    68     -0.053504   3 Fe px               70     -0.053596   3 Fe pz        

 Vector   24  Occ=1.000000D+00  E=-2.527322D+01
              MO Center= -6.9D-01,  9.5D-01, -6.9D-01, r^2= 8.8D-01
   Bfn.  Coefficient  Atom+Function         Bfn.  Coefficient  Atom+Function  
  ----- ------------  ---------------      ----- ------------  ---------------
    69      0.903153   3 Fe py                7      0.358504   1 Fe py        
    68      0.134694   3 Fe px               70      0.134929   3 Fe pz        
     6     -0.053483   1 Fe px                8     -0.053594   1 Fe pz        

 Vector   25  Occ=1.000000D+00  E=-2.526728D+01
              MO Center=  2.6D-01,  9.5D-01,  2.6D-01, r^2= 1.7D+00
   Bfn.  Coefficient  Atom+Function         Bfn.  Coefficient  Atom+Function  
  ----- ------------  ---------------      ----- ------------  ---------------
     6      0.548114   1 Fe px                8      0.548189   1 Fe pz        
    68      0.414374   3 Fe px               70      0.413792   3 Fe pz        
     7      0.163743   1 Fe py               69     -0.123587   3 Fe py        

 Vector   26  Occ=1.000000D+00  E=-2.526724D+01
              MO Center= -2.6D-01,  9.5D-01, -2.6D-01, r^2= 1.7D+00
   Bfn.  Coefficient  Atom+Function         Bfn.  Coefficient  Atom+Function  
  ----- ------------  ---------------      ----- ------------  ---------------
    68      0.548612   3 Fe px               70      0.547823   3 Fe pz        
     6     -0.414099   1 Fe px                8     -0.414143   1 Fe pz        
    69     -0.163526   3 Fe py                7     -0.123633   1 Fe py        

 Vector   27  Occ=1.000000D+00  E=-2.526623D+01
              MO Center=  5.8D-01,  9.5D-01,  5.8D-01, r^2= 1.2D+00
   Bfn.  Coefficient  Atom+Function         Bfn.  Coefficient  Atom+Function  
  ----- ------------  ---------------      ----- ------------  ---------------
     6      0.629130   1 Fe px                8     -0.629004   1 Fe pz        
    68     -0.311962   3 Fe px               70      0.312373   3 Fe pz        

 Vector   28  Occ=1.000000D+00  E=-2.526621D+01
              MO Center= -5.8D-01,  9.5D-01, -5.8D-01, r^2= 1.2D+00
   Bfn.  Coefficient  Atom+Function         Bfn.  Coefficient  Atom+Function  
  ----- ------------  ---------------      ----- ------------  ---------------
    68      0.628671   3 Fe px               70     -0.629479   3 Fe pz        
     6      0.312221   1 Fe px                8     -0.312146   1 Fe pz        

 Vector   29  Occ=1.000000D+00  E=-9.740262D+00
              MO Center=  3.3D+00, -3.3D+00, -3.3D+00, r^2= 2.8D-02
   Bfn.  Coefficient  Atom+Function         Bfn.  Coefficient  Atom+Function  
  ----- ------------  ---------------      ----- ------------  ---------------
   262      0.987773  15 C  s               263      0.051930  15 C  s         
   264     -0.042579  15 C  s         

 Vector   30  Occ=1.000000D+00  E=-9.740195D+00
              MO Center= -3.3D+00, -3.3D+00,  3.3D+00, r^2= 2.8D-02
   Bfn.  Coefficient  Atom+Function         Bfn.  Coefficient  Atom+Function  
  ----- ------------  ---------------      ----- ------------  ---------------
   356      0.987772  25 C  s               357      0.051931  25 C  s         
   358     -0.042580  25 C  s         

 Vector   31  Occ=1.000000D+00  E=-9.739783D+00
              MO Center= -3.3D+00,  3.3D+00, -3.3D+00, r^2= 3.8D-02
   Bfn.  Coefficient  Atom+Function         Bfn.  Coefficient  Atom+Function  
  ----- ------------  ---------------      ----- ------------  ---------------
   309      0.987728  20 C  s               310      0.051891  20 C  s         
   311     -0.042567  20 C  s         

 Vector   32  Occ=1.000000D+00  E=-9.739778D+00
              MO Center=  3.3D+00,  3.3D+00,  3.3D+00, r^2= 3.8D-02
   Bfn.  Coefficient  Atom+Function         Bfn.  Coefficient  Atom+Function  
  ----- ------------  ---------------      ----- ------------  ---------------
   215      0.987728  10 C  s               216      0.051891  10 C  s         
   217     -0.042566  10 C  s         

 Vector   33  Occ=1.000000D+00  E=-7.425347D+00
              MO Center=  5.5D-01, -1.3D+00,  5.5D-01, r^2= 2.9D+00
   Bfn.  Coefficient  Atom+Function         Bfn.  Coefficient  Atom+Function  
  ----- ------------  ---------------      ----- ------------  ---------------
   144      0.858317   6 S  s               180      0.541808   8 S  s         
   143      0.257965   6 S  s               179      0.162856   8 S  s         
   126      0.060240   5 S  s               145      0.053862   6 S  s         
   162      0.050042   7 S  s               146     -0.037981   6 S  s         
   181      0.034785   8 S  s               182     -0.025945   8 S  s         

 Vector   34  Occ=1.000000D+00  E=-7.425296D+00
              MO Center= -5.5D-01, -1.3D+00, -5.5D-01, r^2= 2.8D+00
   Bfn.  Coefficient  Atom+Function         Bfn.  Coefficient  Atom+Function  
  ----- ------------  ---------------      ----- ------------  ---------------
   180      0.860090   8 S  s               144     -0.544932   6 S  s         
   179      0.258463   8 S  s               143     -0.163739   6 S  s         
   181      0.052325   8 S  s               182     -0.033917   8 S  s         
   145     -0.032362   6 S  s         

 Vector   35  Occ=1.000000D+00  E=-7.424909D+00
              MO Center= -1.2D+00,  1.3D+00,  1.2D+00, r^2= 4.2D-01
   Bfn.  Coefficient  Atom+Function         Bfn.  Coefficient  Atom+Function  
  ----- ------------  ---------------      ----- ------------  ---------------
   126      1.005027   5 S  s               125      0.302024   5 S  s         
   162      0.148320   7 S  s               127      0.061696   5 S  s         
   180     -0.050558   8 S  s               144     -0.047824   6 S  s         
   161      0.044596   7 S  s               128     -0.041303   5 S  s         

 Vector   36  Occ=1.000000D+00  E=-7.424813D+00
              MO Center=  1.2D+00,  1.3D+00, -1.2D+00, r^2= 3.9D-01
   Bfn.  Coefficient  Atom+Function         Bfn.  Coefficient  Atom+Function  
  ----- ------------  ---------------      ----- ------------  ---------------
   162      1.006121   7 S  s               161      0.302345   7 S  s         
   126     -0.151639   5 S  s               163      0.061430   7 S  s         
   125     -0.045544   5 S  s               164     -0.040495   7 S  s         
   180     -0.030507   8 S  s               144     -0.029178   6 S  s         

 Vector   37  Occ=1.000000D+00  E=-7.406759D+00
              MO Center=  2.3D+00, -2.3D+00, -2.3D+00, r^2= 1.3D-01
   Bfn.  Coefficient  Atom+Function         Bfn.  Coefficient  Atom+Function  
  ----- ------------  ---------------      ----- ------------  ---------------
   245      1.018038  14 S  s               244      0.305852  14 S  s         
   246      0.056985  14 S  s               339     -0.036765  24 S  s         
   247     -0.029419  14 S  s         

 Vector   38  Occ=1.000000D+00  E=-7.406649D+00
              MO Center= -2.3D+00, -2.3D+00,  2.3D+00, r^2= 1.3D-01
   Bfn.  Coefficient  Atom+Function         Bfn.  Coefficient  Atom+Function  
  ----- ------------  ---------------      ----- ------------  ---------------
   339      1.018037  24 S  s               338      0.305852  24 S  s         
   340      0.056971  24 S  s               245      0.036810  14 S  s         
   341     -0.029385  24 S  s         

 Vector   39  Occ=1.000000D+00  E=-7.405284D+00
              MO Center=  2.3D+00,  2.3D+00,  2.3D+00, r^2= 1.6D-01
   Bfn.  Coefficient  Atom+Function         Bfn.  Coefficient  Atom+Function  
  ----- ------------  ---------------      ----- ------------  ---------------
   198      1.017837   9 S  s               197      0.305768   9 S  s         
   199      0.056533   9 S  s               292     -0.044737  19 S  s         
   200     -0.028877   9 S  s         

 Vector   40  Occ=1.000000D+00  E=-7.405195D+00
              MO Center= -2.3D+00,  2.3D+00, -2.3D+00, r^2= 1.6D-01
   Bfn.  Coefficient  Atom+Function         Bfn.  Coefficient  Atom+Function  
  ----- ------------  ---------------      ----- ------------  ---------------
   292      1.017839  19 S  s               291      0.305769  19 S  s         
   293      0.056515  19 S  s               198      0.044782   9 S  s         
   294     -0.028836  19 S  s         

 Vector   41  Occ=1.000000D+00  E=-5.449153D+00
              MO Center=  1.3D+00, -1.3D+00,  1.3D+00, r^2= 1.9D-01
   Bfn.  Coefficient  Atom+Function         Bfn.  Coefficient  Atom+Function  
  ----- ------------  ---------------      ----- ------------  ---------------
   148      0.865462   6 S  py              147     -0.320306   6 S  px        
   149     -0.320004   6 S  pz              184      0.082302   8 S  py        
   151     -0.046860   6 S  py              183      0.029181   8 S  px        
   185      0.029152   8 S  pz        

 Vector   42  Occ=1.000000D+00  E=-5.449129D+00
              MO Center= -1.3D+00, -1.3D+00, -1.3D+00, r^2= 1.9D-01
   Bfn.  Coefficient  Atom+Function         Bfn.  Coefficient  Atom+Function  
  ----- ------------  ---------------      ----- ------------  ---------------
   184      0.864754   8 S  py              183      0.321281   8 S  px        
   185      0.320944   8 S  pz              148     -0.080720   6 S  py        
   187     -0.046810   8 S  py              147      0.031365   6 S  px        
   149      0.031333   6 S  pz        

 Vector   43  Occ=1.000000D+00  E=-5.448788D+00
              MO Center= -1.3D+00,  1.3D+00,  1.3D+00, r^2= 7.8D-02
   Bfn.  Coefficient  Atom+Function         Bfn.  Coefficient  Atom+Function  
  ----- ------------  ---------------      ----- ------------  ---------------
   130      0.868699   5 S  py              129     -0.321718   5 S  px        
   131      0.322145   5 S  pz              133     -0.046986   5 S  py        

 Vector   44  Occ=1.000000D+00  E=-5.448693D+00
              MO Center=  1.3D+00,  1.3D+00, -1.3D+00, r^2= 8.0D-02
   Bfn.  Coefficient  Atom+Function         Bfn.  Coefficient  Atom+Function  
  ----- ------------  ---------------      ----- ------------  ---------------
   166      0.868349   7 S  py              165      0.322291   7 S  px        
   167     -0.322238   7 S  pz              169     -0.046967   7 S  py        

 Vector   45  Occ=1.000000D+00  E=-5.448510D+00
              MO Center=  1.3D+00, -1.3D+00,  1.3D+00, r^2= 2.2D-01
   Bfn.  Coefficient  Atom+Function         Bfn.  Coefficient  Atom+Function  
  ----- ------------  ---------------      ----- ------------  ---------------
   149      0.613615   6 S  pz              147      0.608968   6 S  px        
   148      0.452487   6 S  py              183     -0.064443   8 S  px        
   185     -0.064088   8 S  pz              184      0.045667   8 S  py        
   152     -0.033077   6 S  pz              150     -0.032830   6 S  px        

 Vector   46  Occ=1.000000D+00  E=-5.448488D+00
              MO Center= -1.3D+00, -1.3D+00, -1.3D+00, r^2= 2.2D-01
   Bfn.  Coefficient  Atom+Function         Bfn.  Coefficient  Atom+Function  
  ----- ------------  ---------------      ----- ------------  ---------------
   183      0.612196   8 S  px              185      0.609432   8 S  pz        
   184     -0.453892   8 S  py              149      0.063574   6 S  pz        
   147      0.063062   6 S  px              148      0.048825   6 S  py        
   186     -0.032967   8 S  px              188     -0.032821   8 S  pz        

 Vector   47  Occ=1.000000D+00  E=-5.448350D+00
              MO Center=  1.1D+00, -1.3D+00,  1.1D+00, r^2= 1.0D+00
   Bfn.  Coefficient  Atom+Function         Bfn.  Coefficient  Atom+Function  
  ----- ------------  ---------------      ----- ------------  ---------------
   147      0.668072   6 S  px              149     -0.664187   6 S  pz        
   183      0.193573   8 S  px              185     -0.194312   8 S  pz        
   150     -0.035622   6 S  px              152      0.035412   6 S  pz        

 Vector   48  Occ=1.000000D+00  E=-5.448324D+00
              MO Center= -1.1D+00, -1.3D+00, -1.1D+00, r^2= 1.0D+00
   Bfn.  Coefficient  Atom+Function         Bfn.  Coefficient  Atom+Function  
  ----- ------------  ---------------      ----- ------------  ---------------
   183      0.664903   8 S  px              185     -0.667438   8 S  pz        
   147     -0.194608   6 S  px              149      0.193558   6 S  pz        
   186     -0.035363   8 S  px              188      0.035500   8 S  pz        

 Vector   49  Occ=1.000000D+00  E=-5.447826D+00
              MO Center= -1.3D+00,  1.3D+00,  1.3D+00, r^2= 7.5D-02
   Bfn.  Coefficient  Atom+Function         Bfn.  Coefficient  Atom+Function  
  ----- ------------  ---------------      ----- ------------  ---------------
   129      0.614068   5 S  px              131     -0.614597   5 S  pz        
   130      0.455708   5 S  py              132     -0.033010   5 S  px        
   134      0.033038   5 S  pz        

 Vector   50  Occ=1.000000D+00  E=-5.447733D+00
              MO Center=  1.3D+00,  1.3D+00, -1.3D+00, r^2= 7.4D-02
   Bfn.  Coefficient  Atom+Function         Bfn.  Coefficient  Atom+Function  
  ----- ------------  ---------------      ----- ------------  ---------------
   165      0.616177   7 S  px              167     -0.612127   7 S  pz        
   166     -0.456236   7 S  py              168     -0.033117   7 S  px        
   170      0.032902   7 S  pz        

 Vector   51  Occ=1.000000D+00  E=-5.447552D+00
              MO Center= -1.3D+00,  1.3D+00,  1.3D+00, r^2= 1.4D-01
   Bfn.  Coefficient  Atom+Function         Bfn.  Coefficient  Atom+Function  
  ----- ------------  ---------------      ----- ------------  ---------------
   129      0.692437   5 S  px              131      0.691775   5 S  pz        
   167      0.049886   7 S  pz              165      0.049502   7 S  px        
   132     -0.036801   5 S  px              134     -0.036765   5 S  pz        

 Vector   52  Occ=1.000000D+00  E=-5.447459D+00
              MO Center=  1.3D+00,  1.3D+00, -1.3D+00, r^2= 1.4D-01
   Bfn.  Coefficient  Atom+Function         Bfn.  Coefficient  Atom+Function  
  ----- ------------  ---------------      ----- ------------  ---------------
   167      0.693905   7 S  pz              165      0.690315   7 S  px        
   129     -0.049795   5 S  px              131     -0.049740   5 S  pz        
   170     -0.036859   7 S  pz              168     -0.036666   7 S  px        

 Vector   53  Occ=1.000000D+00  E=-5.436211D+00
              MO Center=  2.3D+00, -2.3D+00, -2.3D+00, r^2= 8.3D-02
   Bfn.  Coefficient  Atom+Function         Bfn.  Coefficient  Atom+Function  
  ----- ------------  ---------------      ----- ------------  ---------------
   248      0.567220  14 S  px              250     -0.567205  14 S  pz        
   249     -0.563569  14 S  py              251     -0.032404  14 S  px        
   253      0.032403  14 S  pz              252      0.032209  14 S  py        

 Vector   54  Occ=1.000000D+00  E=-5.436101D+00
              MO Center= -2.3D+00, -2.3D+00,  2.3D+00, r^2= 8.3D-02
   Bfn.  Coefficient  Atom+Function         Bfn.  Coefficient  Atom+Function  
  ----- ------------  ---------------      ----- ------------  ---------------
   342      0.567217  24 S  px              344     -0.567188  24 S  pz        
   343      0.563585  24 S  py              345     -0.032403  24 S  px        
   347      0.032401  24 S  pz              346     -0.032210  24 S  py        

 Vector   55  Occ=1.000000D+00  E=-5.435327D+00
              MO Center=  2.3D+00,  2.3D+00,  2.3D+00, r^2= 8.7D-02
   Bfn.  Coefficient  Atom+Function         Bfn.  Coefficient  Atom+Function  
  ----- ------------  ---------------      ----- ------------  ---------------
   201      0.566974   9 S  px              203      0.566987   9 S  pz        
   202      0.563978   9 S  py              204     -0.032335   9 S  px        
   206     -0.032335   9 S  pz              205     -0.032173   9 S  py        

 Vector   56  Occ=1.000000D+00  E=-5.435238D+00
              MO Center= -2.3D+00,  2.3D+00, -2.3D+00, r^2= 8.7D-02
   Bfn.  Coefficient  Atom+Function         Bfn.  Coefficient  Atom+Function  
  ----- ------------  ---------------      ----- ------------  ---------------
   295      0.566981  19 S  px              297      0.566987  19 S  pz        
   296     -0.563972  19 S  py              298     -0.032334  19 S  px        
   300     -0.032334  19 S  pz              299      0.032171  19 S  py        

 Vector   57  Occ=1.000000D+00  E=-5.427035D+00
              MO Center=  2.3D+00, -2.3D+00, -2.3D+00, r^2= 7.0D-02
   Bfn.  Coefficient  Atom+Function         Bfn.  Coefficient  Atom+Function  
  ----- ------------  ---------------      ----- ------------  ---------------
   249      0.802825  14 S  py              248      0.414981  14 S  px        
   250     -0.382698  14 S  pz              252     -0.042164  14 S  py        

 Vector   58  Occ=1.000000D+00  E=-5.426987D+00
              MO Center=  2.3D+00, -2.3D+00, -2.3D+00, r^2= 7.1D-02
   Bfn.  Coefficient  Atom+Function         Bfn.  Coefficient  Atom+Function  
  ----- ------------  ---------------      ----- ------------  ---------------
   250      0.703061  14 S  pz              248      0.684491  14 S  px        
   253     -0.036914  14 S  pz              251     -0.035940  14 S  px        

 Vector   59  Occ=1.000000D+00  E=-5.426923D+00
              MO Center= -2.3D+00, -2.3D+00,  2.3D+00, r^2= 7.0D-02
   Bfn.  Coefficient  Atom+Function         Bfn.  Coefficient  Atom+Function  
  ----- ------------  ---------------      ----- ------------  ---------------
   343      0.803015  24 S  py              344      0.403099  24 S  pz        
   342     -0.394807  24 S  px              346     -0.042175  24 S  py        

 Vector   60  Occ=1.000000D+00  E=-5.426875D+00
              MO Center= -2.3D+00, -2.3D+00,  2.3D+00, r^2= 7.1D-02
   Bfn.  Coefficient  Atom+Function         Bfn.  Coefficient  Atom+Function  
  ----- ------------  ---------------      ----- ------------  ---------------
   342      0.696323  24 S  px              344      0.691579  24 S  pz        
   345     -0.036561  24 S  px              347     -0.036312  24 S  pz        

 Vector   61  Occ=1.000000D+00  E=-5.424558D+00
              MO Center=  2.3D+00,  2.3D+00,  2.3D+00, r^2= 7.0D-02
   Bfn.  Coefficient  Atom+Function         Bfn.  Coefficient  Atom+Function  
  ----- ------------  ---------------      ----- ------------  ---------------
   202      0.802022   9 S  py              203     -0.429825   9 S  pz        
   201     -0.367955   9 S  px              205     -0.041902   9 S  py        

 Vector   62  Occ=1.000000D+00  E=-5.424526D+00
              MO Center=  2.3D+00,  2.3D+00,  2.3D+00, r^2= 7.2D-02
   Bfn.  Coefficient  Atom+Function         Bfn.  Coefficient  Atom+Function  
  ----- ------------  ---------------      ----- ------------  ---------------
   201      0.711135   9 S  px              203     -0.675532   9 S  pz        
   204     -0.037148   9 S  px              202     -0.035777   9 S  py        
   206      0.035289   9 S  pz        

 Vector   63  Occ=1.000000D+00  E=-5.424468D+00
              MO Center= -2.3D+00,  2.3D+00, -2.3D+00, r^2= 7.0D-02
   Bfn.  Coefficient  Atom+Function         Bfn.  Coefficient  Atom+Function  
  ----- ------------  ---------------      ----- ------------  ---------------
   296      0.802429  19 S  py              295      0.420830  19 S  px        
   297      0.377343  19 S  pz              299     -0.041924  19 S  py        

 Vector   64  Occ=1.000000D+00  E=-5.424437D+00
              MO Center= -2.3D+00,  2.3D+00, -2.3D+00, r^2= 7.2D-02
   Bfn.  Coefficient  Atom+Function         Bfn.  Coefficient  Atom+Function  
  ----- ------------  ---------------      ----- ------------  ---------------
   297     -0.706191  19 S  pz              295      0.681175  19 S  px        
   300      0.036890  19 S  pz              298     -0.035584  19 S  px        
   296     -0.025157  19 S  py        

 Vector   65  Occ=1.000000D+00  E=-3.114798D+00
              MO Center= -3.2D-01, -9.5D-01,  3.2D-01, r^2= 1.8D+00
   Bfn.  Coefficient  Atom+Function         Bfn.  Coefficient  Atom+Function  
  ----- ------------  ---------------      ----- ------------  ---------------
    96      0.883902   4 Fe s                34      0.626223   2 Fe s         
    95     -0.382997   4 Fe s                33     -0.271333   2 Fe s         
    94      0.101992   4 Fe s                32      0.072257   2 Fe s         

 Vector   66  Occ=1.000000D+00  E=-3.114566D+00
              MO Center=  3.2D-01, -9.5D-01, -3.2D-01, r^2= 1.8D+00
   Bfn.  Coefficient  Atom+Function         Bfn.  Coefficient  Atom+Function  
  ----- ------------  ---------------      ----- ------------  ---------------
    34      0.883962   2 Fe s                96     -0.626308   4 Fe s         
    33     -0.383054   2 Fe s                95      0.271414   4 Fe s         
    32      0.102004   2 Fe s                94     -0.072274   4 Fe s         

 Vector   67  Occ=1.000000D+00  E=-2.980032D+00
              MO Center=  3.6D-02,  9.6D-01,  3.6D-02, r^2= 2.0D+00
   Bfn.  Coefficient  Atom+Function         Bfn.  Coefficient  Atom+Function  
  ----- ------------  ---------------      ----- ------------  ---------------
     3      0.778629   1 Fe s                65      0.749990   3 Fe s         
     2     -0.336932   1 Fe s                64     -0.324533   3 Fe s         
     1      0.089653   1 Fe s                63      0.086354   3 Fe s         

 Vector   68  Occ=1.000000D+00  E=-2.979786D+00
              MO Center= -3.6D-02,  9.6D-01, -3.6D-02, r^2= 2.0D+00
   Bfn.  Coefficient  Atom+Function         Bfn.  Coefficient  Atom+Function  
  ----- ------------  ---------------      ----- ------------  ---------------
    65     -0.778277   3 Fe s                 3      0.749626   1 Fe s         
    64      0.336950   3 Fe s                 2     -0.324552   1 Fe s         
    63     -0.089642   3 Fe s                 1      0.086343   1 Fe s         

 Vector   69  Occ=1.000000D+00  E=-1.941256D+00
              MO Center= -3.0D-01, -9.5D-01,  3.0D-01, r^2= 1.9D+00
   Bfn.  Coefficient  Atom+Function         Bfn.  Coefficient  Atom+Function  
  ----- ------------  ---------------      ----- ------------  ---------------
   103      0.851534   4 Fe py               41      0.613477   2 Fe py        
   100     -0.317331   4 Fe py               38     -0.228620   2 Fe py        
   102     -0.116093   4 Fe px              104      0.115462   4 Fe pz        
    40      0.086314   2 Fe px               42     -0.086349   2 Fe pz        
    99      0.043272   4 Fe px              101     -0.043037   4 Fe pz        

 Vector   70  Occ=1.000000D+00  E=-1.940997D+00
              MO Center=  3.0D-01, -9.5D-01, -3.0D-01, r^2= 1.9D+00
   Bfn.  Coefficient  Atom+Function         Bfn.  Coefficient  Atom+Function  
  ----- ------------  ---------------      ----- ------------  ---------------
    41      0.853983   2 Fe py              103     -0.616907   4 Fe py        
    38     -0.318236   2 Fe py              100      0.229887   4 Fe py        
    40      0.107348   2 Fe px               42     -0.107393   2 Fe pz        
   102      0.074787   4 Fe px              104     -0.074325   4 Fe pz        
    37     -0.040005   2 Fe px               39      0.040022   2 Fe pz        

 Vector   71  Occ=1.000000D+00  E=-1.925899D+00
              MO Center= -3.4D-02, -9.5D-01,  3.4D-02, r^2= 2.1D+00
   Bfn.  Coefficient  Atom+Function         Bfn.  Coefficient  Atom+Function  
  ----- ------------  ---------------      ----- ------------  ---------------
   102     -0.533080   4 Fe px              104      0.533437   4 Fe pz        
    40      0.514665   2 Fe px               42     -0.514074   2 Fe pz        
    99      0.198642   4 Fe px              101     -0.198775   4 Fe pz        
    37     -0.191782   2 Fe px               39      0.191562   2 Fe pz        
   103     -0.146841   4 Fe py               41     -0.142333   2 Fe py        

 Vector   72  Occ=1.000000D+00  E=-1.923898D+00
              MO Center=  3.4D-02, -9.6D-01, -3.4D-02, r^2= 2.1D+00
   Bfn.  Coefficient  Atom+Function         Bfn.  Coefficient  Atom+Function  
  ----- ------------  ---------------      ----- ------------  ---------------
    40      0.537336   2 Fe px               42     -0.535813   2 Fe pz        
   102      0.517556   4 Fe px              104     -0.518097   4 Fe pz        
    37     -0.200162   2 Fe px               39      0.199594   2 Fe pz        
    99     -0.192791   4 Fe px              101      0.192992   4 Fe pz        
    41     -0.132594   2 Fe py              103      0.127421   4 Fe py        

 Vector   73  Occ=1.000000D+00  E=-1.922868D+00
              MO Center= -2.8D-01, -9.5D-01,  2.8D-01, r^2= 1.9D+00
   Bfn.  Coefficient  Atom+Function         Bfn.  Coefficient  Atom+Function  
  ----- ------------  ---------------      ----- ------------  ---------------
   102      0.607641   4 Fe px              104      0.607628   4 Fe pz        
    40      0.448999   2 Fe px               42      0.449757   2 Fe pz        
    99     -0.226400   4 Fe px              101     -0.226395   4 Fe pz        
    37     -0.167295   2 Fe px               39     -0.167577   2 Fe pz        

 Vector   74  Occ=1.000000D+00  E=-1.922620D+00
              MO Center=  2.8D-01, -9.5D-01, -2.8D-01, r^2= 1.9D+00
   Bfn.  Coefficient  Atom+Function         Bfn.  Coefficient  Atom+Function  
  ----- ------------  ---------------      ----- ------------  ---------------
    40      0.607217   2 Fe px               42      0.608489   2 Fe pz        
   102     -0.450070   4 Fe px              104     -0.449280   4 Fe pz        
    37     -0.226233   2 Fe px               39     -0.226707   2 Fe pz        
    99      0.167682   4 Fe px              101      0.167387   4 Fe pz        

 Vector   75  Occ=1.000000D+00  E=-1.803533D+00
              MO Center=  5.6D-02,  9.5D-01,  5.6D-02, r^2= 2.1D+00
   Bfn.  Coefficient  Atom+Function         Bfn.  Coefficient  Atom+Function  
  ----- ------------  ---------------      ----- ------------  ---------------
    10      0.774836   1 Fe py               72      0.730761   3 Fe py        
     7     -0.288033   1 Fe py               69     -0.271649   3 Fe py        
     9      0.027573   1 Fe px               11      0.027416   1 Fe pz        
    71     -0.026499   3 Fe px               73     -0.026433   3 Fe pz        

 Vector   76  Occ=1.000000D+00  E=-1.803313D+00
              MO Center= -5.6D-02,  9.5D-01, -5.6D-02, r^2= 2.1D+00
   Bfn.  Coefficient  Atom+Function         Bfn.  Coefficient  Atom+Function  
  ----- ------------  ---------------      ----- ------------  ---------------
    72     -0.775451   3 Fe py               10      0.731435   1 Fe py        
    69      0.288261   3 Fe py                7     -0.271898   1 Fe py        

 Vector   77  Occ=1.000000D+00  E=-1.797927D+00
              MO Center=  2.7D-03,  9.5D-01,  2.7D-03, r^2= 2.1D+00
   Bfn.  Coefficient  Atom+Function         Bfn.  Coefficient  Atom+Function  
  ----- ------------  ---------------      ----- ------------  ---------------
     9      0.532358   1 Fe px               11      0.532402   1 Fe pz        
    71     -0.530945   3 Fe px               73     -0.530731   3 Fe pz        
     6     -0.197927   1 Fe px                8     -0.197943   1 Fe pz        
    68      0.197402   3 Fe px               70      0.197322   3 Fe pz        
    72     -0.038849   3 Fe py               10     -0.038651   1 Fe py        

 Vector   78  Occ=1.000000D+00  E=-1.795521D+00
              MO Center= -2.7D-03,  9.6D-01, -2.7D-03, r^2= 2.1D+00
   Bfn.  Coefficient  Atom+Function         Bfn.  Coefficient  Atom+Function  
  ----- ------------  ---------------      ----- ------------  ---------------
     9      0.532655   1 Fe px               11      0.532701   1 Fe pz        
    71      0.534394   3 Fe px               73      0.534009   3 Fe pz        
     6     -0.197985   1 Fe px                8     -0.198002   1 Fe pz        
    68     -0.198631   3 Fe px               70     -0.198488   3 Fe pz        
    72      0.028157   3 Fe py               10     -0.027884   1 Fe py        

 Vector   79  Occ=1.000000D+00  E=-1.792571D+00
              MO Center=  2.1D-02,  9.5D-01,  2.1D-02, r^2= 2.1D+00
   Bfn.  Coefficient  Atom+Function         Bfn.  Coefficient  Atom+Function  
  ----- ------------  ---------------      ----- ------------  ---------------
     9      0.539018   1 Fe px               11     -0.539064   1 Fe pz        
    71      0.527025   3 Fe px               73     -0.527322   3 Fe pz        
     6     -0.200357   1 Fe px                8      0.200374   1 Fe pz        
    68     -0.195899   3 Fe px               70      0.196009   3 Fe pz        

 Vector   80  Occ=1.000000D+00  E=-1.792280D+00
              MO Center= -2.1D-02,  9.5D-01, -2.1D-02, r^2= 2.1D+00
   Bfn.  Coefficient  Atom+Function         Bfn.  Coefficient  Atom+Function  
  ----- ------------  ---------------      ----- ------------  ---------------
    71     -0.539103   3 Fe px               73      0.539411   3 Fe pz        
     9      0.527457   1 Fe px               11     -0.527334   1 Fe pz        
    68      0.200385   3 Fe px               70     -0.200499   3 Fe pz        
     6     -0.196056   1 Fe px                8      0.196010   1 Fe pz        

 Vector   81  Occ=1.000000D+00  E=-4.742643D-01
              MO Center=  2.9D+00, -3.1D+00, -2.9D+00, r^2= 3.1D+00
   Bfn.  Coefficient  Atom+Function         Bfn.  Coefficient  Atom+Function  
  ----- ------------  ---------------      ----- ------------  ---------------
   263      0.443518  15 C  s               246      0.347228  14 S  s         
   245     -0.251464  14 S  s               262     -0.220575  15 C  s         
   247      0.150687  14 S  s               276      0.144528  16 H  s         
   281      0.144477  17 H  s               286      0.144459  18 H  s         
   357      0.068841  25 C  s               264      0.062844  15 C  s         

 Vector   82  Occ=1.000000D+00  E=-4.742060D-01
              MO Center= -2.9D+00, -3.1D+00,  2.9D+00, r^2= 3.1D+00
   Bfn.  Coefficient  Atom+Function         Bfn.  Coefficient  Atom+Function  
  ----- ------------  ---------------      ----- ------------  ---------------
   357      0.443593  25 C  s               340      0.347169  24 S  s         
   339     -0.251402  24 S  s               356     -0.220601  25 C  s         
   341      0.150555  24 S  s               370      0.144507  26 H  s         
   375      0.144521  27 H  s               380      0.144567  28 H  s         
   263     -0.069254  15 C  s               358      0.062471  25 C  s         

 Vector   83  Occ=1.000000D+00  E=-4.705515D-01
              MO Center=  2.0D+00,  3.1D+00,  2.0D+00, r^2= 1.3D+01
   Bfn.  Coefficient  Atom+Function         Bfn.  Coefficient  Atom+Function  
  ----- ------------  ---------------      ----- ------------  ---------------
   216      0.412295  10 C  s               199      0.301357   9 S  s         
   198     -0.220482   9 S  s               215     -0.205147  10 C  s         
   310      0.191938  20 C  s               293      0.140305  19 S  s         
   200      0.136939   9 S  s               229      0.135171  11 H  s         
   234      0.135151  12 H  s               239      0.135166  13 H  s         

 Vector   84  Occ=1.000000D+00  E=-4.705275D-01
              MO Center= -2.0D+00,  3.1D+00, -2.0D+00, r^2= 1.3D+01
   Bfn.  Coefficient  Atom+Function         Bfn.  Coefficient  Atom+Function  
  ----- ------------  ---------------      ----- ------------  ---------------
   310      0.412462  20 C  s               293      0.301298  19 S  s         
   292     -0.220372  19 S  s               309     -0.205204  20 C  s         
   216     -0.192216  10 C  s               199     -0.140399   9 S  s         
   294      0.136616  19 S  s               323      0.135238  21 H  s         
   328      0.135224  22 H  s               333      0.135245  23 H  s         

 Vector   85  Occ=1.000000D+00  E=-3.933143D-01
              MO Center= -5.8D-04, -2.1D-01,  1.4D-03, r^2= 5.1D+00
   Bfn.  Coefficient  Atom+Function         Bfn.  Coefficient  Atom+Function  
  ----- ------------  ---------------      ----- ------------  ---------------
   145      0.356492   6 S  s               181      0.356271   8 S  s         
   127      0.289319   5 S  s               163      0.288650   7 S  s         
   144     -0.256388   6 S  s               180     -0.256229   8 S  s         
   126     -0.213486   5 S  s               162     -0.213016   7 S  s         
   146      0.158624   6 S  s               182      0.158506   8 S  s         

 Vector   86  Occ=1.000000D+00  E=-3.719862D-01
              MO Center=  2.6D-03, -1.2D+00,  2.6D-03, r^2= 4.0D+00
   Bfn.  Coefficient  Atom+Function         Bfn.  Coefficient  Atom+Function  
  ----- ------------  ---------------      ----- ------------  ---------------
   145      0.494235   6 S  s               181     -0.493098   8 S  s         
   144     -0.357069   6 S  s               180      0.356254   8 S  s         
   146      0.258235   6 S  s               182     -0.257648   8 S  s         
   143     -0.057215   6 S  s                48      0.056904   2 Fe d  0      
   110     -0.056810   4 Fe d  0            179      0.057085   8 S  s         

 Vector   87  Occ=1.000000D+00  E=-3.699149D-01
              MO Center= -2.2D-02,  1.9D-01,  1.6D-02, r^2= 5.3D+00
   Bfn.  Coefficient  Atom+Function         Bfn.  Coefficient  Atom+Function  
  ----- ------------  ---------------      ----- ------------  ---------------
   127      0.376456   5 S  s               163      0.365827   7 S  s         
   181     -0.323073   8 S  s               145     -0.321103   6 S  s         
   126     -0.274836   5 S  s               162     -0.267128   7 S  s         
   180      0.232155   8 S  s               144      0.230732   6 S  s         
   128      0.207985   5 S  s               164      0.202311   7 S  s         

 Vector   88  Occ=1.000000D+00  E=-3.680970D-01
              MO Center=  2.0D-02,  1.1D+00, -2.0D-02, r^2= 4.1D+00
   Bfn.  Coefficient  Atom+Function         Bfn.  Coefficient  Atom+Function  
  ----- ------------  ---------------      ----- ------------  ---------------
   163     -0.495173   7 S  s               127      0.486823   5 S  s         
   162      0.359610   7 S  s               126     -0.353494   5 S  s         
   164     -0.265915   7 S  s               128      0.261257   5 S  s         
    97      0.062276   4 Fe s                35     -0.061655   2 Fe s         
   161      0.057629   7 S  s               125     -0.056648   5 S  s         

 Vector   89  Occ=1.000000D+00  E=-3.298879D-01
              MO Center=  3.6D-01, -2.7D+00, -3.6D-01, r^2= 1.7D+01
   Bfn.  Coefficient  Atom+Function         Bfn.  Coefficient  Atom+Function  
  ----- ------------  ---------------      ----- ------------  ---------------
   246      0.454141  14 S  s               340     -0.396794  24 S  s         
   245     -0.317343  14 S  s               339      0.277237  24 S  s         
   247      0.195837  14 S  s               263     -0.177775  15 C  s         
   341     -0.170803  24 S  s               357      0.155334  25 C  s         
   276     -0.103903  16 H  s               281     -0.103693  17 H  s         

 Vector   90  Occ=1.000000D+00  E=-3.294945D-01
              MO Center= -3.6D-01, -2.7D+00,  3.6D-01, r^2= 1.7D+01
   Bfn.  Coefficient  Atom+Function         Bfn.  Coefficient  Atom+Function  
  ----- ------------  ---------------      ----- ------------  ---------------
   340      0.452397  24 S  s               246      0.394794  14 S  s         
   339     -0.316424  24 S  s               245     -0.276169  14 S  s         
   341      0.197355  24 S  s               357     -0.176705  25 C  s         
   247      0.172538  14 S  s               263     -0.154199  15 C  s         
   370     -0.103151  26 H  s               375     -0.103347  27 H  s         

 Vector   91  Occ=1.000000D+00  E=-3.233352D-01
              MO Center=  1.8D-01,  2.7D+00,  1.8D-01, r^2= 1.7D+01
   Bfn.  Coefficient  Atom+Function         Bfn.  Coefficient  Atom+Function  
  ----- ------------  ---------------      ----- ------------  ---------------
   199      0.441458   9 S  s               293     -0.412836  19 S  s         
   198     -0.311555   9 S  s               292      0.291363  19 S  s         
   200      0.200614   9 S  s               294     -0.187550  19 S  s         
   216     -0.164325  10 C  s               310      0.153663  20 C  s         
   229     -0.098792  11 H  s               234     -0.098799  12 H  s         

 Vector   92  Occ=1.000000D+00  E=-3.228890D-01
              MO Center= -1.8D-01,  2.7D+00, -1.8D-01, r^2= 1.7D+01
   Bfn.  Coefficient  Atom+Function         Bfn.  Coefficient  Atom+Function  
  ----- ------------  ---------------      ----- ------------  ---------------
   293      0.439922  19 S  s               199      0.411175   9 S  s         
   292     -0.310496  19 S  s               198     -0.290199   9 S  s         
   294      0.200982  19 S  s               200      0.187908   9 S  s         
   310     -0.163132  20 C  s               216     -0.152480  10 C  s         
   323     -0.098456  21 H  s               328     -0.098400  22 H  s         

 Vector   93  Occ=1.000000D+00  E=-1.840358D-01
              MO Center=  3.5D+00, -3.2D+00, -3.3D+00, r^2= 1.7D+00
   Bfn.  Coefficient  Atom+Function         Bfn.  Coefficient  Atom+Function  
  ----- ------------  ---------------      ----- ------------  ---------------
   276      0.344826  16 H  s               266      0.335453  15 C  py        
   265      0.280873  15 C  px              286     -0.217956  18 H  s         
   277      0.149456  16 H  s               269      0.132669  15 C  py        
   281     -0.127380  17 H  s               268      0.111136  15 C  px        
   287     -0.094625  18 H  s               255      0.063396  14 S  py        

 Vector   94  Occ=1.000000D+00  E=-1.840009D-01
              MO Center=  3.2D+00, -3.5D+00, -3.4D+00, r^2= 1.9D+00
   Bfn.  Coefficient  Atom+Function         Bfn.  Coefficient  Atom+Function  
  ----- ------------  ---------------      ----- ------------  ---------------
   267      0.355132  15 C  pz              281     -0.325011  17 H  s         
   286      0.271315  18 H  s               265      0.225743  15 C  px        
   270      0.140458  15 C  pz              282     -0.140981  17 H  s         
   266     -0.129692  15 C  py              287      0.117745  18 H  s         
   268      0.089253  15 C  px              256      0.067200  14 S  pz        

 Vector   95  Occ=1.000000D+00  E=-1.839945D-01
              MO Center= -3.3D+00, -3.3D+00,  3.5D+00, r^2= 2.1D+00
   Bfn.  Coefficient  Atom+Function         Bfn.  Coefficient  Atom+Function  
  ----- ------------  ---------------      ----- ------------  ---------------
   380      0.343816  28 H  s               360      0.335351  25 C  py        
   361      0.279151  25 C  pz              370     -0.218798  26 H  s         
   381      0.149005  28 H  s               363      0.132632  25 C  py        
   375     -0.125558  27 H  s               364      0.110445  25 C  pz        
   371     -0.095040  26 H  s               349      0.063358  24 S  py        

 Vector   96  Occ=1.000000D+00  E=-1.839612D-01
              MO Center= -3.4D+00, -3.5D+00,  3.2D+00, r^2= 1.5D+00
   Bfn.  Coefficient  Atom+Function         Bfn.  Coefficient  Atom+Function  
  ----- ------------  ---------------      ----- ------------  ---------------
   359      0.355689  25 C  px              375     -0.326175  27 H  s         
   370      0.271142  26 H  s               361      0.227243  25 C  pz        
   376     -0.141490  27 H  s               362      0.140667  25 C  px        
   360     -0.128784  25 C  py              371      0.117714  26 H  s         
   364      0.089849  25 C  pz              348      0.067294  24 S  px        

 Vector   97  Occ=1.000000D+00  E=-1.825020D-01
              MO Center=  2.3D+00,  3.4D+00,  2.6D+00, r^2= 1.2D+01
   Bfn.  Coefficient  Atom+Function         Bfn.  Coefficient  Atom+Function  
  ----- ------------  ---------------      ----- ------------  ---------------
   219      0.333975  10 C  py              229      0.294175  11 H  s         
   239     -0.266036  13 H  s               218     -0.192233  10 C  px        
   220     -0.141789  10 C  pz              313      0.135111  20 C  py        
   222      0.132339  10 C  py              230      0.128102  11 H  s         
   333      0.116841  23 H  s               240     -0.115600  13 H  s         

 Vector   98  Occ=1.000000D+00  E=-1.824985D-01
              MO Center= -2.6D+00,  3.4D+00, -2.3D+00, r^2= 1.2D+01
   Bfn.  Coefficient  Atom+Function         Bfn.  Coefficient  Atom+Function  
  ----- ------------  ---------------      ----- ------------  ---------------
   313      0.334498  20 C  py              333      0.291775  23 H  s         
   323     -0.269218  21 H  s               314      0.187344  20 C  pz        
   312      0.147018  20 C  px              219     -0.134679  10 C  py        
   316      0.132586  20 C  py              334      0.127208  23 H  s         
   229     -0.120054  11 H  s               324     -0.116841  21 H  s         

 Vector   99  Occ=1.000000D+00  E=-1.824786D-01
              MO Center=  3.3D+00,  3.3D+00,  3.0D+00, r^2= 4.2D+00
   Bfn.  Coefficient  Atom+Function         Bfn.  Coefficient  Atom+Function  
  ----- ------------  ---------------      ----- ------------  ---------------
   234     -0.343091  12 H  s               220      0.323031  10 C  pz        
   218     -0.290645  10 C  px              239      0.198694  13 H  s         
   235     -0.149213  12 H  s               229      0.144417  11 H  s         
   223      0.128141  10 C  pz              221     -0.115212  10 C  px        
   240      0.086277  13 H  s               230      0.062956  11 H  s         

 Vector  100  Occ=1.000000D+00  E=-1.824754D-01
              MO Center= -3.0D+00,  3.4D+00, -3.3D+00, r^2= 4.2D+00
   Bfn.  Coefficient  Atom+Function         Bfn.  Coefficient  Atom+Function  
  ----- ------------  ---------------      ----- ------------  ---------------
   328      0.343784  22 H  s               312      0.319193  20 C  px        
   314     -0.295714  20 C  pz              323     -0.191567  21 H  s         
   333     -0.152242  23 H  s               329      0.149508  22 H  s         
   315      0.126609  20 C  px              317     -0.117217  20 C  pz        
   324     -0.083187  21 H  s               334     -0.066366  23 H  s         

 Vector  101  Occ=1.000000D+00  E=-1.343163D-01
              MO Center=  8.6D-03, -1.6D+00, -8.1D-03, r^2= 1.3D+01
   Bfn.  Coefficient  Atom+Function         Bfn.  Coefficient  Atom+Function  
  ----- ------------  ---------------      ----- ------------  ---------------
    35      0.178446   2 Fe s                97      0.177870   4 Fe s         
    46     -0.124983   2 Fe d -2             47      0.124994   2 Fe d -1      
   108      0.124709   4 Fe d -2            109     -0.124655   4 Fe d -1      
   265      0.119353  15 C  px              266     -0.119565  15 C  py        
   267     -0.119353  15 C  pz              359     -0.118744  25 C  px        

 Vector  102  Occ=1.000000D+00  E=-1.278466D-01
              MO Center= -5.9D-03, -2.3D+00,  5.9D-03, r^2= 1.4D+01
   Bfn.  Coefficient  Atom+Function         Bfn.  Coefficient  Atom+Function  
  ----- ------------  ---------------      ----- ------------  ---------------
    35      0.164939   2 Fe s                97     -0.165702   4 Fe s         
   265      0.143278  15 C  px              267     -0.143250  15 C  pz        
   359      0.143576  25 C  px              361     -0.143605  25 C  pz        
   266     -0.141657  15 C  py              360      0.141980  25 C  py        
   251     -0.133385  14 S  px              253      0.133395  14 S  pz        

 Vector  103  Occ=1.000000D+00  E=-1.206079D-01
              MO Center=  5.5D-02,  1.7D+00,  5.8D-02, r^2= 1.7D+01
   Bfn.  Coefficient  Atom+Function         Bfn.  Coefficient  Atom+Function  
  ----- ------------  ---------------      ----- ------------  ---------------
   219      0.136150  10 C  py              218      0.135407  10 C  px        
   220      0.135360  10 C  pz              313      0.132370  20 C  py        
   312     -0.131564  20 C  px              314     -0.131613  20 C  pz        
     4      0.128923   1 Fe s               208     -0.127618   9 S  py        
   207     -0.126768   9 S  px              209     -0.126757   9 S  pz        

 Vector  104  Occ=1.000000D+00  E=-1.197433D-01
              MO Center= -5.6D-02,  2.3D+00, -5.6D-02, r^2= 1.5D+01
   Bfn.  Coefficient  Atom+Function         Bfn.  Coefficient  Atom+Function  
  ----- ------------  ---------------      ----- ------------  ---------------
   312      0.146537  20 C  px              313     -0.145962  20 C  py        
   314      0.146533  20 C  pz              218      0.143045  10 C  px        
   219      0.142454  10 C  py              220      0.143051  10 C  pz        
    66     -0.140183   3 Fe s                 4      0.136760   1 Fe s         
   301     -0.135648  19 S  px              303     -0.135642  19 S  pz        

 Vector  105  Occ=1.000000D+00  E=-8.909037D-02
              MO Center= -4.0D-04, -2.3D-01,  1.8D-03, r^2= 1.0D+01
   Bfn.  Coefficient  Atom+Function         Bfn.  Coefficient  Atom+Function  
  ----- ------------  ---------------      ----- ------------  ---------------
    35      0.124009   2 Fe s                97      0.124061   4 Fe s         
     4      0.112371   1 Fe s                66      0.112115   3 Fe s         
   146     -0.112416   6 S  s               182     -0.112289   8 S  s         
   128     -0.110722   5 S  s               164     -0.110674   7 S  s         
   154      0.100567   6 S  py              190      0.100271   8 S  py        

 Vector  106  Occ=1.000000D+00  E=-8.407982D-02
              MO Center= -2.0D-04, -7.3D-01,  1.9D-03, r^2= 4.8D+00
   Bfn.  Coefficient  Atom+Function         Bfn.  Coefficient  Atom+Function  
  ----- ------------  ---------------      ----- ------------  ---------------
    35      0.188183   2 Fe s                97      0.188037   4 Fe s         
    46      0.181372   2 Fe d -2            109      0.181667   4 Fe d -1      
    47     -0.180346   2 Fe d -1            108     -0.180591   4 Fe d -2      
   112      0.171672   4 Fe d  2             50      0.170582   2 Fe d  2      
    49      0.169373   2 Fe d  1            111      0.169679   4 Fe d  1      

 Vector  107  Occ=1.000000D+00  E=-8.377100D-02
              MO Center= -2.6D-03, -6.4D-01, -7.2D-04, r^2= 5.4D+00
   Bfn.  Coefficient  Atom+Function         Bfn.  Coefficient  Atom+Function  
  ----- ------------  ---------------      ----- ------------  ---------------
   108      0.202211   4 Fe d -2             46      0.200907   2 Fe d -2      
    47      0.201764   2 Fe d -1            109      0.201258   4 Fe d -1      
    48      0.192925   2 Fe d  0            110     -0.193740   4 Fe d  0      
     4      0.172662   1 Fe s                66     -0.172179   3 Fe s         
   154      0.169742   6 S  py              190     -0.169586   8 S  py        

 Vector  108  Occ=1.000000D+00  E=-7.619132D-02
              MO Center= -2.5D-03, -5.5D-01,  2.6D-03, r^2= 5.0D+00
   Bfn.  Coefficient  Atom+Function         Bfn.  Coefficient  Atom+Function  
  ----- ------------  ---------------      ----- ------------  ---------------
    35      0.296478   2 Fe s                97     -0.297304   4 Fe s         
    49     -0.270120   2 Fe d  1            111      0.270262   4 Fe d  1      
   153      0.151907   6 S  px              155     -0.151743   6 S  pz        
   189      0.151907   8 S  px              191     -0.151756   8 S  pz        
    34     -0.149339   2 Fe s                96      0.149830   4 Fe s         

 Vector  109  Occ=1.000000D+00  E=-7.275198D-02
              MO Center= -4.2D-03, -1.1D-01,  5.5D-03, r^2= 4.8D+00
   Bfn.  Coefficient  Atom+Function         Bfn.  Coefficient  Atom+Function  
  ----- ------------  ---------------      ----- ------------  ---------------
   112      0.304615   4 Fe d  2             50      0.302671   2 Fe d  2      
   136      0.219999   5 S  py              172      0.219009   7 S  py        
   110      0.177035   4 Fe d  0             48      0.173584   2 Fe d  0      
   133      0.170229   5 S  py              169      0.169641   7 S  py        
   117      0.129740   4 Fe d  2             55      0.128921   2 Fe d  2      

 Vector  110  Occ=1.000000D+00  E=-7.239173D-02
              MO Center= -2.1D-03, -6.6D-01,  7.2D-04, r^2= 4.5D+00
   Bfn.  Coefficient  Atom+Function         Bfn.  Coefficient  Atom+Function  
  ----- ------------  ---------------      ----- ------------  ---------------
    48      0.288868   2 Fe d  0            110     -0.288429   4 Fe d  0      
   112      0.167660   4 Fe d  2             50     -0.165585   2 Fe d  2      
   153     -0.165965   6 S  px              155     -0.165896   6 S  pz        
   189     -0.165751   8 S  px              191     -0.165998   8 S  pz        
    46     -0.157731   2 Fe d -2            109     -0.158280   4 Fe d -1      

 Vector  111  Occ=1.000000D+00  E=-6.698580D-02
              MO Center=  7.6D-03, -1.7D-01, -7.3D-03, r^2= 4.8D+00
   Bfn.  Coefficient  Atom+Function         Bfn.  Coefficient  Atom+Function  
  ----- ------------  ---------------      ----- ------------  ---------------
    50      0.352164   2 Fe d  2            112     -0.349494   4 Fe d  2      
    48      0.203242   2 Fe d  0            110     -0.201767   4 Fe d  0      
   172      0.188489   7 S  py              136     -0.186621   5 S  py        
    55      0.148534   2 Fe d  2            117     -0.147385   4 Fe d  2      
   169      0.137012   7 S  py              133     -0.135542   5 S  py        

 Vector  112  Occ=1.000000D+00  E=-5.245839D-02
              MO Center=  1.2D-03, -5.1D-01, -1.6D-03, r^2= 3.7D+00
   Bfn.  Coefficient  Atom+Function         Bfn.  Coefficient  Atom+Function  
  ----- ------------  ---------------      ----- ------------  ---------------
    46      0.332105   2 Fe d -2             47      0.331907   2 Fe d -1      
   108     -0.331620   4 Fe d -2            109     -0.331792   4 Fe d -1      
    51      0.141792   2 Fe d -2             52      0.141713   2 Fe d -1      
   113     -0.141576   4 Fe d -2            114     -0.141648   4 Fe d -1      
   135     -0.116080   5 S  px              137     -0.116215   5 S  pz        

 Vector  113  Occ=1.000000D+00  E=-4.858941D-02
              MO Center=  3.5D-04, -9.1D-01, -3.7D-04, r^2= 3.3D+00
   Bfn.  Coefficient  Atom+Function         Bfn.  Coefficient  Atom+Function  
  ----- ------------  ---------------      ----- ------------  ---------------
    48      0.355763   2 Fe d  0            110      0.355504   4 Fe d  0      
    50     -0.205394   2 Fe d  2            112     -0.205223   4 Fe d  2      
   153      0.158249   6 S  px              155     -0.158556   6 S  pz        
   189     -0.158523   8 S  px              191      0.158277   8 S  pz        
    53      0.153064   2 Fe d  0            115      0.152943   4 Fe d  0      

 Vector  114  Occ=1.000000D+00  E=-4.565281D-02
              MO Center=  5.8D-04, -1.4D-01,  2.3D-04, r^2= 4.9D+00
   Bfn.  Coefficient  Atom+Function         Bfn.  Coefficient  Atom+Function  
  ----- ------------  ---------------      ----- ------------  ---------------
    46      0.271810   2 Fe d -2             47     -0.272119   2 Fe d -1      
   108      0.271902   4 Fe d -2            109     -0.271578   4 Fe d -1      
    49      0.156963   2 Fe d  1            111     -0.156958   4 Fe d  1      
   135      0.144390   5 S  px              137     -0.144253   5 S  pz        
   171      0.144165   7 S  px              173     -0.144291   7 S  pz        

 Vector  115  Occ=1.000000D+00  E=-3.640475D-02
              MO Center=  3.6D-04,  2.0D-01,  4.4D-05, r^2= 5.4D+00
   Bfn.  Coefficient  Atom+Function         Bfn.  Coefficient  Atom+Function  
  ----- ------------  ---------------      ----- ------------  ---------------
   154      0.203837   6 S  py              190      0.203747   8 S  py        
   151      0.161838   6 S  py              187      0.161789   8 S  py        
   135     -0.153682   5 S  px              137      0.153707   5 S  pz        
   171      0.153644   7 S  px              173     -0.153693   7 S  pz        
    49     -0.143745   2 Fe d  1            111     -0.143926   4 Fe d  1      

 Vector  116  Occ=1.000000D+00  E=-2.276609D-02
              MO Center= -2.8D-03,  5.0D-01,  3.2D-03, r^2= 5.4D+00
   Bfn.  Coefficient  Atom+Function         Bfn.  Coefficient  Atom+Function  
  ----- ------------  ---------------      ----- ------------  ---------------
   135      0.205070   5 S  px              137      0.205018   5 S  pz        
   171      0.204355   7 S  px              173      0.204408   7 S  pz        
    18      0.171158   1 Fe d  1             80     -0.171072   3 Fe d  1      
   154     -0.158108   6 S  py              190      0.158012   8 S  py        
   132      0.155486   5 S  px              134      0.155458   5 S  pz        

 Vector  117  Occ=1.000000D+00  E=-1.816396D-02
              MO Center=  1.1D-03, -4.7D-01, -5.0D-03, r^2= 7.0D+00
   Bfn.  Coefficient  Atom+Function         Bfn.  Coefficient  Atom+Function  
  ----- ------------  ---------------      ----- ------------  ---------------
    48      0.232005   2 Fe d  0            110      0.231990   4 Fe d  0      
   135      0.157835   5 S  px              171     -0.158571   7 S  px        
   137      0.155709   5 S  pz              173     -0.156470   7 S  pz        
    50     -0.132165   2 Fe d  2            112     -0.132302   4 Fe d  2      
   254     -0.119314  14 S  px              348      0.119037  24 S  px        

 Vector  118  Occ=1.000000D+00  E=-1.805713D-02
              MO Center= -6.1D-06, -1.0D+00,  3.4D-04, r^2= 4.1D+00
   Bfn.  Coefficient  Atom+Function         Bfn.  Coefficient  Atom+Function  
  ----- ------------  ---------------      ----- ------------  ---------------
    49      0.463682   2 Fe d  1            111      0.463790   4 Fe d  1      
    54      0.198935   2 Fe d  1            116      0.198958   4 Fe d  1      
   155      0.144811   6 S  pz              191     -0.144682   8 S  pz        
   153      0.137588   6 S  px              189     -0.137823   8 S  px        
   152      0.097116   6 S  pz              188     -0.097040   8 S  pz        

 Vector  119  Occ=1.000000D+00  E=-6.525341D-03
              MO Center= -7.5D-03, -4.1D-01,  9.4D-03, r^2= 6.7D+00
   Bfn.  Coefficient  Atom+Function         Bfn.  Coefficient  Atom+Function  
  ----- ------------  ---------------      ----- ------------  ---------------
   108     -0.236817   4 Fe d -2            109      0.236713   4 Fe d -1      
    46      0.235395   2 Fe d -2             47     -0.235580   2 Fe d -1      
   154      0.174119   6 S  py              190      0.173896   8 S  py        
   135      0.126616   5 S  px              137     -0.126603   5 S  pz        
   171     -0.124429   7 S  px              173      0.124442   7 S  pz        

 Vector  120  Occ=1.000000D+00  E=-4.230334D-03
              MO Center=  1.0D-02, -4.3D-02, -7.2D-03, r^2= 6.4D+00
   Bfn.  Coefficient  Atom+Function         Bfn.  Coefficient  Atom+Function  
  ----- ------------  ---------------      ----- ------------  ---------------
    50      0.248289   2 Fe d  2            112     -0.247152   4 Fe d  2      
    49      0.186833   2 Fe d  1            111     -0.187334   4 Fe d  1      
   171     -0.182006   7 S  px              173      0.181907   7 S  pz        
   135     -0.180552   5 S  px              137      0.180599   5 S  pz        
    17      0.160015   1 Fe d  0             79     -0.159792   3 Fe d  0      

 Vector  121  Occ=1.000000D+00  E= 4.910293D-03
              MO Center= -3.5D-04, -1.0D+00, -2.0D-03, r^2= 5.1D+00
   Bfn.  Coefficient  Atom+Function         Bfn.  Coefficient  Atom+Function  
  ----- ------------  ---------------      ----- ------------  ---------------
   154      0.295265   6 S  py              190     -0.295323   8 S  py        
    46     -0.232892   2 Fe d -2             47     -0.232688   2 Fe d -1      
   108     -0.232875   4 Fe d -2            109     -0.232774   4 Fe d -1      
   151      0.211092   6 S  py              187     -0.211120   8 S  py        
   148      0.121769   6 S  py              184     -0.121789   8 S  py        

 Vector  122  Occ=1.000000D+00  E= 1.251246D-02
              MO Center= -5.5D-04, -4.3D-01,  3.7D-03, r^2= 7.0D+00
   Bfn.  Coefficient  Atom+Function         Bfn.  Coefficient  Atom+Function  
  ----- ------------  ---------------      ----- ------------  ---------------
    46      0.249975   2 Fe d -2             47     -0.250439   2 Fe d -1      
   108      0.250462   4 Fe d -2            109     -0.250235   4 Fe d -1      
    44     -0.137777   2 Fe py              106      0.138174   4 Fe py        
   135     -0.130116   5 S  px              137      0.129813   5 S  pz        
   171     -0.129881   7 S  px              173      0.130254   7 S  pz        

 Vector  123  Occ=1.000000D+00  E= 1.448449D-02
              MO Center= -4.5D-04,  1.5D-01, -2.0D-03, r^2= 6.8D+00
   Bfn.  Coefficient  Atom+Function         Bfn.  Coefficient  Atom+Function  
  ----- ------------  ---------------      ----- ------------  ---------------
   135      0.168545   5 S  px              137      0.168939   5 S  pz        
   171     -0.168819   7 S  px              173     -0.168853   7 S  pz        
   109     -0.160180   4 Fe d -1             46      0.159336   2 Fe d -2      
    47      0.160012   2 Fe d -1             48     -0.159067   2 Fe d  0      
   108     -0.158478   4 Fe d -2            110     -0.159155   4 Fe d  0      

 Vector  124  Occ=1.000000D+00  E= 1.464304D-02
              MO Center=  3.9D-03, -2.5D-01, -1.5D-03, r^2= 6.7D+00
   Bfn.  Coefficient  Atom+Function         Bfn.  Coefficient  Atom+Function  
  ----- ------------  ---------------      ----- ------------  ---------------
    50      0.237730   2 Fe d  2            112      0.237269   4 Fe d  2      
    19      0.189174   1 Fe d  2             81      0.189163   3 Fe d  2      
   154     -0.172495   6 S  py              190     -0.172714   8 S  py        
    48      0.138457   2 Fe d  0            110      0.138278   4 Fe d  0      
   136     -0.132485   5 S  py              172     -0.132948   7 S  py        

 Vector  125  Occ=1.000000D+00  E= 3.110853D-02
              MO Center= -1.2D-03,  6.2D-02,  2.4D-03, r^2= 1.1D+01
   Bfn.  Coefficient  Atom+Function         Bfn.  Coefficient  Atom+Function  
  ----- ------------  ---------------      ----- ------------  ---------------
   208      0.202988   9 S  py              302     -0.202018  19 S  py        
   254      0.156196  14 S  px              256      0.155891  14 S  pz        
   348      0.155507  24 S  px              350      0.155755  24 S  pz        
    48     -0.135493   2 Fe d  0            110      0.135479   4 Fe d  0      
    19     -0.133606   1 Fe d  2             81      0.133263   3 Fe d  2      

 Vector  126  Occ=1.000000D+00  E= 3.917240D-02
              MO Center= -1.6D-03,  1.1D+00,  9.1D-03, r^2= 1.4D+01
   Bfn.  Coefficient  Atom+Function         Bfn.  Coefficient  Atom+Function  
  ----- ------------  ---------------      ----- ------------  ---------------
   208      0.306045   9 S  py              302      0.305703  19 S  py        
   205      0.190285   9 S  py              299      0.190058  19 S  py        
   255      0.165552  14 S  py              349      0.164847  24 S  py        
   207     -0.148907   9 S  px              209     -0.149108   9 S  pz        
   301      0.149071  19 S  px              303      0.148785  19 S  pz        

 Vector  127  Occ=1.000000D+00  E= 4.218719D-02
              MO Center= -1.3D-02,  2.2D-01, -4.5D-03, r^2= 1.5D+01
   Bfn.  Coefficient  Atom+Function         Bfn.  Coefficient  Atom+Function  
  ----- ------------  ---------------      ----- ------------  ---------------
   208      0.263662   9 S  py              302     -0.264639  19 S  py        
   254     -0.197668  14 S  px              256     -0.197186  14 S  pz        
   348     -0.196993  24 S  px              350     -0.197242  24 S  pz        
   205      0.166472   9 S  py              299     -0.167061  19 S  py        
   251     -0.132068  14 S  px              253     -0.131740  14 S  pz        

 Vector  128  Occ=1.000000D+00  E= 4.230951D-02
              MO Center=  1.5D-01,  1.7D+00,  1.3D-01, r^2= 1.3D+01
   Bfn.  Coefficient  Atom+Function         Bfn.  Coefficient  Atom+Function  
  ----- ------------  ---------------      ----- ------------  ---------------
   207      0.306693   9 S  px              209     -0.306745   9 S  pz        
   301      0.284516  19 S  px              303     -0.284830  19 S  pz        
   204      0.196011   9 S  px              206     -0.196004   9 S  pz        
   298      0.181945  19 S  px              300     -0.182184  19 S  pz        
   201      0.115198   9 S  px              203     -0.115195   9 S  pz        

 Vector  129  Occ=1.000000D+00  E= 4.272975D-02
              MO Center= -1.3D-01,  1.9D+00, -1.5D-01, r^2= 1.0D+01
   Bfn.  Coefficient  Atom+Function         Bfn.  Coefficient  Atom+Function  
  ----- ------------  ---------------      ----- ------------  ---------------
   301     -0.299623  19 S  px              303      0.300263  19 S  pz        
   207      0.277695   9 S  px              209     -0.277140   9 S  pz        
    79     -0.198476   3 Fe d  0             17     -0.191751   1 Fe d  0      
   298     -0.189281  19 S  px              300      0.189746  19 S  pz        
   204      0.175343   9 S  px              206     -0.174918   9 S  pz        

 Vector  130  Occ=1.000000D+00  E= 5.236112D-02
              MO Center=  8.7D-03, -1.6D+00,  4.9D-03, r^2= 9.1D+00
   Bfn.  Coefficient  Atom+Function         Bfn.  Coefficient  Atom+Function  
  ----- ------------  ---------------      ----- ------------  ---------------
    49      0.362553   2 Fe d  1            111     -0.362200   4 Fe d  1      
   255     -0.266864  14 S  py              349      0.266572  24 S  py        
   252     -0.193043  14 S  py              346      0.192815  24 S  py        
   254     -0.143540  14 S  px              256      0.143351  14 S  pz        
   348     -0.143106  24 S  px              350      0.143370  24 S  pz        

 Vector  131  Occ=1.000000D+00  E= 5.970631D-02
              MO Center= -1.2D-02, -2.0D+00, -1.0D-02, r^2= 1.1D+01
   Bfn.  Coefficient  Atom+Function         Bfn.  Coefficient  Atom+Function  
  ----- ------------  ---------------      ----- ------------  ---------------
   254      0.297518  14 S  px              256      0.297218  14 S  pz        
   348     -0.297706  24 S  px              350     -0.297497  24 S  pz        
   251      0.196919  14 S  px              253      0.196701  14 S  pz        
   345     -0.196997  24 S  px              347     -0.196893  24 S  pz        
    48      0.194443   2 Fe d  0            110      0.194123   4 Fe d  0      

 Vector  132  Occ=1.000000D+00  E= 6.122463D-02
              MO Center=  2.7D-03, -1.1D+00,  1.1D-02, r^2= 1.2D+01
   Bfn.  Coefficient  Atom+Function         Bfn.  Coefficient  Atom+Function  
  ----- ------------  ---------------      ----- ------------  ---------------
   255      0.287823  14 S  py              349      0.288643  24 S  py        
    50     -0.199596   2 Fe d  2            112     -0.199502   4 Fe d  2      
   252      0.193144  14 S  py              346      0.193682  24 S  py        
    18     -0.166825   1 Fe d  1             80     -0.166896   3 Fe d  1      
   350      0.150439  24 S  pz              254      0.149494  14 S  px        

 Vector  133  Occ=1.000000D+00  E= 7.190638D-02
              MO Center=  4.0D-03, -8.3D-01,  2.9D-03, r^2= 8.5D+00
   Bfn.  Coefficient  Atom+Function         Bfn.  Coefficient  Atom+Function  
  ----- ------------  ---------------      ----- ------------  ---------------
    50     -0.221468   2 Fe d  2            112      0.221587   4 Fe d  2      
    49      0.215927   2 Fe d  1            111     -0.215704   4 Fe d  1      
   136     -0.204167   5 S  py              172      0.204223   7 S  py        
   255      0.190042  14 S  py              349     -0.190240  24 S  py        
   153      0.175922   6 S  px              155     -0.176052   6 S  pz        

 Vector  134  Occ=1.000000D+00  E= 7.432575D-02
              MO Center= -1.5D-02, -1.0D+00, -8.6D-03, r^2= 9.0D+00
   Bfn.  Coefficient  Atom+Function         Bfn.  Coefficient  Atom+Function  
  ----- ------------  ---------------      ----- ------------  ---------------
    48      0.295748   2 Fe d  0            110     -0.296796   4 Fe d  0      
   254      0.185756  14 S  px              350      0.186221  24 S  pz        
   256      0.185110  14 S  pz              348      0.185609  24 S  px        
   189      0.173648   8 S  px              191      0.173687   8 S  pz        
    50     -0.171911   2 Fe d  2            153      0.172002   6 S  px        

 Vector  135  Occ=1.000000D+00  E= 7.444613D-02
              MO Center=  6.8D-03,  8.4D-01,  9.4D-03, r^2= 5.6D+00
   Bfn.  Coefficient  Atom+Function         Bfn.  Coefficient  Atom+Function  
  ----- ------------  ---------------      ----- ------------  ---------------
    18      0.445220   1 Fe d  1             80      0.445308   3 Fe d  1      
    23      0.212317   1 Fe d  1             85      0.212355   3 Fe d  1      
   217     -0.139484  10 C  s               311     -0.139773  20 C  s         
   207      0.097566   9 S  px              209      0.097144   9 S  pz        
   301     -0.095746  19 S  px              303     -0.095870  19 S  pz        

 Vector  136  Occ=0.000000D+00  E= 1.094702D-01
              MO Center=  8.8D-05,  8.1D-01,  2.0D-03, r^2= 6.2D+00
   Bfn.  Coefficient  Atom+Function         Bfn.  Coefficient  Atom+Function  
  ----- ------------  ---------------      ----- ------------  ---------------
    15      0.302595   1 Fe d -2             16      0.302136   1 Fe d -1      
    77     -0.301839   3 Fe d -2             78     -0.302071   3 Fe d -1      
   217      0.167980  10 C  s               311      0.167667  20 C  s         
   136      0.161916   5 S  py              172      0.161827   7 S  py        
   200     -0.143980   9 S  s               247      0.144445  14 S  s         

 Vector  137  Occ=0.000000D+00  E= 1.136051D-01
              MO Center= -1.4D-03,  8.4D-01, -8.6D-04, r^2= 5.7D+00
   Bfn.  Coefficient  Atom+Function         Bfn.  Coefficient  Atom+Function  
  ----- ------------  ---------------      ----- ------------  ---------------
    15      0.348654   1 Fe d -2             78      0.348560   3 Fe d -1      
    16      0.346386   1 Fe d -1             77      0.347195   3 Fe d -2      
   217      0.270641  10 C  s               311     -0.270852  20 C  s         
   200     -0.211366   9 S  s               294      0.211525  19 S  s         
    20      0.151879   1 Fe d -2             83      0.151840   3 Fe d -1      

 Vector  138  Occ=0.000000D+00  E= 1.147384D-01
              MO Center=  1.8D-03,  6.8D-01, -4.3D-04, r^2= 4.0D+00
   Bfn.  Coefficient  Atom+Function         Bfn.  Coefficient  Atom+Function  
  ----- ------------  ---------------      ----- ------------  ---------------
    16     -0.357472   1 Fe d -1             15      0.355490   1 Fe d -2      
    77     -0.356974   3 Fe d -2             78      0.355312   3 Fe d -1      
    21     -0.165368   1 Fe d -1             20      0.164505   1 Fe d -2      
    82     -0.165147   3 Fe d -2             83      0.164427   3 Fe d -1      
   155     -0.131636   6 S  pz              189     -0.131595   8 S  px        

 Vector  139  Occ=0.000000D+00  E= 1.194392D-01
              MO Center= -2.7D-04,  7.9D-01, -1.7D-03, r^2= 4.6D+00
   Bfn.  Coefficient  Atom+Function         Bfn.  Coefficient  Atom+Function  
  ----- ------------  ---------------      ----- ------------  ---------------
    15      0.351185   1 Fe d -2             16     -0.351921   1 Fe d -1      
    77      0.351684   3 Fe d -2             78     -0.352056   3 Fe d -1      
   136      0.189999   5 S  py              172     -0.189899   7 S  py        
    20      0.157332   1 Fe d -2             21     -0.157650   1 Fe d -1      
    82      0.157555   3 Fe d -2             83     -0.157725   3 Fe d -1      

 Vector  140  Occ=0.000000D+00  E= 1.249717D-01
              MO Center= -1.4D-03,  1.0D+00,  3.9D-03, r^2= 5.4D+00
   Bfn.  Coefficient  Atom+Function         Bfn.  Coefficient  Atom+Function  
  ----- ------------  ---------------      ----- ------------  ---------------
    18      0.346827   1 Fe d  1             80     -0.347030   3 Fe d  1      
    19     -0.322287   1 Fe d  2             81      0.323136   3 Fe d  2      
    17     -0.187886   1 Fe d  0             79      0.184732   3 Fe d  0      
    23      0.146190   1 Fe d  1             85     -0.146281   3 Fe d  1      
    24     -0.138356   1 Fe d  2             86      0.138774   3 Fe d  2      

 Vector  141  Occ=0.000000D+00  E= 1.270024D-01
              MO Center=  2.2D-03,  1.1D+00, -2.5D-03, r^2= 4.7D+00
   Bfn.  Coefficient  Atom+Function         Bfn.  Coefficient  Atom+Function  
  ----- ------------  ---------------      ----- ------------  ---------------
    17      0.427266   1 Fe d  0             79      0.428673   3 Fe d  0      
    19     -0.248260   1 Fe d  2             81     -0.245833   3 Fe d  2      
    22      0.195307   1 Fe d  0             84      0.195899   3 Fe d  0      
   207      0.123984   9 S  px              209     -0.123463   9 S  pz        
   301     -0.123452  19 S  px              303      0.124064  19 S  pz        

 Vector  142  Occ=0.000000D+00  E= 1.318518D-01
              MO Center= -2.0D-03,  7.7D-01,  9.0D-04, r^2= 5.4D+00
   Bfn.  Coefficient  Atom+Function         Bfn.  Coefficient  Atom+Function  
  ----- ------------  ---------------      ----- ------------  ---------------
    19      0.397970   1 Fe d  2             81      0.398042   3 Fe d  2      
    17      0.229618   1 Fe d  0             79      0.229782   3 Fe d  0      
    24      0.172402   1 Fe d  2             86      0.172428   3 Fe d  2      
   154      0.161487   6 S  py              190      0.161441   8 S  py        
    13     -0.127712   1 Fe py               75     -0.127651   3 Fe py        

 Vector  143  Occ=0.000000D+00  E= 1.365950D-01
              MO Center= -1.1D-03,  1.0D+00, -1.2D-03, r^2= 4.3D+00
   Bfn.  Coefficient  Atom+Function         Bfn.  Coefficient  Atom+Function  
  ----- ------------  ---------------      ----- ------------  ---------------
    18      0.384839   1 Fe d  1             80     -0.384965   3 Fe d  1      
    19      0.260548   1 Fe d  2             81     -0.261634   3 Fe d  2      
    23      0.166320   1 Fe d  1             85     -0.166378   3 Fe d  1      
   217     -0.159491  10 C  s               311      0.159444  20 C  s         
   135     -0.154439   5 S  px              137     -0.154579   5 S  pz        

 Vector  144  Occ=0.000000D+00  E= 1.527094D-01
              MO Center=  1.8D-03,  1.1D+00, -1.6D-03, r^2= 4.6D+00
   Bfn.  Coefficient  Atom+Function         Bfn.  Coefficient  Atom+Function  
  ----- ------------  ---------------      ----- ------------  ---------------
    17      0.415375   1 Fe d  0             79     -0.415239   3 Fe d  0      
    19     -0.239775   1 Fe d  2             81      0.239855   3 Fe d  2      
    22      0.178041   1 Fe d  0             84     -0.177977   3 Fe d  0      
    12     -0.140609   1 Fe px               14      0.140617   1 Fe pz        
    74     -0.140583   3 Fe px               76      0.140587   3 Fe pz        

 Vector  145  Occ=0.000000D+00  E= 1.999237D-01
              MO Center=  7.7D-03, -1.4D+00, -6.0D-03, r^2= 2.2D+01
   Bfn.  Coefficient  Atom+Function         Bfn.  Coefficient  Atom+Function  
  ----- ------------  ---------------      ----- ------------  ---------------
   264      1.011551  15 C  s               358      1.007345  25 C  s         
   247     -0.517496  14 S  s               341     -0.516380  24 S  s         
   217      0.505245  10 C  s               311      0.504845  20 C  s         
   287     -0.363996  18 H  s               371     -0.362440  26 H  s         
   277     -0.358511  16 H  s               282     -0.359494  17 H  s         

 Vector  146  Occ=0.000000D+00  E= 2.062886D-01
              MO Center= -7.0D-03, -2.6D+00,  3.2D-03, r^2= 2.2D+01
   Bfn.  Coefficient  Atom+Function         Bfn.  Coefficient  Atom+Function  
  ----- ------------  ---------------      ----- ------------  ---------------
   264      1.336001  15 C  s               358     -1.338502  25 C  s         
    36     -0.681261   2 Fe s                98      0.681039   4 Fe s         
    35      0.605796   2 Fe s                97     -0.606729   4 Fe s         
   277     -0.532226  16 H  s               381      0.532993  28 H  s         
   282     -0.523279  17 H  s               376      0.524151  27 H  s         

 Vector  147  Occ=0.000000D+00  E= 2.126568D-01
              MO Center=  2.3D-03,  1.1D+00,  1.1D-02, r^2= 2.9D+01
   Bfn.  Coefficient  Atom+Function         Bfn.  Coefficient  Atom+Function  
  ----- ------------  ---------------      ----- ------------  ---------------
   217      1.217098  10 C  s               311      1.214456  20 C  s         
   264     -0.749528  15 C  s               358     -0.750530  25 C  s         
    36      0.566405   2 Fe s                98      0.567054   4 Fe s         
   230     -0.502523  11 H  s               334     -0.501402  23 H  s         
   235     -0.475123  12 H  s               329     -0.474060  22 H  s         

 Vector  148  Occ=0.000000D+00  E= 2.167239D-01
              MO Center= -2.2D-03,  2.8D+00, -6.8D-03, r^2= 2.4D+01
   Bfn.  Coefficient  Atom+Function         Bfn.  Coefficient  Atom+Function  
  ----- ------------  ---------------      ----- ------------  ---------------
   217      1.506994  10 C  s               311     -1.509245  20 C  s         
     5     -0.665140   1 Fe s                67      0.665575   3 Fe s         
   240     -0.634475  13 H  s               324      0.635423  21 H  s         
   235     -0.625171  12 H  s               329      0.626031  22 H  s         
   230     -0.607670  11 H  s               334      0.608507  23 H  s         

 Vector  149  Occ=0.000000D+00  E= 2.243144D-01
              MO Center=  6.6D-04, -3.4D-01, -9.3D-05, r^2= 2.7D+01
   Bfn.  Coefficient  Atom+Function         Bfn.  Coefficient  Atom+Function  
  ----- ------------  ---------------      ----- ------------  ---------------
   217      0.790526  10 C  s               311      0.790772  20 C  s         
   264      0.738506  15 C  s               358      0.738121  25 C  s         
    36     -0.638014   2 Fe s                98     -0.638695   4 Fe s         
     5     -0.385567   1 Fe s                67     -0.385727   3 Fe s         
   240     -0.379792  13 H  s               287     -0.381015  18 H  s         

 Vector  150  Occ=0.000000D+00  E= 2.474137D-01
              MO Center=  2.8D-03, -2.4D+00, -6.3D-03, r^2= 2.1D+01
   Bfn.  Coefficient  Atom+Function         Bfn.  Coefficient  Atom+Function  
  ----- ------------  ---------------      ----- ------------  ---------------
    36      0.802208   2 Fe s                98     -0.801325   4 Fe s         
   264     -0.752179  15 C  s               358      0.751351  25 C  s         
   247     -0.520455  14 S  s               341      0.519638  24 S  s         
   277      0.503582  16 H  s               381     -0.502827  28 H  s         
   282      0.477721  17 H  s               376     -0.477133  27 H  s         

 Vector  151  Occ=0.000000D+00  E= 2.530867D-01
              MO Center=  7.8D-04,  6.5D-01,  1.3D-02, r^2= 2.5D+01
   Bfn.  Coefficient  Atom+Function         Bfn.  Coefficient  Atom+Function  
  ----- ------------  ---------------      ----- ------------  ---------------
     5      0.619235   1 Fe s                67      0.616276   3 Fe s         
   200     -0.449359   9 S  s               294     -0.447768  19 S  s         
   264      0.432496  15 C  s               358      0.433134  25 C  s         
    98     -0.420406   4 Fe s                36     -0.417360   2 Fe s         
   217     -0.409802  10 C  s               311     -0.409823  20 C  s         

 Vector  152  Occ=0.000000D+00  E= 2.579865D-01
              MO Center= -4.4D-03,  2.3D+00, -7.0D-03, r^2= 1.9D+01
   Bfn.  Coefficient  Atom+Function         Bfn.  Coefficient  Atom+Function  
  ----- ------------  ---------------      ----- ------------  ---------------
     5      0.730398   1 Fe s                67     -0.733022   3 Fe s         
   200     -0.578119   9 S  s               294      0.579578  19 S  s         
   217     -0.452530  10 C  s               311      0.452156  20 C  s         
   240      0.395865  13 H  s               324     -0.396043  21 H  s         
   235      0.368727  12 H  s               329     -0.368742  22 H  s         

 Vector  153  Occ=0.000000D+00  E= 2.771785D-01
              MO Center= -1.5D-02, -1.1D+00,  3.2D-02, r^2= 2.6D+01
   Bfn.  Coefficient  Atom+Function         Bfn.  Coefficient  Atom+Function  
  ----- ------------  ---------------      ----- ------------  ---------------
   264      0.937718  15 C  s               358      0.941602  25 C  s         
    98      0.881250   4 Fe s                36      0.875142   2 Fe s         
   277     -0.731303  16 H  s               381     -0.733123  28 H  s         
   282     -0.536215  17 H  s               376     -0.537525  27 H  s         
   230     -0.453149  11 H  s               334     -0.451053  23 H  s         

 Vector  154  Occ=0.000000D+00  E= 2.802761D-01
              MO Center=  3.2D-01, -5.9D-01, -4.4D-02, r^2= 3.4D+01
   Bfn.  Coefficient  Atom+Function         Bfn.  Coefficient  Atom+Function  
  ----- ------------  ---------------      ----- ------------  ---------------
    36      1.236554   2 Fe s                98     -1.231293   4 Fe s         
   287     -0.984753  18 H  s               371      0.970405  26 H  s         
   235      0.761415  12 H  s               329      0.763059  22 H  s         
   264      0.748040  15 C  s               358     -0.744341  25 C  s         
    35     -0.532712   2 Fe s                97      0.528888   4 Fe s         

 Vector  155  Occ=0.000000D+00  E= 2.808039D-01
              MO Center= -3.5D-01, -1.5D+00, -2.7D-01, r^2= 3.4D+01
   Bfn.  Coefficient  Atom+Function         Bfn.  Coefficient  Atom+Function  
  ----- ------------  ---------------      ----- ------------  ---------------
   282      1.052924  17 H  s               376      1.053978  27 H  s         
    67      0.981212   3 Fe s                 5     -0.845761   1 Fe s         
   230      0.652574  11 H  s               334     -0.650477  23 H  s         
   311      0.613504  20 C  s               277     -0.563099  16 H  s         
   381     -0.565105  28 H  s               217     -0.508571  10 C  s         

 Vector  156  Occ=0.000000D+00  E= 2.810820D-01
              MO Center=  1.3D-01, -2.1D-01,  2.8D-01, r^2= 3.4D+01
   Bfn.  Coefficient  Atom+Function         Bfn.  Coefficient  Atom+Function  
  ----- ------------  ---------------      ----- ------------  ---------------
     5      0.899722   1 Fe s               240     -0.780761  13 H  s         
   324     -0.780838  21 H  s               381      0.769148  28 H  s         
   277      0.762667  16 H  s                67      0.739468   3 Fe s         
   371     -0.719058  26 H  s               287     -0.707778  18 H  s         
   217      0.689671  10 C  s               311      0.593982  20 C  s         

 Vector  157  Occ=0.000000D+00  E= 2.853284D-01
              MO Center= -3.7D-01, -3.4D+00, -4.5D-01, r^2= 3.0D+01
   Bfn.  Coefficient  Atom+Function         Bfn.  Coefficient  Atom+Function  
  ----- ------------  ---------------      ----- ------------  ---------------
   282      1.307578  17 H  s               376     -1.295512  27 H  s         
   277     -0.802358  16 H  s               381      0.782966  28 H  s         
   268      0.655858  15 C  px              364     -0.646081  25 C  pz        
   270      0.566904  15 C  pz              362     -0.565491  25 C  px        
   371      0.522731  26 H  s               287     -0.515288  18 H  s         

 Vector  158  Occ=0.000000D+00  E= 2.856798D-01
              MO Center=  2.5D-01, -1.1D+00,  2.3D-01, r^2= 4.0D+01
   Bfn.  Coefficient  Atom+Function         Bfn.  Coefficient  Atom+Function  
  ----- ------------  ---------------      ----- ------------  ---------------
   371      0.939728  26 H  s               381     -0.928202  28 H  s         
   277      0.875295  16 H  s               287     -0.873472  18 H  s         
   329     -0.788482  22 H  s               235     -0.773434  12 H  s         
   363      0.571073  25 C  py              269     -0.534437  15 C  py        
   324      0.432763  21 H  s               240      0.428195  13 H  s         

 Vector  159  Occ=0.000000D+00  E= 2.862759D-01
              MO Center=  3.9D-01,  8.7D-01,  6.5D-01, r^2= 4.0D+01
   Bfn.  Coefficient  Atom+Function         Bfn.  Coefficient  Atom+Function  
  ----- ------------  ---------------      ----- ------------  ---------------
   230      0.993717  11 H  s               240     -0.949346  13 H  s         
   324     -0.844992  21 H  s               287      0.797366  18 H  s         
   334      0.791055  23 H  s               371      0.732869  26 H  s         
   277     -0.641344  16 H  s               222     -0.590495  10 C  py        
   381     -0.561419  28 H  s               316     -0.493959  20 C  py        

 Vector  160  Occ=0.000000D+00  E= 2.864376D-01
              MO Center= -8.2D-01,  2.7D+00, -3.2D-02, r^2= 3.3D+01
   Bfn.  Coefficient  Atom+Function         Bfn.  Coefficient  Atom+Function  
  ----- ------------  ---------------      ----- ------------  ---------------
   334      1.255813  23 H  s               230     -1.126038  11 H  s         
   324     -0.910736  21 H  s               240      0.771186  13 H  s         
   316     -0.677567  20 C  py              222      0.595956  10 C  py        
   376      0.542996  27 H  s               282      0.478813  17 H  s         
   317     -0.461657  20 C  pz              221     -0.413625  10 C  px        

 Vector  161  Occ=0.000000D+00  E= 2.869370D-01
              MO Center=  4.4D-01,  3.3D+00, -3.9D-01, r^2= 3.0D+01
   Bfn.  Coefficient  Atom+Function         Bfn.  Coefficient  Atom+Function  
  ----- ------------  ---------------      ----- ------------  ---------------
   235      1.290215  12 H  s               329     -1.285140  22 H  s         
   240     -0.893768  13 H  s               324      0.874443  21 H  s         
   223      0.676065  10 C  pz              315      0.668379  20 C  px        
   317     -0.524322  20 C  pz              221     -0.521396  10 C  px        
   334      0.403682  23 H  s               230     -0.389483  11 H  s         

 Vector  162  Occ=0.000000D+00  E= 2.968374D-01
              MO Center=  1.3D-01, -6.7D-02, -8.9D-02, r^2= 3.1D+01
   Bfn.  Coefficient  Atom+Function         Bfn.  Coefficient  Atom+Function  
  ----- ------------  ---------------      ----- ------------  ---------------
    36      1.799182   2 Fe s                98     -1.772524   4 Fe s         
   264      0.849253  15 C  s               358     -0.837277  25 C  s         
    35     -0.751995   2 Fe s                97      0.742774   4 Fe s         
   381      0.731740  28 H  s               235     -0.724057  12 H  s         
   329     -0.724018  22 H  s               277     -0.717320  16 H  s         

 Vector  163  Occ=0.000000D+00  E= 2.987505D-01
              MO Center= -7.0D-03,  3.2D-01,  1.5D-01, r^2= 2.9D+01
   Bfn.  Coefficient  Atom+Function         Bfn.  Coefficient  Atom+Function  
  ----- ------------  ---------------      ----- ------------  ---------------
    67      1.363557   3 Fe s                 5      1.356541   1 Fe s         
    98     -1.281948   4 Fe s                36     -1.247072   2 Fe s         
   334     -0.805034  23 H  s               230     -0.800812  11 H  s         
   287      0.751803  18 H  s               371      0.750668  26 H  s         
   217      0.638840  10 C  s               311      0.641877  20 C  s         

 Vector  164  Occ=0.000000D+00  E= 3.012258D-01
              MO Center= -9.2D-02,  4.4D-01, -5.9D-02, r^2= 2.7D+01
   Bfn.  Coefficient  Atom+Function         Bfn.  Coefficient  Atom+Function  
  ----- ------------  ---------------      ----- ------------  ---------------
     5      1.930738   1 Fe s                67     -1.927516   3 Fe s         
   217      0.862163  10 C  s               311     -0.860961  20 C  s         
     4     -0.772421   1 Fe s                66      0.770201   3 Fe s         
   240     -0.696500  13 H  s               324      0.691059  21 H  s         
   282      0.585668  17 H  s               376      0.585771  27 H  s         

 Vector  165  Occ=0.000000D+00  E= 3.498386D-01
              MO Center=  5.0D-04, -3.2D-03,  3.6D-04, r^2= 8.2D+00
   Bfn.  Coefficient  Atom+Function         Bfn.  Coefficient  Atom+Function  
  ----- ------------  ---------------      ----- ------------  ---------------
    35      0.990232   2 Fe s                97      0.991066   4 Fe s         
     4      0.764798   1 Fe s                66      0.764812   3 Fe s         
     5     -0.494686   1 Fe s                67     -0.493848   3 Fe s         
    36     -0.478229   2 Fe s                98     -0.477612   4 Fe s         
   153      0.332038   6 S  px              155      0.331872   6 S  pz        

 Vector  166  Occ=0.000000D+00  E= 3.735733D-01
              MO Center=  6.1D-03, -9.8D-01,  1.4D-02, r^2= 8.1D+00
   Bfn.  Coefficient  Atom+Function         Bfn.  Coefficient  Atom+Function  
  ----- ------------  ---------------      ----- ------------  ---------------
   106      0.676546   4 Fe py               44      0.668643   2 Fe py        
     4      0.635944   1 Fe s                66      0.625987   3 Fe s         
    35     -0.551930   2 Fe s                 5     -0.534591   1 Fe s         
    67     -0.528259   3 Fe s                97     -0.528144   4 Fe s         
    36      0.470443   2 Fe s                98      0.456164   4 Fe s         

 Vector  167  Occ=0.000000D+00  E= 3.763076D-01
              MO Center=  2.3D-03, -4.5D-01, -4.0D-03, r^2= 1.0D+01
   Bfn.  Coefficient  Atom+Function         Bfn.  Coefficient  Atom+Function  
  ----- ------------  ---------------      ----- ------------  ---------------
    97     -1.321497   4 Fe s                35      1.310351   2 Fe s         
    98      0.556288   4 Fe s                36     -0.544893   2 Fe s         
   172      0.466039   7 S  py              136     -0.461081   5 S  py        
    44      0.443460   2 Fe py              106     -0.432329   4 Fe py        
   164     -0.375840   7 S  s               128      0.368987   5 S  s         

 Vector  168  Occ=0.000000D+00  E= 3.771658D-01
              MO Center= -7.4D-03, -3.0D-01, -8.5D-03, r^2= 9.3D+00
   Bfn.  Coefficient  Atom+Function         Bfn.  Coefficient  Atom+Function  
  ----- ------------  ---------------      ----- ------------  ---------------
     5      0.876304   1 Fe s                67     -0.880371   3 Fe s         
    66      0.796484   3 Fe s                 4     -0.785796   1 Fe s         
    45     -0.599180   2 Fe pz               43     -0.595855   2 Fe px        
   105     -0.598602   4 Fe px              107     -0.595302   4 Fe pz        
   146      0.490719   6 S  s               182     -0.487581   8 S  s         

 Vector  169  Occ=0.000000D+00  E= 3.905024D-01
              MO Center= -4.2D-03, -4.8D-01, -4.6D-03, r^2= 7.7D+00
   Bfn.  Coefficient  Atom+Function         Bfn.  Coefficient  Atom+Function  
  ----- ------------  ---------------      ----- ------------  ---------------
    43      0.595634   2 Fe px               45      0.596888   2 Fe pz        
   105     -0.598161   4 Fe px              107     -0.596892   4 Fe pz        
   153     -0.364389   6 S  px              155      0.363722   6 S  pz        
   189      0.361899   8 S  px              191     -0.362598   8 S  pz        
    12      0.300556   1 Fe px               14     -0.300382   1 Fe pz        

 Vector  170  Occ=0.000000D+00  E= 3.952217D-01
              MO Center=  4.6D-04,  4.1D-01, -4.3D-04, r^2= 9.9D+00
   Bfn.  Coefficient  Atom+Function         Bfn.  Coefficient  Atom+Function  
  ----- ------------  ---------------      ----- ------------  ---------------
    35      0.808550   2 Fe s                97      0.800371   4 Fe s         
     4     -0.554817   1 Fe s                66     -0.548675   3 Fe s         
    44      0.353668   2 Fe py              106      0.354758   4 Fe py        
   136      0.341375   5 S  py              172      0.342248   7 S  py        
   255     -0.316288  14 S  py               12      0.314260   1 Fe px        

 Vector  171  Occ=0.000000D+00  E= 4.011541D-01
              MO Center=  6.4D-03, -1.5D+00,  5.8D-03, r^2= 9.3D+00
   Bfn.  Coefficient  Atom+Function         Bfn.  Coefficient  Atom+Function  
  ----- ------------  ---------------      ----- ------------  ---------------
    35      0.726471   2 Fe s                97     -0.728827   4 Fe s         
    44     -0.594728   2 Fe py              106      0.592127   4 Fe py        
    36      0.391527   2 Fe s                98     -0.393022   4 Fe s         
   254      0.337419  14 S  px              256     -0.337293  14 S  pz        
   348      0.338292  24 S  px              350     -0.338417  24 S  pz        

 Vector  172  Occ=0.000000D+00  E= 4.080906D-01
              MO Center= -7.1D-03, -1.8D-01,  5.1D-03, r^2= 1.2D+01
   Bfn.  Coefficient  Atom+Function         Bfn.  Coefficient  Atom+Function  
  ----- ------------  ---------------      ----- ------------  ---------------
    35      0.775251   2 Fe s                97      0.778268   4 Fe s         
    13      0.724251   1 Fe py               75      0.724760   3 Fe py        
     5     -0.393741   1 Fe s                67     -0.394634   3 Fe s         
   154      0.387758   6 S  py              190      0.388331   8 S  py        
   255     -0.353288  14 S  py              349     -0.353684  24 S  py        

 Vector  173  Occ=0.000000D+00  E= 4.170387D-01
              MO Center= -5.1D-04,  1.0D+00, -8.0D-04, r^2= 1.1D+01
   Bfn.  Coefficient  Atom+Function         Bfn.  Coefficient  Atom+Function  
  ----- ------------  ---------------      ----- ------------  ---------------
     4      1.305904   1 Fe s                66     -1.305995   3 Fe s         
   207      0.378117   9 S  px              209      0.378099   9 S  pz        
   301      0.377836  19 S  px              303      0.377849  19 S  pz        
   208      0.375736   9 S  py              302     -0.375233  19 S  py        
    43     -0.344998   2 Fe px               45     -0.344594   2 Fe pz        

 Vector  174  Occ=0.000000D+00  E= 4.289453D-01
              MO Center=  1.2D-02,  2.8D-01,  1.4D-03, r^2= 9.6D+00
   Bfn.  Coefficient  Atom+Function         Bfn.  Coefficient  Atom+Function  
  ----- ------------  ---------------      ----- ------------  ---------------
    12      0.578934   1 Fe px               14     -0.581282   1 Fe pz        
    74      0.580209   3 Fe px               76     -0.577845   3 Fe pz        
   106      0.536917   4 Fe py               44     -0.533270   2 Fe py        
    43     -0.356669   2 Fe px               45      0.355868   2 Fe pz        
   105     -0.354176   4 Fe px              107      0.354910   4 Fe pz        

 Vector  175  Occ=0.000000D+00  E= 4.297608D-01
              MO Center=  6.3D-04,  7.5D-01, -1.8D-03, r^2= 1.9D+01
   Bfn.  Coefficient  Atom+Function         Bfn.  Coefficient  Atom+Function  
  ----- ------------  ---------------      ----- ------------  ---------------
     4      1.206231   1 Fe s                66      1.207237   3 Fe s         
   217     -0.564148  10 C  s               311     -0.564354  20 C  s         
   208      0.492772   9 S  py              302      0.493057  19 S  py        
   207      0.467315   9 S  px              209      0.467826   9 S  pz        
   301     -0.468285  19 S  px              303     -0.467755  19 S  pz        

 Vector  176  Occ=0.000000D+00  E= 4.356552D-01
              MO Center=  3.0D-03,  4.8D-01, -1.4D-02, r^2= 9.3D+00
   Bfn.  Coefficient  Atom+Function         Bfn.  Coefficient  Atom+Function  
  ----- ------------  ---------------      ----- ------------  ---------------
    12      0.657368   1 Fe px               14     -0.656318   1 Fe pz        
    74     -0.657626   3 Fe px               76      0.658604   3 Fe pz        
    43     -0.429488   2 Fe px               45     -0.429910   2 Fe pz        
   105      0.428452   4 Fe px              107      0.428097   4 Fe pz        
   135      0.298057   5 S  px              137      0.298672   5 S  pz        

 Vector  177  Occ=0.000000D+00  E= 4.400948D-01
              MO Center= -1.2D-02,  9.5D-01,  9.1D-03, r^2= 8.9D+00
   Bfn.  Coefficient  Atom+Function         Bfn.  Coefficient  Atom+Function  
  ----- ------------  ---------------      ----- ------------  ---------------
    13      0.882755   1 Fe py               75     -0.882306   3 Fe py        
    14     -0.386973   1 Fe pz               74     -0.387084   3 Fe px        
    12     -0.384951   1 Fe px               76     -0.385107   3 Fe pz        
   154      0.347499   6 S  py              190     -0.347592   8 S  py        
    43      0.265564   2 Fe px              107      0.266590   4 Fe pz        

 Vector  178  Occ=0.000000D+00  E= 4.983764D-01
              MO Center=  1.9D-03, -1.6D+00, -1.7D-03, r^2= 1.8D+01
   Bfn.  Coefficient  Atom+Function         Bfn.  Coefficient  Atom+Function  
  ----- ------------  ---------------      ----- ------------  ---------------
    43      0.818290   2 Fe px               45     -0.818373   2 Fe pz        
   105      0.817844   4 Fe px              107     -0.817765   4 Fe pz        
   264     -0.789824  15 C  s               358      0.789235  25 C  s         
    44     -0.707086   2 Fe py              106      0.706484   4 Fe py        
   254      0.536577  14 S  px              255     -0.537646  14 S  py        

 Vector  179  Occ=0.000000D+00  E= 5.036873D-01
              MO Center= -6.2D-04,  1.2D-01,  2.0D-03, r^2= 2.1D+01
   Bfn.  Coefficient  Atom+Function         Bfn.  Coefficient  Atom+Function  
  ----- ------------  ---------------      ----- ------------  ---------------
    13      0.677275   1 Fe py               75      0.677106   3 Fe py        
    44      0.639805   2 Fe py              106      0.640549   4 Fe py        
   217     -0.579072  10 C  s               311     -0.578740  20 C  s         
   264      0.535130  15 C  s               358      0.536021  25 C  s         
    12      0.492163   1 Fe px               14      0.492093   1 Fe pz        

 Vector  180  Occ=0.000000D+00  E= 5.086364D-01
              MO Center= -9.6D-04,  1.7D+00, -6.1D-04, r^2= 1.8D+01
   Bfn.  Coefficient  Atom+Function         Bfn.  Coefficient  Atom+Function  
  ----- ------------  ---------------      ----- ------------  ---------------
    12      0.796146   1 Fe px               14      0.796102   1 Fe pz        
    74      0.796400   3 Fe px               76      0.796441   3 Fe pz        
   217     -0.778912  10 C  s               311      0.779200  20 C  s         
    13      0.623311   1 Fe py               75     -0.623616   3 Fe py        
   222      0.534134  10 C  py              316     -0.534317  20 C  py        

 Vector  181  Occ=0.000000D+00  E= 5.857677D-01
              MO Center= -2.3D-02, -2.3D+00, -6.1D-02, r^2= 2.6D+01
   Bfn.  Coefficient  Atom+Function         Bfn.  Coefficient  Atom+Function  
  ----- ------------  ---------------      ----- ------------  ---------------
   269      0.659551  15 C  py              363      0.657553  25 C  py        
   286      0.474192  18 H  s               370      0.472287  26 H  s         
   276     -0.418611  16 H  s               380     -0.415194  28 H  s         
   268      0.214792  15 C  px              270     -0.211901  15 C  pz        
   364      0.211213  25 C  pz              362     -0.209033  25 C  px        

 Vector  182  Occ=0.000000D+00  E= 5.866304D-01
              MO Center=  2.5D-02, -6.6D-01,  6.4D-02, r^2= 3.1D+01
   Bfn.  Coefficient  Atom+Function         Bfn.  Coefficient  Atom+Function  
  ----- ------------  ---------------      ----- ------------  ---------------
   281      0.433794  17 H  s               375     -0.433790  27 H  s         
   268      0.428471  15 C  px              364     -0.428656  25 C  pz        
   270      0.425180  15 C  pz              362     -0.424977  25 C  px        
   234     -0.349358  12 H  s               221      0.343736  10 C  px        
   223     -0.345362  10 C  pz              328      0.344992  22 H  s         

 Vector  183  Occ=0.000000D+00  E= 5.889832D-01
              MO Center=  4.3D-02, -1.5D+00,  6.1D-03, r^2= 2.9D+01
   Bfn.  Coefficient  Atom+Function         Bfn.  Coefficient  Atom+Function  
  ----- ------------  ---------------      ----- ------------  ---------------
   281      0.484515  17 H  s               375      0.482137  27 H  s         
   270      0.469979  15 C  pz              268      0.466786  15 C  px        
   362      0.468015  25 C  px              364      0.463921  25 C  pz        
   199      0.277659   9 S  s               293     -0.275004  19 S  s         
     5      0.255261   1 Fe s                67     -0.252698   3 Fe s         

 Vector  184  Occ=0.000000D+00  E= 5.893727D-01
              MO Center= -7.5D-02,  2.4D-01,  5.3D-03, r^2= 3.1D+01
   Bfn.  Coefficient  Atom+Function         Bfn.  Coefficient  Atom+Function  
  ----- ------------  ---------------      ----- ------------  ---------------
   328     -0.409706  22 H  s               234     -0.404761  12 H  s         
   315      0.399968  20 C  px              223     -0.395579  10 C  pz        
   317     -0.393085  20 C  pz              221      0.387862  10 C  px        
   380      0.334793  28 H  s               276     -0.331518  16 H  s         
   362      0.327990  25 C  px              364     -0.325547  25 C  pz        

 Vector  185  Occ=0.000000D+00  E= 5.898727D-01
              MO Center=  5.9D-02,  1.5D+00, -2.6D-02, r^2= 2.9D+01
   Bfn.  Coefficient  Atom+Function         Bfn.  Coefficient  Atom+Function  
  ----- ------------  ---------------      ----- ------------  ---------------
   222      0.496269  10 C  py              316      0.494017  20 C  py        
   239      0.427301  13 H  s               323      0.423120  21 H  s         
   229     -0.403236  11 H  s               333     -0.400739  23 H  s         
   363      0.330017  25 C  py              246     -0.323480  14 S  s         
   269      0.325040  15 C  py              221     -0.317267  10 C  px        

 Vector  186  Occ=0.000000D+00  E= 5.935162D-01
              MO Center= -8.7D-04,  5.7D-01, -5.2D-03, r^2= 2.8D+01
   Bfn.  Coefficient  Atom+Function         Bfn.  Coefficient  Atom+Function  
  ----- ------------  ---------------      ----- ------------  ---------------
   222      0.517150  10 C  py              316      0.517216  20 C  py        
     4     -0.469784   1 Fe s                66     -0.469442   3 Fe s         
   199      0.435498   9 S  s               293      0.436337  19 S  s         
     5      0.370583   1 Fe s                67      0.371263   3 Fe s         
    35     -0.360521   2 Fe s                97     -0.359758   4 Fe s         

 Vector  187  Occ=0.000000D+00  E= 5.987044D-01
              MO Center= -4.4D-02, -8.0D-01, -5.7D-03, r^2= 3.1D+01
   Bfn.  Coefficient  Atom+Function         Bfn.  Coefficient  Atom+Function  
  ----- ------------  ---------------      ----- ------------  ---------------
   269      0.531125  15 C  py              363     -0.531432  25 C  py        
   286      0.397728  18 H  s               370     -0.397780  26 H  s         
   276     -0.381472  16 H  s               380      0.381275  28 H  s         
   234      0.338743  12 H  s               328      0.335592  22 H  s         
   221     -0.333075  10 C  px              223      0.330862  10 C  pz        

 Vector  188  Occ=0.000000D+00  E= 5.998129D-01
              MO Center= -6.2D-02,  6.5D-01,  9.5D-02, r^2= 3.1D+01
   Bfn.  Coefficient  Atom+Function         Bfn.  Coefficient  Atom+Function  
  ----- ------------  ---------------      ----- ------------  ---------------
   223     -0.437800  10 C  pz              234     -0.437817  12 H  s         
   315     -0.439082  20 C  px              328      0.439028  22 H  s         
   221      0.424454  10 C  px              317      0.425670  20 C  pz        
   375      0.358551  27 H  s               362      0.352051  25 C  px        
   364      0.349493  25 C  pz              281     -0.344512  17 H  s         

 Vector  189  Occ=0.000000D+00  E= 6.004509D-01
              MO Center=  8.2D-02,  1.9D+00, -7.4D-02, r^2= 2.8D+01
   Bfn.  Coefficient  Atom+Function         Bfn.  Coefficient  Atom+Function  
  ----- ------------  ---------------      ----- ------------  ---------------
   222      0.559019  10 C  py              316     -0.559735  20 C  py        
   323     -0.441591  21 H  s               229     -0.438490  11 H  s         
   239      0.440346  13 H  s               333      0.439175  23 H  s         
   221     -0.314396  10 C  px              317     -0.315376  20 C  pz        
   223     -0.294497  10 C  pz              315     -0.295700  20 C  px        

 Vector  190  Occ=0.000000D+00  E= 6.343598D-01
              MO Center= -8.8D-03, -1.2D+00,  9.5D-04, r^2= 2.1D+01
   Bfn.  Coefficient  Atom+Function         Bfn.  Coefficient  Atom+Function  
  ----- ------------  ---------------      ----- ------------  ---------------
    36      0.911219   2 Fe s                98     -0.907704   4 Fe s         
    43     -0.541198   2 Fe px               45      0.540288   2 Fe pz        
   105     -0.538265   4 Fe px              107      0.539237   4 Fe pz        
   269     -0.457182  15 C  py              363      0.457093  25 C  py        
    44      0.367323   2 Fe py              106     -0.365435   4 Fe py        

 Vector  191  Occ=0.000000D+00  E= 6.372480D-01
              MO Center= -8.4D-04,  2.4D-01,  2.4D-03, r^2= 2.2D+01
   Bfn.  Coefficient  Atom+Function         Bfn.  Coefficient  Atom+Function  
  ----- ------------  ---------------      ----- ------------  ---------------
     5      0.686792   1 Fe s                67      0.681791   3 Fe s         
    98     -0.617768   4 Fe s                36     -0.612354   2 Fe s         
    13     -0.531046   1 Fe py               75     -0.527872   3 Fe py        
   106     -0.503336   4 Fe py               44     -0.499953   2 Fe py        
   221      0.322273  10 C  px              223      0.321963  10 C  pz        

 Vector  192  Occ=0.000000D+00  E= 6.402526D-01
              MO Center=  4.7D-03,  1.2D+00, -2.2D-03, r^2= 2.0D+01
   Bfn.  Coefficient  Atom+Function         Bfn.  Coefficient  Atom+Function  
  ----- ------------  ---------------      ----- ------------  ---------------
     5      0.925669   1 Fe s                67     -0.929217   3 Fe s         
    74     -0.548135   3 Fe px               12     -0.545301   1 Fe px        
    14     -0.546098   1 Fe pz               76     -0.547269   3 Fe pz        
   222      0.433215  10 C  py              316     -0.434071  20 C  py        
   216      0.356607  10 C  s               310     -0.358010  20 C  s         

 Vector  193  Occ=0.000000D+00  E= 6.907888D-01
              MO Center=  1.8D-02, -1.8D+00, -2.2D-04, r^2= 1.6D+01
   Bfn.  Coefficient  Atom+Function         Bfn.  Coefficient  Atom+Function  
  ----- ------------  ---------------      ----- ------------  ---------------
   247      1.671694  14 S  s               341      1.659762  24 S  s         
   246     -1.154618  14 S  s               340     -1.145513  24 S  s         
   146     -0.976269   6 S  s               182     -0.961349   8 S  s         
   145      0.806034   6 S  s               181      0.794258   8 S  s         
   264     -0.500444  15 C  s               358     -0.497287  25 C  s         

 Vector  194  Occ=0.000000D+00  E= 6.919064D-01
              MO Center= -3.1D-03, -2.7D-02, -7.9D-03, r^2= 1.4D+01
   Bfn.  Coefficient  Atom+Function         Bfn.  Coefficient  Atom+Function  
  ----- ------------  ---------------      ----- ------------  ---------------
   182     -1.509103   8 S  s               146      1.495532   6 S  s         
   200     -1.209222   9 S  s               294      1.208267  19 S  s         
   181      1.175134   8 S  s               145     -1.164325   6 S  s         
   199      0.849235   9 S  s               293     -0.847444  19 S  s         
   217      0.396953  10 C  s               311     -0.397175  20 C  s         

 Vector  195  Occ=0.000000D+00  E= 6.928275D-01
              MO Center= -1.4D-02, -1.7D-01,  9.0D-03, r^2= 1.5D+01
   Bfn.  Coefficient  Atom+Function         Bfn.  Coefficient  Atom+Function  
  ----- ------------  ---------------      ----- ------------  ---------------
   128      1.441185   5 S  s               164     -1.446203   7 S  s         
   341     -1.336700  24 S  s               247      1.321034  14 S  s         
   127     -1.110468   5 S  s               163      1.113819   7 S  s         
   340      0.928528  24 S  s               246     -0.916819  14 S  s         
   358      0.412283  25 C  s               264     -0.408031  15 C  s         

 Vector  196  Occ=0.000000D+00  E= 6.941788D-01
              MO Center= -2.5D-05,  1.8D+00, -6.6D-04, r^2= 1.5D+01
   Bfn.  Coefficient  Atom+Function         Bfn.  Coefficient  Atom+Function  
  ----- ------------  ---------------      ----- ------------  ---------------
   200      1.603529   9 S  s               294      1.604817  19 S  s         
   199     -1.112192   9 S  s               293     -1.114346  19 S  s         
   128     -1.004255   5 S  s               164     -1.004372   7 S  s         
   127      0.828796   5 S  s               163      0.828830   7 S  s         
   146      0.532485   6 S  s               182      0.521848   8 S  s         

 Vector  197  Occ=0.000000D+00  E= 7.475742D-01
              MO Center=  1.2D-02, -1.1D+00, -5.2D-03, r^2= 1.7D+01
   Bfn.  Coefficient  Atom+Function         Bfn.  Coefficient  Atom+Function  
  ----- ------------  ---------------      ----- ------------  ---------------
   247      1.894762  14 S  s               341     -1.886350  24 S  s         
   128     -1.262776   5 S  s               164      1.265271   7 S  s         
   246     -1.180311  14 S  s               340      1.174239  24 S  s         
    36     -1.089277   2 Fe s                98      1.082913   4 Fe s         
   127      0.942157   5 S  s               163     -0.945183   7 S  s         

 Vector  198  Occ=0.000000D+00  E= 7.484202D-01
              MO Center= -7.0D-03, -4.3D-02,  2.2D-04, r^2= 1.9D+01
   Bfn.  Coefficient  Atom+Function         Bfn.  Coefficient  Atom+Function  
  ----- ------------  ---------------      ----- ------------  ---------------
   294      1.377279  19 S  s               200      1.366240   9 S  s         
   341     -1.343487  24 S  s               247     -1.335692  14 S  s         
   146     -0.888685   6 S  s               182     -0.871255   8 S  s         
   293     -0.861800  19 S  s               199     -0.855484   9 S  s         
   340      0.836073  24 S  s               246      0.830408  14 S  s         

 Vector  199  Occ=0.000000D+00  E= 7.499744D-01
              MO Center= -2.0D-03,  1.3D+00,  6.3D-03, r^2= 1.8D+01
   Bfn.  Coefficient  Atom+Function         Bfn.  Coefficient  Atom+Function  
  ----- ------------  ---------------      ----- ------------  ---------------
   200      1.966702   9 S  s               294     -1.954502  19 S  s         
   199     -1.230103   9 S  s               293      1.222290  19 S  s         
   182     -1.168593   8 S  s               146      1.152641   6 S  s         
     5     -1.107077   1 Fe s                67      1.098110   3 Fe s         
   181      0.875971   8 S  s               145     -0.862190   6 S  s         

 Vector  200  Occ=0.000000D+00  E= 7.621099D-01
              MO Center= -1.6D-02, -7.7D-01, -5.0D-02, r^2= 1.3D+01
   Bfn.  Coefficient  Atom+Function         Bfn.  Coefficient  Atom+Function  
  ----- ------------  ---------------      ----- ------------  ---------------
   282      0.310491  17 H  s               376     -0.310557  27 H  s         
   152     -0.229677   6 S  pz              150      0.224477   6 S  px        
   188      0.225123   8 S  pz              186     -0.219281   8 S  px        
   155      0.214756   6 S  pz              191     -0.213740   8 S  pz        
   153     -0.209278   6 S  px              189      0.209825   8 S  px        

 Vector  201  Occ=0.000000D+00  E= 7.626571D-01
              MO Center=  4.4D-03, -7.2D-02,  5.2D-02, r^2= 1.3D+01
   Bfn.  Coefficient  Atom+Function         Bfn.  Coefficient  Atom+Function  
  ----- ------------  ---------------      ----- ------------  ---------------
   371     -0.275633  26 H  s               324      0.262831  21 H  s         
   287     -0.260864  18 H  s               240      0.255848  13 H  s         
   169      0.231141   7 S  py              133      0.221504   5 S  py        
   136     -0.220838   5 S  py              172     -0.220885   7 S  py        
   277      0.221877  16 H  s               381      0.211536  28 H  s         

 Vector  202  Occ=0.000000D+00  E= 7.712819D-01
              MO Center=  7.8D-04, -3.2D-01, -1.2D-02, r^2= 6.3D+00
   Bfn.  Coefficient  Atom+Function         Bfn.  Coefficient  Atom+Function  
  ----- ------------  ---------------      ----- ------------  ---------------
   194      0.333237   8 S  d  0            158      0.328473   6 S  d  0      
   189      0.222024   8 S  px              191     -0.221199   8 S  pz        
   153     -0.214820   6 S  px              155      0.215880   6 S  pz        
   139     -0.194767   5 S  d -1            174      0.194521   7 S  d -2      
   196     -0.193802   8 S  d  2            138     -0.191967   5 S  d -2      

 Vector  203  Occ=0.000000D+00  E= 7.729991D-01
              MO Center= -1.1D-02,  4.1D-02,  1.2D-02, r^2= 5.8D+00
   Bfn.  Coefficient  Atom+Function         Bfn.  Coefficient  Atom+Function  
  ----- ------------  ---------------      ----- ------------  ---------------
   142      0.276494   5 S  d  2            160      0.269143   6 S  d  2      
   178      0.266969   7 S  d  2            196      0.263971   8 S  d  2      
   136     -0.217658   5 S  py              172     -0.208035   7 S  py        
   154      0.193860   6 S  py              190      0.192244   8 S  py        
   177     -0.186099   7 S  d  1            182     -0.182735   8 S  s         

 Vector  204  Occ=0.000000D+00  E= 7.773894D-01
              MO Center=  7.5D-02, -3.9D-01,  1.9D-02, r^2= 1.2D+01
   Bfn.  Coefficient  Atom+Function         Bfn.  Coefficient  Atom+Function  
  ----- ------------  ---------------      ----- ------------  ---------------
   277      0.482309  16 H  s               381     -0.472977  28 H  s         
   264     -0.396166  15 C  s               358      0.383275  25 C  s         
   172     -0.278165   7 S  py              136      0.266823   5 S  py        
   178      0.248966   7 S  d  2            142     -0.238255   5 S  d  2      
   169      0.227602   7 S  py              133     -0.217981   5 S  py        

 Vector  205  Occ=0.000000D+00  E= 7.811197D-01
              MO Center= -6.8D-02, -1.0D-01, -1.2D-02, r^2= 1.4D+01
   Bfn.  Coefficient  Atom+Function         Bfn.  Coefficient  Atom+Function  
  ----- ------------  ---------------      ----- ------------  ---------------
   217      0.622380  10 C  s               311     -0.613329  20 C  s         
   230     -0.510801  11 H  s               334      0.509532  23 H  s         
   222      0.312211  10 C  py              316     -0.308878  20 C  py        
   196     -0.290240   8 S  d  2            376      0.290327  27 H  s         
   160      0.285673   6 S  d  2            282      0.284895  17 H  s         

 Vector  206  Occ=0.000000D+00  E= 7.843300D-01
              MO Center=  3.8D-02,  1.2D+00, -1.5D-02, r^2= 1.2D+01
   Bfn.  Coefficient  Atom+Function         Bfn.  Coefficient  Atom+Function  
  ----- ------------  ---------------      ----- ------------  ---------------
   235      0.491316  12 H  s               329     -0.478710  22 H  s         
   140     -0.311526   5 S  d  0            176     -0.306353   7 S  d  0      
   221     -0.305207  10 C  px              317     -0.294335  20 C  pz        
   223      0.286183  10 C  pz              135     -0.278675   5 S  px        
   230     -0.278346  11 H  s               315      0.279116  20 C  px        

 Vector  207  Occ=0.000000D+00  E= 7.860346D-01
              MO Center=  4.3D-01, -1.2D+00, -3.1D-01, r^2= 3.3D+01
   Bfn.  Coefficient  Atom+Function         Bfn.  Coefficient  Atom+Function  
  ----- ------------  ---------------      ----- ------------  ---------------
   264      2.532856  15 C  s               358      2.114732  25 C  s         
   217     -1.511784  10 C  s               311     -1.382574  20 C  s         
   263     -0.989949  15 C  s               287     -0.868008  18 H  s         
   282     -0.851725  17 H  s               357     -0.827543  25 C  s         
   277     -0.799475  16 H  s               371     -0.722659  26 H  s         

 Vector  208  Occ=0.000000D+00  E= 7.863230D-01
              MO Center= -3.8D-01, -2.8D+00,  3.7D-01, r^2= 2.8D+01
   Bfn.  Coefficient  Atom+Function         Bfn.  Coefficient  Atom+Function  
  ----- ------------  ---------------      ----- ------------  ---------------
   358      2.950828  25 C  s               264     -2.580392  15 C  s         
   357     -1.151352  25 C  s               371     -1.027296  26 H  s         
   263      1.007482  15 C  s               376     -0.970106  27 H  s         
   381     -0.936722  28 H  s               287      0.903428  18 H  s         
   282      0.847435  17 H  s               277      0.812474  16 H  s         

 Vector  209  Occ=0.000000D+00  E= 7.868172D-01
              MO Center= -1.2D-01,  2.7D+00, -8.1D-02, r^2= 2.6D+01
   Bfn.  Coefficient  Atom+Function         Bfn.  Coefficient  Atom+Function  
  ----- ------------  ---------------      ----- ------------  ---------------
   311     -2.713504  20 C  s               217      2.603082  10 C  s         
   324      1.076526  21 H  s               310      1.065670  20 C  s         
   240     -1.049238  13 H  s               216     -1.022446  10 C  s         
   329      0.876715  22 H  s               235     -0.838800  12 H  s         
   334      0.736700  23 H  s               230     -0.692187  11 H  s         

 Vector  210  Occ=0.000000D+00  E= 7.884505D-01
              MO Center=  5.9D-02,  1.3D+00,  2.0D-02, r^2= 3.9D+01
   Bfn.  Coefficient  Atom+Function         Bfn.  Coefficient  Atom+Function  
  ----- ------------  ---------------      ----- ------------  ---------------
   217      2.470810  10 C  s               311      2.425705  20 C  s         
   264      1.700051  15 C  s               358      1.667524  25 C  s         
   216     -0.941202  10 C  s               310     -0.923686  20 C  s         
   230     -0.856627  11 H  s               334     -0.850555  23 H  s         
   235     -0.833058  12 H  s               329     -0.818548  22 H  s         

 Vector  211  Occ=0.000000D+00  E= 7.997549D-01
              MO Center= -1.2D-01, -1.4D+00,  9.8D-03, r^2= 3.4D+01
   Bfn.  Coefficient  Atom+Function         Bfn.  Coefficient  Atom+Function  
  ----- ------------  ---------------      ----- ------------  ---------------
   376      1.069772  27 H  s               282      1.026392  17 H  s         
   270      0.740391  15 C  pz              311      0.729685  20 C  s         
   362      0.728306  25 C  px              334     -0.718119  23 H  s         
   364      0.677232  25 C  pz              230      0.661850  11 H  s         
   268      0.657686  15 C  px              287     -0.562089  18 H  s         

 Vector  212  Occ=0.000000D+00  E= 8.002552D-01
              MO Center= -1.3D-01, -3.6D-01, -1.1D-02, r^2= 3.5D+01
   Bfn.  Coefficient  Atom+Function         Bfn.  Coefficient  Atom+Function  
  ----- ------------  ---------------      ----- ------------  ---------------
   277      0.932538  16 H  s               381      0.912105  28 H  s         
   324     -0.845497  21 H  s               240     -0.794259  13 H  s         
   269     -0.651334  15 C  py              217      0.612428  10 C  s         
   316     -0.610503  20 C  py              363     -0.596981  25 C  py        
   287     -0.592493  18 H  s               334      0.586578  23 H  s         

 Vector  213  Occ=0.000000D+00  E= 8.007806D-01
              MO Center=  2.7D-01,  7.6D-01, -8.5D-02, r^2= 3.5D+01
   Bfn.  Coefficient  Atom+Function         Bfn.  Coefficient  Atom+Function  
  ----- ------------  ---------------      ----- ------------  ---------------
   329      0.975459  22 H  s               235      0.953808  12 H  s         
   371      0.813939  26 H  s               287     -0.777542  18 H  s         
   221     -0.681970  10 C  px              269     -0.652447  15 C  py        
   317      0.644934  20 C  pz              315     -0.628914  20 C  px        
   363      0.616867  25 C  py              223      0.612863  10 C  pz        

 Vector  214  Occ=0.000000D+00  E= 8.044595D-01
              MO Center= -9.2D-02, -2.2D+00,  2.9D-02, r^2= 2.7D+01
   Bfn.  Coefficient  Atom+Function         Bfn.  Coefficient  Atom+Function  
  ----- ------------  ---------------      ----- ------------  ---------------
   381      1.112645  28 H  s               277     -1.052692  16 H  s         
   268      0.957229  15 C  px              364     -0.957520  25 C  pz        
   282      0.788930  17 H  s               376     -0.764474  27 H  s         
   363     -0.509709  25 C  py              265     -0.501244  15 C  px        
   361      0.500883  25 C  pz              269      0.401730  15 C  py        

 Vector  215  Occ=0.000000D+00  E= 8.050904D-01
              MO Center=  4.5D-02, -1.8D+00, -3.5D-01, r^2= 2.9D+01
   Bfn.  Coefficient  Atom+Function         Bfn.  Coefficient  Atom+Function  
  ----- ------------  ---------------      ----- ------------  ---------------
   270      0.915954  15 C  pz              282      0.891399  17 H  s         
   287     -0.889653  18 H  s               371      0.872917  26 H  s         
   362     -0.817277  25 C  px              376     -0.766702  27 H  s         
   329     -0.622340  22 H  s               363      0.548613  25 C  py        
   269     -0.530703  15 C  py              267     -0.478407  15 C  pz        

 Vector  216  Occ=0.000000D+00  E= 8.064008D-01
              MO Center=  1.3D+00,  8.7D-01,  1.9D+00, r^2= 2.5D+01
   Bfn.  Coefficient  Atom+Function         Bfn.  Coefficient  Atom+Function  
  ----- ------------  ---------------      ----- ------------  ---------------
   230     -1.174201  11 H  s               222      1.106677  10 C  py        
   240      1.000729  13 H  s               371     -0.692396  26 H  s         
   219     -0.576561  10 C  py              362      0.541754  25 C  px        
   287     -0.521459  18 H  s               376      0.512743  27 H  s         
   311     -0.503705  20 C  s               223     -0.471209  10 C  pz        

 Vector  217  Occ=0.000000D+00  E= 8.067226D-01
              MO Center= -1.5D+00,  2.8D-01, -1.4D+00, r^2= 2.7D+01
   Bfn.  Coefficient  Atom+Function         Bfn.  Coefficient  Atom+Function  
  ----- ------------  ---------------      ----- ------------  ---------------
   324      1.065216  21 H  s               334     -0.968446  23 H  s         
   316      0.932913  20 C  py              277      0.690705  16 H  s         
   363     -0.657846  25 C  py              269     -0.645400  15 C  py        
   371     -0.607637  26 H  s               287     -0.592019  18 H  s         
   317      0.585371  20 C  pz              381      0.560919  28 H  s         

 Vector  218  Occ=0.000000D+00  E= 8.085996D-01
              MO Center=  2.7D-01,  2.8D+00, -4.5D-03, r^2= 2.3D+01
   Bfn.  Coefficient  Atom+Function         Bfn.  Coefficient  Atom+Function  
  ----- ------------  ---------------      ----- ------------  ---------------
   235      1.074272  12 H  s               329     -1.013132  22 H  s         
   223      0.886156  10 C  pz              315      0.863528  20 C  px        
   221     -0.767838  10 C  px              317     -0.706066  20 C  pz        
   324      0.673370  21 H  s               240     -0.661841  13 H  s         
   230     -0.588882  11 H  s               334      0.524684  23 H  s         

 Vector  219  Occ=0.000000D+00  E= 8.108476D-01
              MO Center= -1.4D-01,  4.7D-01, -1.7D-01, r^2= 1.7D+01
   Bfn.  Coefficient  Atom+Function         Bfn.  Coefficient  Atom+Function  
  ----- ------------  ---------------      ----- ------------  ---------------
   217      0.859643  10 C  s               334     -0.827454  23 H  s         
   264     -0.743452  15 C  s               230     -0.705325  11 H  s         
   311      0.695405  20 C  s               358     -0.612830  25 C  s         
   316      0.587028  20 C  py                5      0.556427   1 Fe s         
    36     -0.515351   2 Fe s               222      0.462411  10 C  py        

 Vector  220  Occ=0.000000D+00  E= 8.120100D-01
              MO Center=  2.4D-02,  6.3D-01,  1.1D-01, r^2= 1.6D+01
   Bfn.  Coefficient  Atom+Function         Bfn.  Coefficient  Atom+Function  
  ----- ------------  ---------------      ----- ------------  ---------------
   311     -0.943126  20 C  s               217      0.900406  10 C  s         
   235     -0.711693  12 H  s               324      0.686955  21 H  s         
    67     -0.638694   3 Fe s                 5      0.599363   1 Fe s         
   221      0.565583  10 C  px              264      0.510835  15 C  s         
   358     -0.472741  25 C  s                36      0.391365   2 Fe s         

 Vector  221  Occ=0.000000D+00  E= 8.122012D-01
              MO Center=  5.1D-02,  3.5D-01, -6.2D-03, r^2= 1.7D+01
   Bfn.  Coefficient  Atom+Function         Bfn.  Coefficient  Atom+Function  
  ----- ------------  ---------------      ----- ------------  ---------------
   358      0.826298  25 C  s               264     -0.740564  15 C  s         
   240     -0.665253  13 H  s               329      0.665307  22 H  s         
    98      0.631187   4 Fe s               311     -0.602804  20 C  s         
    36     -0.572254   2 Fe s               217      0.500458  10 C  s         
   282      0.489031  17 H  s               381     -0.434520  28 H  s         

 Vector  222  Occ=0.000000D+00  E= 8.591192D-01
              MO Center= -3.9D-04,  4.5D-04,  2.2D-04, r^2= 1.3D+01
   Bfn.  Coefficient  Atom+Function         Bfn.  Coefficient  Atom+Function  
  ----- ------------  ---------------      ----- ------------  ---------------
   128      1.448729   5 S  s               164      1.451443   7 S  s         
   146      1.429203   6 S  s               182      1.423103   8 S  s         
   127     -0.975713   5 S  s               163     -0.977398   7 S  s         
   145     -0.963220   6 S  s               181     -0.959514   8 S  s         
   200      0.603223   9 S  s               294      0.603285  19 S  s         

 Vector  223  Occ=0.000000D+00  E= 8.636452D-01
              MO Center=  1.1D-01, -1.8D+00, -5.3D-03, r^2= 1.1D+01
   Bfn.  Coefficient  Atom+Function         Bfn.  Coefficient  Atom+Function  
  ----- ------------  ---------------      ----- ------------  ---------------
   146      0.430197   6 S  s               159      0.427327   6 S  d  1      
   182     -0.420611   8 S  s               195     -0.402640   8 S  d  1      
   259     -0.355371  14 S  d  0            145     -0.276744   6 S  s         
   181      0.262590   8 S  s               355     -0.257933  24 S  d  2      
   258     -0.242513  14 S  d -1            351     -0.232500  24 S  d -2      

 Vector  224  Occ=0.000000D+00  E= 8.649756D-01
              MO Center= -1.9D-01, -9.4D-01,  9.2D-02, r^2= 1.1D+01
   Bfn.  Coefficient  Atom+Function         Bfn.  Coefficient  Atom+Function  
  ----- ------------  ---------------      ----- ------------  ---------------
   128      0.343747   5 S  s               193      0.285196   8 S  d -1      
   261     -0.281181  14 S  d  2            164     -0.279059   7 S  s         
   156     -0.276633   6 S  d -2            192     -0.270315   8 S  d -2      
   157      0.255684   6 S  d -1            353      0.244113  24 S  d  0      
   127     -0.217250   5 S  s               138      0.216097   5 S  d -2      

 Vector  225  Occ=0.000000D+00  E= 8.666414D-01
              MO Center=  9.4D-02, -1.0D-01, -1.2D-01, r^2= 1.5D+01
   Bfn.  Coefficient  Atom+Function         Bfn.  Coefficient  Atom+Function  
  ----- ------------  ---------------      ----- ------------  ---------------
   164      0.375181   7 S  s               182     -0.310721   8 S  s         
   261      0.287202  14 S  d  2            128      0.285611   5 S  s         
   146     -0.281255   6 S  s               138      0.263211   5 S  d -2      
   174     -0.260337   7 S  d -2            192      0.255976   8 S  d -2      
   163     -0.242027   7 S  s               308     -0.242530  19 S  d  2      

 Vector  226  Occ=0.000000D+00  E= 8.669923D-01
              MO Center=  9.7D-02, -1.5D-01, -6.1D-03, r^2= 1.1D+01
   Bfn.  Coefficient  Atom+Function         Bfn.  Coefficient  Atom+Function  
  ----- ------------  ---------------      ----- ------------  ---------------
   157      0.349130   6 S  d -1            175     -0.347437   7 S  d -1      
   193     -0.317114   8 S  d -1            139      0.300290   5 S  d -1      
   192      0.241916   8 S  d -2            156     -0.219834   6 S  d -2      
   174     -0.218814   7 S  d -2            259     -0.197927  14 S  d  0      
   138      0.192834   5 S  d -2            353     -0.183584  24 S  d  0      

 Vector  227  Occ=0.000000D+00  E= 8.687532D-01
              MO Center= -9.6D-02,  8.0D-01, -3.7D-02, r^2= 1.1D+01
   Bfn.  Coefficient  Atom+Function         Bfn.  Coefficient  Atom+Function  
  ----- ------------  ---------------      ----- ------------  ---------------
   139      0.279814   5 S  d -1            308      0.277739  19 S  d  2      
   138      0.265190   5 S  d -2            195     -0.253900   8 S  d  1      
   174      0.251190   7 S  d -2            159      0.246184   6 S  d  1      
   175      0.241915   7 S  d -1            193     -0.242414   8 S  d -1      
   182      0.236804   8 S  s               146     -0.223130   6 S  s         

 Vector  228  Occ=0.000000D+00  E= 8.709368D-01
              MO Center= -3.0D-02,  1.8D+00,  7.7D-02, r^2= 9.7D+00
   Bfn.  Coefficient  Atom+Function         Bfn.  Coefficient  Atom+Function  
  ----- ------------  ---------------      ----- ------------  ---------------
   141      0.462155   5 S  d  1            177     -0.447824   7 S  d  1      
   128     -0.388233   5 S  s               164      0.322462   7 S  s         
   306      0.323995  19 S  d  0            214      0.252411   9 S  d  2      
   127      0.248020   5 S  s               212     -0.225682   9 S  d  0      
   210      0.222901   9 S  d -2            223      0.221993  10 C  pz        

 Vector  229  Occ=0.000000D+00  E= 8.905427D-01
              MO Center= -1.4D-02, -1.5D+00, -2.5D-02, r^2= 1.5D+01
   Bfn.  Coefficient  Atom+Function         Bfn.  Coefficient  Atom+Function  
  ----- ------------  ---------------      ----- ------------  ---------------
   354      0.388242  24 S  d  1            258      0.348318  14 S  d -1      
   376      0.339411  27 H  s               260     -0.331421  14 S  d  1      
   282     -0.315851  17 H  s               355     -0.313308  24 S  d  2      
   287      0.276905  18 H  s               261      0.250884  14 S  d  2      
   351     -0.239735  24 S  d -2            259      0.193727  14 S  d  0      

 Vector  230  Occ=0.000000D+00  E= 8.924688D-01
              MO Center=  4.8D-02, -9.5D-01,  3.0D-02, r^2= 1.7D+01
   Bfn.  Coefficient  Atom+Function         Bfn.  Coefficient  Atom+Function  
  ----- ------------  ---------------      ----- ------------  ---------------
   257      0.353077  14 S  d -2            352      0.338152  24 S  d -1      
   277     -0.320949  16 H  s               351      0.291283  24 S  d -2      
   371      0.285503  26 H  s               353      0.282644  24 S  d  0      
   381     -0.271607  28 H  s               259     -0.252252  14 S  d  0      
   260      0.233482  14 S  d  1            308      0.226579  19 S  d  2      

 Vector  231  Occ=0.000000D+00  E= 8.954968D-01
              MO Center=  1.2D-01, -2.0D+00, -7.5D-02, r^2= 1.3D+01
   Bfn.  Coefficient  Atom+Function         Bfn.  Coefficient  Atom+Function  
  ----- ------------  ---------------      ----- ------------  ---------------
   277     -0.424227  16 H  s               257      0.407814  14 S  d -2      
   381      0.407211  28 H  s               352     -0.394159  24 S  d -1      
   287      0.353987  18 H  s               371     -0.334300  26 H  s         
   258      0.329619  14 S  d -1            269      0.326457  15 C  py        
   259     -0.315449  14 S  d  0            363     -0.308870  25 C  py        

 Vector  232  Occ=0.000000D+00  E= 8.967224D-01
              MO Center=  2.3D-03, -4.8D-02,  1.5D-03, r^2= 1.1D+01
   Bfn.  Coefficient  Atom+Function         Bfn.  Coefficient  Atom+Function  
  ----- ------------  ---------------      ----- ------------  ---------------
   264      0.674754  15 C  s               358      0.673466  25 C  s         
   217      0.536416  10 C  s               311      0.536427  20 C  s         
   146     -0.496272   6 S  s               182     -0.495238   8 S  s         
   128     -0.488812   5 S  s               164     -0.486428   7 S  s         
   247     -0.370582  14 S  s               341     -0.371758  24 S  s         

 Vector  233  Occ=0.000000D+00  E= 8.985847D-01
              MO Center= -2.3D-01, -2.0D+00,  9.3D-02, r^2= 1.4D+01
   Bfn.  Coefficient  Atom+Function         Bfn.  Coefficient  Atom+Function  
  ----- ------------  ---------------      ----- ------------  ---------------
   376      0.459680  27 H  s               282      0.429232  17 H  s         
   354      0.411386  24 S  d  1            260      0.386388  14 S  d  1      
   362      0.358702  25 C  px              261     -0.333551  14 S  d  2      
   270      0.331261  15 C  pz              371     -0.311461  26 H  s         
   353     -0.287765  24 S  d  0            364      0.282083  25 C  pz        

 Vector  234  Occ=0.000000D+00  E= 9.025928D-01
              MO Center=  2.0D-01,  1.2D+00, -4.6D-02, r^2= 1.6D+01
   Bfn.  Coefficient  Atom+Function         Bfn.  Coefficient  Atom+Function  
  ----- ------------  ---------------      ----- ------------  ---------------
   210      0.352627   9 S  d -2            307     -0.343079  19 S  d  1      
   213      0.306668   9 S  d  1            214      0.289852   9 S  d  2      
   306     -0.273792  19 S  d  0            305      0.272303  19 S  d -1      
   329      0.264032  22 H  s               235     -0.258370  12 H  s         
   282     -0.240030  17 H  s               261      0.238561  14 S  d  2      

 Vector  235  Occ=0.000000D+00  E= 9.064961D-01
              MO Center= -2.6D-01,  7.4D-02, -4.0D-02, r^2= 1.8D+01
   Bfn.  Coefficient  Atom+Function         Bfn.  Coefficient  Atom+Function  
  ----- ------------  ---------------      ----- ------------  ---------------
   355     -0.336076  24 S  d  2            363      0.337696  25 C  py        
   269      0.329252  15 C  py              304     -0.312859  19 S  d -2      
   381     -0.307761  28 H  s               259     -0.285795  14 S  d  0      
   211      0.268832   9 S  d -1            277     -0.254914  16 H  s         
   287      0.253373  18 H  s               305      0.246136  19 S  d -1      

 Vector  236  Occ=0.000000D+00  E= 9.082317D-01
              MO Center=  1.8D-01,  1.9D+00,  1.6D-01, r^2= 1.4D+01
   Bfn.  Coefficient  Atom+Function         Bfn.  Coefficient  Atom+Function  
  ----- ------------  ---------------      ----- ------------  ---------------
   211      0.421187   9 S  d -1            304      0.390014  19 S  d -2      
   240      0.380984  13 H  s               324     -0.350622  21 H  s         
   210     -0.304669   9 S  d -2            230     -0.302755  11 H  s         
   306     -0.299946  19 S  d  0            212     -0.290194   9 S  d  0      
   334      0.279889  23 H  s               305     -0.274118  19 S  d -1      

 Vector  237  Occ=0.000000D+00  E= 9.114692D-01
              MO Center= -2.3D-02,  2.1D+00, -1.4D-01, r^2= 1.3D+01
   Bfn.  Coefficient  Atom+Function         Bfn.  Coefficient  Atom+Function  
  ----- ------------  ---------------      ----- ------------  ---------------
   307      0.412288  19 S  d  1            329     -0.407499  22 H  s         
   213      0.401182   9 S  d  1            235     -0.394202  12 H  s         
   308      0.369429  19 S  d  2            317     -0.307320  20 C  pz        
   221      0.298311  10 C  px              305     -0.277032  19 S  d -1      
   334      0.271711  23 H  s               210      0.263249   9 S  d -2      

 Vector  238  Occ=0.000000D+00  E= 9.180947D-01
              MO Center= -1.0D-02, -4.8D-02,  1.4D-01, r^2= 1.8D+01
   Bfn.  Coefficient  Atom+Function         Bfn.  Coefficient  Atom+Function  
  ----- ------------  ---------------      ----- ------------  ---------------
   353      0.355371  24 S  d  0            270      0.306590  15 C  pz        
   317      0.307421  20 C  pz              364     -0.306700  25 C  pz        
   223     -0.298728  10 C  pz              212      0.279604   9 S  d  0      
   235     -0.275703  12 H  s               362     -0.264385  25 C  px        
   307     -0.249885  19 S  d  1            221      0.247340  10 C  px        

 Vector  239  Occ=0.000000D+00  E= 9.196206D-01
              MO Center=  1.6D-02,  7.6D-01, -9.5D-02, r^2= 1.8D+01
   Bfn.  Coefficient  Atom+Function         Bfn.  Coefficient  Atom+Function  
  ----- ------------  ---------------      ----- ------------  ---------------
   222      0.379625  10 C  py              316      0.368668  20 C  py        
   214      0.340666   9 S  d  2            306      0.338474  19 S  d  0      
   324      0.325599  21 H  s               210     -0.301285   9 S  d -2      
   305      0.273750  19 S  d -1            240      0.272229  13 H  s         
   230     -0.270374  11 H  s               315      0.259439  20 C  px        

 Vector  240  Occ=0.000000D+00  E= 9.318688D-01
              MO Center=  7.7D-03, -1.4D+00, -1.4D-02, r^2= 1.5D+01
   Bfn.  Coefficient  Atom+Function         Bfn.  Coefficient  Atom+Function  
  ----- ------------  ---------------      ----- ------------  ---------------
   264      2.222145  15 C  s               358     -2.180143  25 C  s         
   247     -0.836426  14 S  s               341      0.821460  24 S  s         
   263     -0.752379  15 C  s               357      0.738196  25 C  s         
   277     -0.417671  16 H  s               381      0.414955  28 H  s         
   133      0.365156   5 S  py              169     -0.361675   7 S  py        

 Vector  241  Occ=0.000000D+00  E= 9.343517D-01
              MO Center= -1.3D-01, -2.2D-01,  1.6D-01, r^2= 1.9D+01
   Bfn.  Coefficient  Atom+Function         Bfn.  Coefficient  Atom+Function  
  ----- ------------  ---------------      ----- ------------  ---------------
   358      2.114769  25 C  s               264      1.744203  15 C  s         
   217     -1.590114  10 C  s               311     -1.547484  20 C  s         
   341     -0.762150  24 S  s               357     -0.708662  25 C  s         
   247     -0.631140  14 S  s               200      0.615494   9 S  s         
   294      0.600433  19 S  s               263     -0.584822  15 C  s         

 Vector  242  Occ=0.000000D+00  E= 9.345521D-01
              MO Center=  6.7D-03, -1.1D+00, -1.1D-01, r^2= 1.8D+01
   Bfn.  Coefficient  Atom+Function         Bfn.  Coefficient  Atom+Function  
  ----- ------------  ---------------      ----- ------------  ---------------
   264      1.302386  15 C  s               358     -0.652363  25 C  s         
   247     -0.472915  14 S  s               263     -0.434932  15 C  s         
   255      0.395097  14 S  py              349     -0.374352  24 S  py        
   355     -0.321602  24 S  d  2            346      0.305135  24 S  py        
   287     -0.281679  18 H  s               311     -0.278186  20 C  s         

 Vector  243  Occ=0.000000D+00  E= 9.355106D-01
              MO Center=  6.9D-02,  1.2D+00, -8.5D-02, r^2= 1.6D+01
   Bfn.  Coefficient  Atom+Function         Bfn.  Coefficient  Atom+Function  
  ----- ------------  ---------------      ----- ------------  ---------------
   311     -2.222614  20 C  s               217      2.177139  10 C  s         
   294      0.830761  19 S  s               200     -0.817730   9 S  s         
   310      0.748718  20 C  s               216     -0.733524  10 C  s         
   208     -0.372390   9 S  py              302      0.372690  19 S  py        
   334      0.353748  23 H  s               230     -0.348214  11 H  s         

 Vector  244  Occ=0.000000D+00  E= 9.360658D-01
              MO Center=  1.3D-01,  5.8D-01, -1.4D-01, r^2= 1.8D+01
   Bfn.  Coefficient  Atom+Function         Bfn.  Coefficient  Atom+Function  
  ----- ------------  ---------------      ----- ------------  ---------------
   217      0.483121  10 C  s               311     -0.452154  20 C  s         
   212      0.333192   9 S  d  0            223     -0.280807  10 C  pz        
   315     -0.281304  20 C  px              306      0.262328  19 S  d  0      
   317      0.256451  20 C  pz              221      0.248850  10 C  px        
   303     -0.242918  19 S  pz              308     -0.243042  19 S  d  2      

 Vector  245  Occ=0.000000D+00  E= 9.369253D-01
              MO Center= -1.0D-01,  9.4D-01,  1.8D-01, r^2= 1.8D+01
   Bfn.  Coefficient  Atom+Function         Bfn.  Coefficient  Atom+Function  
  ----- ------------  ---------------      ----- ------------  ---------------
   217      1.007554  10 C  s               311     -0.989016  20 C  s         
   222     -0.402223  10 C  py              316      0.394982  20 C  py        
   200     -0.374395   9 S  s               294      0.373423  19 S  s         
   214     -0.350705   9 S  d  2            216     -0.336923  10 C  s         
   310      0.331006  20 C  s               151      0.303366   6 S  py        

 Vector  246  Occ=0.000000D+00  E= 9.461786D-01
              MO Center=  1.7D-02, -5.2D-01, -6.9D-03, r^2= 2.8D+01
   Bfn.  Coefficient  Atom+Function         Bfn.  Coefficient  Atom+Function  
  ----- ------------  ---------------      ----- ------------  ---------------
   264      2.589413  15 C  s               358      2.574242  25 C  s         
   217      2.138857  10 C  s               311      2.125390  20 C  s         
   247     -0.846942  14 S  s               341     -0.843358  24 S  s         
   263     -0.830476  15 C  s               357     -0.825878  25 C  s         
   200     -0.714402   9 S  s               294     -0.710702  19 S  s         

 Vector  247  Occ=0.000000D+00  E= 9.493698D-01
              MO Center= -1.7D-02, -1.3D+00,  4.6D-02, r^2= 1.9D+01
   Bfn.  Coefficient  Atom+Function         Bfn.  Coefficient  Atom+Function  
  ----- ------------  ---------------      ----- ------------  ---------------
   358     -2.579118  25 C  s               264      2.559971  15 C  s         
   247     -0.868126  14 S  s               341      0.870565  24 S  s         
   357      0.800051  25 C  s               263     -0.793962  15 C  s         
   371      0.401346  26 H  s               287     -0.398407  18 H  s         
   282     -0.379036  17 H  s               376      0.380815  27 H  s         

 Vector  248  Occ=0.000000D+00  E= 9.513609D-01
              MO Center= -1.3D-01,  9.2D-01, -2.1D-01, r^2= 2.0D+01
   Bfn.  Coefficient  Atom+Function         Bfn.  Coefficient  Atom+Function  
  ----- ------------  ---------------      ----- ------------  ---------------
   311      2.366844  20 C  s               217      2.045786  10 C  s         
   264     -1.125703  15 C  s               358     -1.127980  25 C  s         
   294     -0.808668  19 S  s               310     -0.737125  20 C  s         
   200     -0.702084   9 S  s               216     -0.637694  10 C  s         
   341      0.389388  24 S  s               324     -0.385642  21 H  s         

 Vector  249  Occ=0.000000D+00  E= 9.515977D-01
              MO Center=  1.5D-01,  1.2D+00,  1.8D-01, r^2= 1.9D+01
   Bfn.  Coefficient  Atom+Function         Bfn.  Coefficient  Atom+Function  
  ----- ------------  ---------------      ----- ------------  ---------------
   217      2.504325  10 C  s               311     -2.206845  20 C  s         
   200     -0.858157   9 S  s               216     -0.774920  10 C  s         
   294      0.758703  19 S  s               310      0.682404  20 C  s         
   230     -0.402365  11 H  s               235     -0.371104  12 H  s         
   229     -0.360915  11 H  s               334      0.361852  23 H  s         

 Vector  250  Occ=0.000000D+00  E= 9.654563D-01
              MO Center=  2.6D-01, -3.8D-01,  2.3D-01, r^2= 2.0D+01
   Bfn.  Coefficient  Atom+Function         Bfn.  Coefficient  Atom+Function  
  ----- ------------  ---------------      ----- ------------  ---------------
   311      1.583252  20 C  s               264     -0.766870  15 C  s         
   358     -0.725893  25 C  s               294     -0.608976  19 S  s         
   310     -0.469829  20 C  s               255     -0.460280  14 S  py        
   349     -0.456375  24 S  py              253     -0.438719  14 S  pz        
   345     -0.438026  24 S  px              208     -0.413872   9 S  py        

 Vector  251  Occ=0.000000D+00  E= 9.655435D-01
              MO Center= -2.5D-01, -4.3D-01, -2.6D-01, r^2= 2.0D+01
   Bfn.  Coefficient  Atom+Function         Bfn.  Coefficient  Atom+Function  
  ----- ------------  ---------------      ----- ------------  ---------------
   217      1.758911  10 C  s               311     -0.803795  20 C  s         
   200     -0.677166   9 S  s               216     -0.521661  10 C  s         
   251      0.495096  14 S  px              347      0.495470  24 S  pz        
   299      0.444451  19 S  py              264     -0.422139  15 C  s         
   350     -0.420249  24 S  pz              254     -0.416308  14 S  px        

 Vector  252  Occ=0.000000D+00  E= 9.667903D-01
              MO Center= -1.6D-02,  9.2D-01,  2.3D-02, r^2= 1.9D+01
   Bfn.  Coefficient  Atom+Function         Bfn.  Coefficient  Atom+Function  
  ----- ------------  ---------------      ----- ------------  ---------------
   358     -1.095026  25 C  s               264      1.056790  15 C  s         
   206     -0.428917   9 S  pz              298      0.427129  19 S  px        
   341      0.426810  24 S  s               204      0.423813   9 S  px        
   300     -0.422023  19 S  pz              207     -0.409310   9 S  px        
   209      0.407861   9 S  pz              247     -0.408608  14 S  s         

 Vector  253  Occ=0.000000D+00  E= 9.842446D-01
              MO Center= -1.8D-03, -5.0D-01, -9.2D-03, r^2= 1.7D+01
   Bfn.  Coefficient  Atom+Function         Bfn.  Coefficient  Atom+Function  
  ----- ------------  ---------------      ----- ------------  ---------------
   251      0.461030  14 S  px              253      0.462692  14 S  pz        
   347     -0.462028  24 S  pz              254     -0.459458  14 S  px        
   256     -0.460610  14 S  pz              350      0.460730  24 S  pz        
   345     -0.458347  24 S  px              348      0.456241  24 S  px        
   206     -0.357138   9 S  pz              298     -0.355912  19 S  px        

 Vector  254  Occ=0.000000D+00  E= 9.850200D-01
              MO Center=  3.6D-03,  4.8D-01,  1.3D-02, r^2= 1.7D+01
   Bfn.  Coefficient  Atom+Function         Bfn.  Coefficient  Atom+Function  
  ----- ------------  ---------------      ----- ------------  ---------------
   208     -0.515776   9 S  py              205      0.512456   9 S  py        
   299      0.509276  19 S  py              302     -0.511793  19 S  py        
   346     -0.433133  24 S  py              252     -0.429844  14 S  py        
   349      0.418431  24 S  py              255      0.413968  14 S  py        
   204     -0.272411   9 S  px              298      0.270508  19 S  px        

 Vector  255  Occ=0.000000D+00  E= 1.009269D+00
              MO Center=  2.4D-03, -8.4D-01, -2.7D-03, r^2= 1.5D+01
   Bfn.  Coefficient  Atom+Function         Bfn.  Coefficient  Atom+Function  
  ----- ------------  ---------------      ----- ------------  ---------------
   255     -0.557977  14 S  py              349      0.557798  24 S  py        
   252      0.522507  14 S  py              346     -0.522126  24 S  py        
   133     -0.277352   5 S  py              169      0.277373   7 S  py        
   253     -0.275427  14 S  pz              256      0.274227  14 S  pz        
   345      0.275121  24 S  px              348     -0.273530  24 S  px        

 Vector  256  Occ=0.000000D+00  E= 1.013000D+00
              MO Center= -4.2D-03,  5.5D-01,  1.1D-02, r^2= 1.5D+01
   Bfn.  Coefficient  Atom+Function         Bfn.  Coefficient  Atom+Function  
  ----- ------------  ---------------      ----- ------------  ---------------
   209      0.440715   9 S  pz              301      0.438697  19 S  px        
   206     -0.431649   9 S  pz              207     -0.432930   9 S  px        
   298     -0.429639  19 S  px              303     -0.430919  19 S  pz        
   204      0.424438   9 S  px              300      0.422438  19 S  pz        
   350     -0.327445  24 S  pz              348     -0.323901  24 S  px        

 Vector  257  Occ=0.000000D+00  E= 1.013964D+00
              MO Center= -9.8D-04,  6.0D-01, -8.0D-03, r^2= 1.5D+01
   Bfn.  Coefficient  Atom+Function         Bfn.  Coefficient  Atom+Function  
  ----- ------------  ---------------      ----- ------------  ---------------
   205      0.528670   9 S  py              299     -0.529974  19 S  py        
   208     -0.527199   9 S  py              302      0.528288  19 S  py        
   151      0.348585   6 S  py              187     -0.348785   8 S  py        
   154     -0.281070   6 S  py              190      0.281031   8 S  py        
   254     -0.281005  14 S  px              207      0.278770   9 S  px        

 Vector  258  Occ=0.000000D+00  E= 1.061424D+00
              MO Center= -4.7D-03, -1.9D-01, -2.3D-03, r^2= 9.2D+00
   Bfn.  Coefficient  Atom+Function         Bfn.  Coefficient  Atom+Function  
  ----- ------------  ---------------      ----- ------------  ---------------
    43     -0.538920   2 Fe px              107      0.538346   4 Fe pz        
    45      0.535082   2 Fe pz              105     -0.534679   4 Fe px        
    35      0.501241   2 Fe s                97     -0.497817   4 Fe s         
   128     -0.484061   5 S  s               164      0.480851   7 S  s         
   136      0.467672   5 S  py              172     -0.467798   7 S  py        

 Vector  259  Occ=0.000000D+00  E= 1.063867D+00
              MO Center=  1.4D-06,  1.9D-02,  3.8D-03, r^2= 1.1D+01
   Bfn.  Coefficient  Atom+Function         Bfn.  Coefficient  Atom+Function  
  ----- ------------  ---------------      ----- ------------  ---------------
    44      0.545868   2 Fe py              106      0.548429   4 Fe py        
    13      0.542229   1 Fe py               75      0.539434   3 Fe py        
   164     -0.435313   7 S  s               128     -0.427633   5 S  s         
    97      0.389429   4 Fe s                35      0.382412   2 Fe s         
     4     -0.363592   1 Fe s                66     -0.359915   3 Fe s         

 Vector  260  Occ=0.000000D+00  E= 1.064968D+00
              MO Center=  5.2D-04,  4.5D-02, -2.1D-03, r^2= 1.1D+01
   Bfn.  Coefficient  Atom+Function         Bfn.  Coefficient  Atom+Function  
  ----- ------------  ---------------      ----- ------------  ---------------
   146      0.569693   6 S  s               182     -0.565780   8 S  s         
    66     -0.519868   3 Fe s                 4      0.516741   1 Fe s         
    43     -0.434181   2 Fe px               45     -0.434678   2 Fe pz        
   105     -0.430589   4 Fe px              107     -0.430486   4 Fe pz        
     5     -0.394508   1 Fe s                67      0.396360   3 Fe s         

 Vector  261  Occ=0.000000D+00  E= 1.068534D+00
              MO Center=  2.4D-03, -1.2D-01, -1.8D-03, r^2= 1.0D+01
   Bfn.  Coefficient  Atom+Function         Bfn.  Coefficient  Atom+Function  
  ----- ------------  ---------------      ----- ------------  ---------------
   153      0.405996   6 S  px              155     -0.406593   6 S  pz        
   189      0.407079   8 S  px              191     -0.406344   8 S  pz        
   150     -0.384485   6 S  px              152      0.385100   6 S  pz        
   186     -0.384757   8 S  px              188      0.384042   8 S  pz        
    12     -0.355868   1 Fe px               76      0.356866   3 Fe pz        

 Vector  262  Occ=0.000000D+00  E= 1.071621D+00
              MO Center=  4.4D-04, -8.2D-02,  4.3D-03, r^2= 7.9D+00
   Bfn.  Coefficient  Atom+Function         Bfn.  Coefficient  Atom+Function  
  ----- ------------  ---------------      ----- ------------  ---------------
   153      0.414211   6 S  px              155     -0.414241   6 S  pz        
   189     -0.414311   8 S  px              191      0.414268   8 S  pz        
   105      0.375569   4 Fe px               45     -0.372522   2 Fe pz        
   107      0.372251   4 Fe pz               43     -0.369200   2 Fe px        
    12      0.357056   1 Fe px               76      0.355262   3 Fe pz        

 Vector  263  Occ=0.000000D+00  E= 1.074696D+00
              MO Center=  3.0D-03, -2.0D-01, -1.5D-03, r^2= 8.7D+00
   Bfn.  Coefficient  Atom+Function         Bfn.  Coefficient  Atom+Function  
  ----- ------------  ---------------      ----- ------------  ---------------
    13      0.555413   1 Fe py               75     -0.557181   3 Fe py        
   154      0.495890   6 S  py              190     -0.495758   8 S  py        
   153      0.397207   6 S  px              155      0.397174   6 S  pz        
   189      0.395469   8 S  px              191      0.395829   8 S  pz        
   151     -0.366524   6 S  py              187      0.366257   8 S  py        

 Vector  264  Occ=0.000000D+00  E= 1.076680D+00
              MO Center= -7.8D-03, -9.1D-02,  4.1D-03, r^2= 9.7D+00
   Bfn.  Coefficient  Atom+Function         Bfn.  Coefficient  Atom+Function  
  ----- ------------  ---------------      ----- ------------  ---------------
   341     -0.605277  24 S  s               247      0.602180  14 S  s         
   358      0.581005  25 C  s               264     -0.577490  15 C  s         
   128     -0.528443   5 S  s               164      0.526425   7 S  s         
   135     -0.451625   5 S  px              137      0.452973   5 S  pz        
   171     -0.451847   7 S  px              173      0.450698   7 S  pz        

 Vector  265  Occ=0.000000D+00  E= 1.078481D+00
              MO Center=  5.3D-03, -4.2D-01, -4.7D-03, r^2= 9.6D+00
   Bfn.  Coefficient  Atom+Function         Bfn.  Coefficient  Atom+Function  
  ----- ------------  ---------------      ----- ------------  ---------------
   247      0.656591  14 S  s               264     -0.658681  15 C  s         
   341      0.654824  24 S  s               358     -0.657570  25 C  s         
    44      0.592378   2 Fe py              106      0.589381   4 Fe py        
    13      0.559375   1 Fe py               75      0.557250   3 Fe py        
   146      0.516377   6 S  s               182      0.518848   8 S  s         

 Vector  266  Occ=0.000000D+00  E= 1.086542D+00
              MO Center= -1.0D-03,  8.6D-01, -7.5D-05, r^2= 8.2D+00
   Bfn.  Coefficient  Atom+Function         Bfn.  Coefficient  Atom+Function  
  ----- ------------  ---------------      ----- ------------  ---------------
    12      0.605370   1 Fe px               14      0.607457   1 Fe pz        
    74      0.607640   3 Fe px               76      0.605426   3 Fe pz        
   146     -0.552040   6 S  s               182      0.551546   8 S  s         
   200     -0.487405   9 S  s               294      0.488451  19 S  s         
   217      0.398185  10 C  s               311     -0.399443  20 C  s         

 Vector  267  Occ=0.000000D+00  E= 1.099748D+00
              MO Center=  3.6D-04,  3.3D-01, -1.6D-04, r^2= 1.2D+01
   Bfn.  Coefficient  Atom+Function         Bfn.  Coefficient  Atom+Function  
  ----- ------------  ---------------      ----- ------------  ---------------
   200      0.947771   9 S  s               294      0.947226  19 S  s         
   217     -0.908946  10 C  s               311     -0.908416  20 C  s         
   264     -0.859090  15 C  s               358     -0.858917  25 C  s         
   247      0.835645  14 S  s               341      0.835358  24 S  s         
   128      0.547390   5 S  s               164      0.548169   7 S  s         

 Vector  268  Occ=0.000000D+00  E= 1.212757D+00
              MO Center=  3.3D-02, -9.0D-01, -3.9D-02, r^2= 1.2D+01
   Bfn.  Coefficient  Atom+Function         Bfn.  Coefficient  Atom+Function  
  ----- ------------  ---------------      ----- ------------  ---------------
   247      1.697089  14 S  s               341     -1.612061  24 S  s         
   264     -1.392514  15 C  s               358      1.321831  25 C  s         
   246     -0.836127  14 S  s               340      0.794006  24 S  s         
    36     -0.763322   2 Fe s                98      0.726389   4 Fe s         
    35     -0.532583   2 Fe s                97      0.500380   4 Fe s         

 Vector  269  Occ=0.000000D+00  E= 1.213383D+00
              MO Center= -3.3D-02, -4.1D-01,  5.3D-02, r^2= 1.1D+01
   Bfn.  Coefficient  Atom+Function         Bfn.  Coefficient  Atom+Function  
  ----- ------------  ---------------      ----- ------------  ---------------
   341     -1.085755  24 S  s               200      1.077844   9 S  s         
   294      1.054536  19 S  s               247     -0.936440  14 S  s         
   358      0.898422  25 C  s               217     -0.868170  10 C  s         
   311     -0.849723  20 C  s               264      0.776058  15 C  s         
   199     -0.542406   9 S  s               340      0.537529  24 S  s         

 Vector  270  Occ=0.000000D+00  E= 1.217552D+00
              MO Center= -1.1D-02,  9.9D-01, -2.3D-02, r^2= 1.2D+01
   Bfn.  Coefficient  Atom+Function         Bfn.  Coefficient  Atom+Function  
  ----- ------------  ---------------      ----- ------------  ---------------
   294     -1.671594  19 S  s               200      1.627484   9 S  s         
   311      1.340230  20 C  s               217     -1.306277  10 C  s         
   293      0.833722  19 S  s               199     -0.812021   9 S  s         
    67      0.703795   3 Fe s                 5     -0.686075   1 Fe s         
    66      0.523509   3 Fe s                 4     -0.515025   1 Fe s         

 Vector  271  Occ=0.000000D+00  E= 1.219512D+00
              MO Center=  1.4D-02,  3.0D-01, -2.7D-03, r^2= 9.4D+00
   Bfn.  Coefficient  Atom+Function         Bfn.  Coefficient  Atom+Function  
  ----- ------------  ---------------      ----- ------------  ---------------
   136      0.707996   5 S  py              172      0.711225   7 S  py        
    13     -0.530237   1 Fe py               75     -0.516597   3 Fe py        
   133     -0.484772   5 S  py              169     -0.486148   7 S  py        
   200      0.470625   9 S  s               190     -0.412125   8 S  py        
   154     -0.406385   6 S  py              247     -0.404601  14 S  s         

 Vector  272  Occ=0.000000D+00  E= 1.221411D+00
              MO Center= -2.7D-03, -5.5D-02,  1.1D-02, r^2= 8.8D+00
   Bfn.  Coefficient  Atom+Function         Bfn.  Coefficient  Atom+Function  
  ----- ------------  ---------------      ----- ------------  ---------------
   135      0.468796   5 S  px              137      0.470921   5 S  pz        
   171     -0.464690   7 S  px              155      0.461470   6 S  pz        
   173     -0.462609   7 S  pz              153     -0.458441   6 S  px        
   189      0.456873   8 S  px              191     -0.453858   8 S  pz        
    12      0.384680   1 Fe px               14     -0.385786   1 Fe pz        

 Vector  273  Occ=0.000000D+00  E= 1.235521D+00
              MO Center= -6.1D-05, -2.4D-02,  4.7D-05, r^2= 5.7D+00
   Bfn.  Coefficient  Atom+Function         Bfn.  Coefficient  Atom+Function  
  ----- ------------  ---------------      ----- ------------  ---------------
   135      0.353287   5 S  px              137      0.352819   5 S  pz        
   171     -0.353060   7 S  px              173     -0.353063   7 S  pz        
   153     -0.277294   6 S  px              155      0.277067   6 S  pz        
   189      0.278012   8 S  px              191     -0.277734   8 S  pz        
    51      0.268423   2 Fe d -2             52      0.269327   2 Fe d -1      

 Vector  274  Occ=0.000000D+00  E= 1.237760D+00
              MO Center= -2.8D-04, -3.4D-02,  3.6D-04, r^2= 6.4D+00
   Bfn.  Coefficient  Atom+Function         Bfn.  Coefficient  Atom+Function  
  ----- ------------  ---------------      ----- ------------  ---------------
   154      0.485236   6 S  py              190      0.484692   8 S  py        
   200      0.421928   9 S  s               294      0.418322  19 S  s         
   247     -0.388711  14 S  s               341     -0.386260  24 S  s         
   217     -0.334535  10 C  s               311     -0.331333  20 C  s         
   151     -0.320459   6 S  py              187     -0.320233   8 S  py        

 Vector  275  Occ=0.000000D+00  E= 1.346128D+00
              MO Center=  3.3D-04, -1.4D-01,  2.0D-04, r^2= 1.7D+01
   Bfn.  Coefficient  Atom+Function         Bfn.  Coefficient  Atom+Function  
  ----- ------------  ---------------      ----- ------------  ---------------
   264      1.599170  15 C  s               358      1.598752  25 C  s         
   217      1.539151  10 C  s               311      1.538503  20 C  s         
   247     -1.151271  14 S  s               341     -1.151362  24 S  s         
   200     -1.098030   9 S  s               294     -1.097746  19 S  s         
   146     -0.932254   6 S  s               182     -0.932645   8 S  s         

 Vector  276  Occ=0.000000D+00  E= 1.365259D+00
              MO Center= -8.8D-02, -1.2D+00, -8.8D-02, r^2= 1.7D+01
   Bfn.  Coefficient  Atom+Function         Bfn.  Coefficient  Atom+Function  
  ----- ------------  ---------------      ----- ------------  ---------------
     4      1.038464   1 Fe s               182      1.011141   8 S  s         
    66     -0.932702   3 Fe s               146     -0.883777   6 S  s         
   311      0.593255  20 C  s               217     -0.555940  10 C  s         
    13     -0.543161   1 Fe py               75      0.530270   3 Fe py        
   181     -0.514192   8 S  s               294     -0.508924  19 S  s         

 Vector  277  Occ=0.000000D+00  E= 1.367923D+00
              MO Center= -1.1D-01, -2.3D-01,  1.6D-01, r^2= 1.4D+01
   Bfn.  Coefficient  Atom+Function         Bfn.  Coefficient  Atom+Function  
  ----- ------------  ---------------      ----- ------------  ---------------
   128      1.772872   5 S  s               164     -1.529018   7 S  s         
    35      1.459146   2 Fe s                97     -1.239775   4 Fe s         
   127     -0.946161   5 S  s               136     -0.820447   5 S  py        
   163      0.816920   7 S  s               172      0.801909   7 S  py        
    44      0.782564   2 Fe py              106     -0.730844   4 Fe py        

 Vector  278  Occ=0.000000D+00  E= 1.368220D+00
              MO Center=  1.8D-01,  1.3D-01, -7.3D-02, r^2= 1.3D+01
   Bfn.  Coefficient  Atom+Function         Bfn.  Coefficient  Atom+Function  
  ----- ------------  ---------------      ----- ------------  ---------------
   164     -1.319925   7 S  s               146      1.261931   6 S  s         
    97     -1.139591   4 Fe s               182      1.084265   8 S  s         
    66      1.053528   3 Fe s               128     -0.969432   5 S  s         
     4      0.889460   1 Fe s                35     -0.844594   2 Fe s         
   163      0.705815   7 S  s               145     -0.675271   6 S  s         

 Vector  279  Occ=0.000000D+00  E= 1.375763D+00
              MO Center=  9.8D-01, -1.1D+00, -7.9D-01, r^2= 1.7D+01
   Bfn.  Coefficient  Atom+Function         Bfn.  Coefficient  Atom+Function  
  ----- ------------  ---------------      ----- ------------  ---------------
   164      1.274675   7 S  s               182     -1.035746   8 S  s         
   358      0.820827  25 C  s                97      0.798541   4 Fe s         
   217     -0.737406  10 C  s               163     -0.728777   7 S  s         
     4     -0.719820   1 Fe s               173      0.650103   7 S  pz        
   191     -0.612327   8 S  pz              181      0.588069   8 S  s         

 Vector  280  Occ=0.000000D+00  E= 1.375848D+00
              MO Center= -6.3D-01, -6.9D-01,  7.0D-01, r^2= 1.4D+01
   Bfn.  Coefficient  Atom+Function         Bfn.  Coefficient  Atom+Function  
  ----- ------------  ---------------      ----- ------------  ---------------
   182      1.413221   8 S  s               128     -1.037259   5 S  s         
     4      0.996783   1 Fe s               217      0.968185  10 C  s         
   146     -0.829471   6 S  s               181     -0.799568   8 S  s         
   135     -0.676901   5 S  px              264     -0.662011  15 C  s         
    35     -0.648285   2 Fe s               189      0.651259   8 S  px        

 Vector  281  Occ=0.000000D+00  E= 1.376215D+00
              MO Center= -2.7D-01, -1.6D-01,  2.2D-01, r^2= 1.7D+01
   Bfn.  Coefficient  Atom+Function         Bfn.  Coefficient  Atom+Function  
  ----- ------------  ---------------      ----- ------------  ---------------
   146      1.545172   6 S  s               311      1.113246  20 C  s         
    66      1.069501   3 Fe s               145     -0.878839   6 S  s         
   128     -0.804961   5 S  s               137      0.651840   5 S  pz        
   294     -0.635703  19 S  s               155     -0.621668   6 S  pz        
   301      0.584992  19 S  px              303      0.586692  19 S  pz        

 Vector  282  Occ=0.000000D+00  E= 1.378169D+00
              MO Center=  3.8D-01, -1.4D+00,  1.0D-01, r^2= 3.2D+01
   Bfn.  Coefficient  Atom+Function         Bfn.  Coefficient  Atom+Function  
  ----- ------------  ---------------      ----- ------------  ---------------
   268      0.264260  15 C  px              364     -0.254705  25 C  pz        
   283      0.250106  17 H  px              379     -0.237376  27 H  pz        
   350      0.226026  24 S  pz              270      0.224094  15 C  pz        
   254     -0.215162  14 S  px              362     -0.215374  25 C  px        
   279      0.208373  16 H  py              383     -0.205012  28 H  py        

 Vector  283  Occ=0.000000D+00  E= 1.378569D+00
              MO Center= -4.3D-01,  1.5D+00, -4.6D-01, r^2= 3.0D+01
   Bfn.  Coefficient  Atom+Function         Bfn.  Coefficient  Atom+Function  
  ----- ------------  ---------------      ----- ------------  ---------------
   358      0.353153  25 C  s               164      0.334764   7 S  s         
   264     -0.289360  15 C  s               330      0.273188  22 H  px        
   348      0.269872  24 S  px              315      0.265674  20 C  px        
   317     -0.259155  20 C  pz              301     -0.249927  19 S  px        
   256     -0.229566  14 S  pz              238     -0.223352  12 H  pz        

 Vector  284  Occ=0.000000D+00  E= 1.379252D+00
              MO Center= -1.1D-01,  2.6D+00,  2.3D-01, r^2= 2.7D+01
   Bfn.  Coefficient  Atom+Function         Bfn.  Coefficient  Atom+Function  
  ----- ------------  ---------------      ----- ------------  ---------------
   302     -0.331014  19 S  py              208      0.318225   9 S  py        
   222     -0.299441  10 C  py              316      0.286233  20 C  py        
   231      0.282002  11 H  px              337      0.275212  23 H  pz        
   241     -0.237874  13 H  px              327     -0.231796  21 H  pz        
   242     -0.213140  13 H  py              326      0.205433  21 H  py        

 Vector  285  Occ=0.000000D+00  E= 1.381049D+00
              MO Center=  4.0D-02,  1.5D-01,  5.7D-02, r^2= 3.3D+01
   Bfn.  Coefficient  Atom+Function         Bfn.  Coefficient  Atom+Function  
  ----- ------------  ---------------      ----- ------------  ---------------
   222      0.258749  10 C  py              316      0.244432  20 C  py        
   255      0.235889  14 S  py              337      0.220208  23 H  pz        
   290      0.211505  18 H  pz              349      0.211955  24 S  py        
   231     -0.206699  11 H  px              269     -0.204775  15 C  py        
   363     -0.200121  25 C  py              372      0.195596  26 H  px        

 Vector  286  Occ=0.000000D+00  E= 1.381280D+00
              MO Center=  1.2D-01,  1.5D+00, -5.3D-02, r^2= 3.1D+01
   Bfn.  Coefficient  Atom+Function         Bfn.  Coefficient  Atom+Function  
  ----- ------------  ---------------      ----- ------------  ---------------
   238      0.262633  12 H  pz              315      0.250366  20 C  px        
   223      0.246935  10 C  pz              330      0.246183  22 H  px        
   221     -0.241665  10 C  px              207      0.222075   9 S  px        
   317     -0.220513  20 C  pz              233     -0.198385  11 H  pz        
   303      0.198780  19 S  pz              326      0.191030  21 H  py        

 Vector  287  Occ=0.000000D+00  E= 1.390734D+00
              MO Center= -1.0D-01, -8.8D-01, -7.0D-02, r^2= 2.2D+01
   Bfn.  Coefficient  Atom+Function         Bfn.  Coefficient  Atom+Function  
  ----- ------------  ---------------      ----- ------------  ---------------
   217      1.200248  10 C  s               311     -1.203986  20 C  s         
   200     -0.785259   9 S  s               294      0.784850  19 S  s         
     4     -0.647847   1 Fe s                66      0.618118   3 Fe s         
   303     -0.541745  19 S  pz              207     -0.538698   9 S  px        
   301     -0.537846  19 S  px              209     -0.534704   9 S  pz        

 Vector  288  Occ=0.000000D+00  E= 1.397417D+00
              MO Center=  4.7D-02, -7.6D-01, -9.5D-03, r^2= 1.7D+01
   Bfn.  Coefficient  Atom+Function         Bfn.  Coefficient  Atom+Function  
  ----- ------------  ---------------      ----- ------------  ---------------
   264      1.593008  15 C  s               358     -1.544378  25 C  s         
   247     -0.935644  14 S  s               341      0.908251  24 S  s         
   256      0.749184  14 S  pz              254     -0.743111  14 S  px        
   348     -0.728467  24 S  px              350      0.722028  24 S  pz        
   255      0.664823  14 S  py              349     -0.638791  24 S  py        

 Vector  289  Occ=0.000000D+00  E= 1.398186D+00
              MO Center= -1.8D-02,  3.8D-01,  5.8D-02, r^2= 1.7D+01
   Bfn.  Coefficient  Atom+Function         Bfn.  Coefficient  Atom+Function  
  ----- ------------  ---------------      ----- ------------  ---------------
   217      1.158633  10 C  s               311      1.157750  20 C  s         
   358     -1.092233  25 C  s               264     -1.018968  15 C  s         
   200     -0.674868   9 S  s               294     -0.676661  19 S  s         
   341      0.646201  24 S  s               247      0.605262  14 S  s         
   208     -0.595953   9 S  py              302     -0.594626  19 S  py        

 Vector  290  Occ=0.000000D+00  E= 1.479099D+00
              MO Center=  3.9D-03, -9.9D-01,  1.9D-03, r^2= 7.2D+00
   Bfn.  Coefficient  Atom+Function         Bfn.  Coefficient  Atom+Function  
  ----- ------------  ---------------      ----- ------------  ---------------
   264      1.313874  15 C  s               358     -1.313356  25 C  s         
   254     -0.864364  14 S  px              256      0.863210  14 S  pz        
   348     -0.862853  24 S  px              350      0.863993  24 S  pz        
   255      0.774659  14 S  py              349     -0.774280  24 S  py        
    35     -0.645007   2 Fe s                97      0.644325   4 Fe s         

 Vector  291  Occ=0.000000D+00  E= 1.494325D+00
              MO Center= -1.3D-02,  8.2D-01,  8.7D-03, r^2= 1.1D+01
   Bfn.  Coefficient  Atom+Function         Bfn.  Coefficient  Atom+Function  
  ----- ------------  ---------------      ----- ------------  ---------------
   217      2.111131  10 C  s               311     -2.111509  20 C  s         
   208     -1.428516   9 S  py              302      1.428751  19 S  py        
   207     -1.373680   9 S  px              209     -1.371714   9 S  pz        
   301     -1.371970  19 S  px              303     -1.373914  19 S  pz        
     4     -1.028386   1 Fe s                66      1.028270   3 Fe s         

 Vector  292  Occ=0.000000D+00  E= 1.496570D+00
              MO Center=  1.3D-02,  4.3D-02, -1.2D-02, r^2= 5.5D+00
   Bfn.  Coefficient  Atom+Function         Bfn.  Coefficient  Atom+Function  
  ----- ------------  ---------------      ----- ------------  ---------------
    21     -0.426693   1 Fe d -1             20      0.423911   1 Fe d -2      
    82     -0.425186   3 Fe d -2             83      0.422387   3 Fe d -1      
    51      0.397893   2 Fe d -2             52      0.398490   2 Fe d -1      
   113     -0.388463   4 Fe d -2            114     -0.387937   4 Fe d -1      
   155     -0.269082   6 S  pz              189     -0.269060   8 S  px        

 Vector  293  Occ=0.000000D+00  E= 1.504362D+00
              MO Center=  5.2D-03,  3.9D-02, -7.1D-04, r^2= 1.3D+01
   Bfn.  Coefficient  Atom+Function         Bfn.  Coefficient  Atom+Function  
  ----- ------------  ---------------      ----- ------------  ---------------
   217      1.654178  10 C  s               264     -1.657016  15 C  s         
   311      1.648052  20 C  s               358     -1.648565  25 C  s         
   208     -1.131294   9 S  py              255     -1.126561  14 S  py        
   302     -1.127219  19 S  py              349     -1.120732  24 S  py        
   207     -1.109221   9 S  px              209     -1.108875   9 S  pz        

 Vector  294  Occ=0.000000D+00  E= 1.513607D+00
              MO Center= -3.6D-03, -3.8D-01,  7.8D-04, r^2= 1.1D+01
   Bfn.  Coefficient  Atom+Function         Bfn.  Coefficient  Atom+Function  
  ----- ------------  ---------------      ----- ------------  ---------------
   264      1.930758  15 C  s               358     -1.938236  25 C  s         
   255      1.347563  14 S  py              349     -1.352591  24 S  py        
   254     -1.313556  14 S  px              256      1.313546  14 S  pz        
   348     -1.318488  24 S  px              350      1.318540  24 S  pz        
    35     -0.872558   2 Fe s                97      0.875741   4 Fe s         

 Vector  295  Occ=0.000000D+00  E= 1.520591D+00
              MO Center= -4.2D-03,  1.2D+00,  9.7D-05, r^2= 6.1D+00
   Bfn.  Coefficient  Atom+Function         Bfn.  Coefficient  Atom+Function  
  ----- ------------  ---------------      ----- ------------  ---------------
   311     -1.254428  20 C  s               217      1.244190  10 C  s         
   301     -0.904681  19 S  px              303     -0.903837  19 S  pz        
   207     -0.896913   9 S  px              209     -0.897847   9 S  pz        
   302      0.804385  19 S  py              208     -0.797389   9 S  py        
    75      0.609527   3 Fe py               13     -0.606397   1 Fe py        

 Vector  296  Occ=0.000000D+00  E= 1.535105D+00
              MO Center=  5.2D-04, -2.5D-01,  8.7D-04, r^2= 1.4D+01
   Bfn.  Coefficient  Atom+Function         Bfn.  Coefficient  Atom+Function  
  ----- ------------  ---------------      ----- ------------  ---------------
   264      1.870001  15 C  s               358      1.870426  25 C  s         
   217      1.673571  10 C  s               311      1.671651  20 C  s         
    35     -1.635176   2 Fe s                97     -1.635357   4 Fe s         
     4     -1.547443   1 Fe s                66     -1.546632   3 Fe s         
   254     -1.288865  14 S  px              255      1.283476  14 S  py        

 Vector  297  Occ=0.000000D+00  E= 1.606109D+00
              MO Center=  2.1D-04, -7.2D-02,  1.4D-03, r^2= 5.0D+00
   Bfn.  Coefficient  Atom+Function         Bfn.  Coefficient  Atom+Function  
  ----- ------------  ---------------      ----- ------------  ---------------
    44      0.597736   2 Fe py              106      0.597560   4 Fe py        
    55     -0.527384   2 Fe d  2            117     -0.527977   4 Fe d  2      
   136      0.477594   5 S  py              172      0.477431   7 S  py        
    24     -0.374263   1 Fe d  2             86     -0.373992   3 Fe d  2      
   142      0.363093   5 S  d  2            178      0.362738   7 S  d  2      

 Vector  298  Occ=0.000000D+00  E= 1.608521D+00
              MO Center= -7.3D-04, -1.9D-01, -1.3D-03, r^2= 4.9D+00
   Bfn.  Coefficient  Atom+Function         Bfn.  Coefficient  Atom+Function  
  ----- ------------  ---------------      ----- ------------  ---------------
    53      0.535517   2 Fe d  0            115      0.535747   4 Fe d  0      
    43      0.446397   2 Fe px               45      0.446517   2 Fe pz        
   105     -0.446444   4 Fe px              107     -0.446595   4 Fe pz        
   158     -0.392393   6 S  d  0            194     -0.392443   8 S  d  0      
   153     -0.358622   6 S  px              155      0.358705   6 S  pz        

 Vector  299  Occ=0.000000D+00  E= 1.640469D+00
              MO Center=  3.5D+00, -3.5D+00, -3.5D+00, r^2= 1.5D+00
   Bfn.  Coefficient  Atom+Function         Bfn.  Coefficient  Atom+Function  
  ----- ------------  ---------------      ----- ------------  ---------------
   280      0.486323  16 H  pz              284      0.486091  17 H  py        
   288     -0.486110  18 H  px              278      0.243143  16 H  px        
   279     -0.243088  16 H  py              283      0.243209  17 H  px        
   285     -0.243088  17 H  pz              289     -0.243026  18 H  py        
   290     -0.242953  18 H  pz        

 Vector  300  Occ=0.000000D+00  E= 1.640498D+00
              MO Center= -3.5D+00, -3.5D+00,  3.5D+00, r^2= 1.5D+00
   Bfn.  Coefficient  Atom+Function         Bfn.  Coefficient  Atom+Function  
  ----- ------------  ---------------      ----- ------------  ---------------
   374      0.486112  26 H  pz              378     -0.486093  27 H  py        
   382     -0.486321  28 H  px              372      0.242955  26 H  px        
   373      0.243027  26 H  py              377      0.243088  27 H  px        
   379     -0.243207  27 H  pz              383      0.243087  28 H  py        
   384     -0.243142  28 H  pz        

 Vector  301  Occ=0.000000D+00  E= 1.641588D+00
              MO Center= -3.5D+00,  3.5D+00, -3.5D+00, r^2= 1.5D+00
   Bfn.  Coefficient  Atom+Function         Bfn.  Coefficient  Atom+Function  
  ----- ------------  ---------------      ----- ------------  ---------------
   327      0.486146  21 H  pz              331     -0.486140  22 H  py        
   335      0.486170  23 H  px              325     -0.243083  21 H  px        
   326      0.243088  21 H  py              330     -0.243060  22 H  px        
   332     -0.243051  22 H  pz              336      0.243087  23 H  py        
   337     -0.243066  23 H  pz        

 Vector  302  Occ=0.000000D+00  E= 1.641588D+00
              MO Center=  3.5D+00,  3.5D+00,  3.5D+00, r^2= 1.5D+00
   Bfn.  Coefficient  Atom+Function         Bfn.  Coefficient  Atom+Function  
  ----- ------------  ---------------      ----- ------------  ---------------
   233      0.486171  11 H  pz              237      0.486141  12 H  py        
   241      0.486143  13 H  px              231     -0.243068  11 H  px        
   232     -0.243088  11 H  py              236     -0.243051  12 H  px        
   238     -0.243058  12 H  pz              242     -0.243087  13 H  py        
   243     -0.243082  13 H  pz        

 Vector  303  Occ=0.000000D+00  E= 1.661840D+00
              MO Center= -4.3D-04, -1.3D+00,  5.0D-04, r^2= 7.8D+00
   Bfn.  Coefficient  Atom+Function         Bfn.  Coefficient  Atom+Function  
  ----- ------------  ---------------      ----- ------------  ---------------
   264      1.374928  15 C  s               358     -1.375437  25 C  s         
   255      1.064346  14 S  py              349     -1.064727  24 S  py        
   254     -1.022050  14 S  px              256      1.022052  14 S  pz        
   348     -1.022483  24 S  px              350      1.022474  24 S  pz        
    35     -0.822660   2 Fe s                97      0.822546   4 Fe s         

 Vector  304  Occ=0.000000D+00  E= 1.680517D+00
              MO Center=  7.4D-04, -8.5D-02,  1.7D-04, r^2= 9.2D+00
   Bfn.  Coefficient  Atom+Function         Bfn.  Coefficient  Atom+Function  
  ----- ------------  ---------------      ----- ------------  ---------------
   128      1.427986   5 S  s               164      1.426692   7 S  s         
     4     -1.279203   1 Fe s                66     -1.278856   3 Fe s         
   217      1.041670  10 C  s               311      1.041102  20 C  s         
   207     -0.803235   9 S  px              209     -0.803229   9 S  pz        
   301      0.802845  19 S  px              303      0.802843  19 S  pz        

 Vector  305  Occ=0.000000D+00  E= 1.703832D+00
              MO Center= -5.5D-04,  1.1D+00, -5.9D-04, r^2= 8.1D+00
   Bfn.  Coefficient  Atom+Function         Bfn.  Coefficient  Atom+Function  
  ----- ------------  ---------------      ----- ------------  ---------------
   217      1.314324  10 C  s               311     -1.314875  20 C  s         
   208     -1.015210   9 S  py              302      1.015593  19 S  py        
   207     -0.969604   9 S  px              209     -0.969555   9 S  pz        
   301     -0.969954  19 S  px              303     -0.969981  19 S  pz        
   146      0.960814   6 S  s               182     -0.962375   8 S  s         

 Vector  306  Occ=0.000000D+00  E= 1.721384D+00
              MO Center=  4.0D-03, -3.8D-01,  2.1D-03, r^2= 4.9D+00
   Bfn.  Coefficient  Atom+Function         Bfn.  Coefficient  Atom+Function  
  ----- ------------  ---------------      ----- ------------  ---------------
    44      0.809411   2 Fe py              106     -0.808023   4 Fe py        
    55     -0.775016   2 Fe d  2            117      0.775160   4 Fe d  2      
   164     -0.757437   7 S  s               128      0.749574   5 S  s         
   136     -0.599184   5 S  py              172      0.601999   7 S  py        
    53     -0.447892   2 Fe d  0            115      0.447240   4 Fe d  0      

 Vector  307  Occ=0.000000D+00  E= 1.725026D+00
              MO Center= -3.2D-04,  3.4D-01, -1.3D-04, r^2= 7.6D+00
   Bfn.  Coefficient  Atom+Function         Bfn.  Coefficient  Atom+Function  
  ----- ------------  ---------------      ----- ------------  ---------------
   146      2.838453   6 S  s               182      2.837992   8 S  s         
   128      2.449541   5 S  s               164      2.447323   7 S  s         
    35     -1.813999   2 Fe s                97     -1.814361   4 Fe s         
     4     -1.515814   1 Fe s                66     -1.515497   3 Fe s         
   145     -1.310298   6 S  s               181     -1.310073   8 S  s         

 Vector  308  Occ=0.000000D+00  E= 1.745008D+00
              MO Center= -5.2D-03, -1.6D-01,  1.5D-03, r^2= 5.3D+00
   Bfn.  Coefficient  Atom+Function         Bfn.  Coefficient  Atom+Function  
  ----- ------------  ---------------      ----- ------------  ---------------
   146      0.990309   6 S  s               182     -0.989949   8 S  s         
   115      0.627909   4 Fe d  0             53     -0.623021   2 Fe d  0      
   105     -0.601687   4 Fe px              107     -0.602230   4 Fe pz        
    43     -0.598390   2 Fe px               45     -0.597779   2 Fe pz        
    86      0.502238   3 Fe d  2             24     -0.498428   1 Fe d  2      

 Vector  309  Occ=0.000000D+00  E= 1.747501D+00
              MO Center=  2.3D-03,  3.4D-01, -4.7D-03, r^2= 4.9D+00
   Bfn.  Coefficient  Atom+Function         Bfn.  Coefficient  Atom+Function  
  ----- ------------  ---------------      ----- ------------  ---------------
    22      0.634890   1 Fe d  0             84      0.637749   3 Fe d  0      
    12      0.488526   1 Fe px               76      0.488268   3 Fe pz        
    14     -0.484901   1 Fe pz               74     -0.484825   3 Fe px        
    53     -0.470444   2 Fe d  0            115     -0.464728   4 Fe d  0      
    43     -0.377205   2 Fe px               45     -0.377644   2 Fe pz        

 Vector  310  Occ=0.000000D+00  E= 1.804974D+00
              MO Center= -5.1D-03, -3.7D-03, -1.4D-03, r^2= 8.7D+00
   Bfn.  Coefficient  Atom+Function         Bfn.  Coefficient  Atom+Function  
  ----- ------------  ---------------      ----- ------------  ---------------
   146      2.831893   6 S  s               182     -2.836494   8 S  s         
   145     -1.239340   6 S  s               181      1.241470   8 S  s         
   154      1.107449   6 S  py              190     -1.108584   8 S  py        
   153     -0.885872   6 S  px              155     -0.886059   6 S  pz        
   189     -0.887598   8 S  px              191     -0.887433   8 S  pz        

 Vector  311  Occ=0.000000D+00  E= 1.808690D+00
              MO Center=  7.6D-04,  1.6D-01,  6.1D-03, r^2= 9.3D+00
   Bfn.  Coefficient  Atom+Function         Bfn.  Coefficient  Atom+Function  
  ----- ------------  ---------------      ----- ------------  ---------------
   128      2.189133   5 S  s               164      2.184834   7 S  s         
   146     -2.038748   6 S  s               182     -2.032022   8 S  s         
   127     -0.960680   5 S  s               163     -0.958600   7 S  s         
   145      0.892602   6 S  s               181      0.889472   8 S  s         
    13     -0.880398   1 Fe py               75     -0.878126   3 Fe py        

 Vector  312  Occ=0.000000D+00  E= 1.824190D+00
              MO Center=  5.0D-03,  1.1D+00, -4.4D-03, r^2= 1.1D+01
   Bfn.  Coefficient  Atom+Function         Bfn.  Coefficient  Atom+Function  
  ----- ------------  ---------------      ----- ------------  ---------------
   128      2.733769   5 S  s               164     -2.737390   7 S  s         
   127     -1.196458   5 S  s               163      1.198272   7 S  s         
   135      0.940277   5 S  px              137     -0.940343   5 S  pz        
   171      0.941523   7 S  px              173     -0.941446   7 S  pz        
    12      0.932897   1 Fe px               14     -0.933921   1 Fe pz        

 Vector  313  Occ=0.000000D+00  E= 1.857868D+00
              MO Center=  3.5D-03, -1.8D+00,  1.2D-02, r^2= 3.4D+01
   Bfn.  Coefficient  Atom+Function         Bfn.  Coefficient  Atom+Function  
  ----- ------------  ---------------      ----- ------------  ---------------
   364     -0.526657  25 C  pz              268      0.522596  15 C  px        
   270      0.512751  15 C  pz              362     -0.509317  25 C  px        
   379      0.316590  27 H  pz              280     -0.313400  16 H  pz        
   283     -0.314435  17 H  px              382      0.312962  28 H  px        
   223     -0.290683  10 C  pz              315     -0.286894  20 C  px        

 Vector  314  Occ=0.000000D+00  E= 1.857974D+00
              MO Center=  3.3D-02, -7.2D-01, -9.5D-02, r^2= 3.7D+01
   Bfn.  Coefficient  Atom+Function         Bfn.  Coefficient  Atom+Function  
  ----- ------------  ---------------      ----- ------------  ---------------
   269      0.540159  15 C  py              363      0.524402  25 C  py        
   316     -0.432333  20 C  py              222     -0.424191  10 C  py        
   279     -0.311712  16 H  py              383     -0.302180  28 H  py        
   270     -0.271225  15 C  pz              284     -0.271316  17 H  py        
   268      0.269694  15 C  px              362     -0.270367  25 C  px        

 Vector  315  Occ=0.000000D+00  E= 1.859689D+00
              MO Center= -2.6D-02, -2.6D+00,  1.0D-01, r^2= 3.1D+01
   Bfn.  Coefficient  Atom+Function         Bfn.  Coefficient  Atom+Function  
  ----- ------------  ---------------      ----- ------------  ---------------
   363     -0.652286  25 C  py              269      0.638795  15 C  py        
   383      0.372294  28 H  py              279     -0.364586  16 H  py        
   362      0.333593  25 C  px              270     -0.326110  15 C  pz        
   378      0.326554  27 H  py              284     -0.319662  17 H  py        
   364     -0.320457  25 C  pz              268      0.314530  15 C  px        

 Vector  316  Occ=0.000000D+00  E= 1.860511D+00
              MO Center=  3.2D-01, -3.1D-01, -2.3D-01, r^2= 3.7D+01
   Bfn.  Coefficient  Atom+Function         Bfn.  Coefficient  Atom+Function  
  ----- ------------  ---------------      ----- ------------  ---------------
   268      0.474311  15 C  px              270      0.469073  15 C  pz        
   222      0.462294  10 C  py              316     -0.449375  20 C  py        
   364      0.411194  25 C  pz              362      0.403714  25 C  px        
   221     -0.292317  10 C  px              317     -0.287040  20 C  pz        
   280     -0.281087  16 H  pz              283     -0.280044  17 H  px        

 Vector  317  Occ=0.000000D+00  E= 1.860650D+00
              MO Center= -3.1D-01,  1.8D+00,  2.1D-01, r^2= 3.4D+01
   Bfn.  Coefficient  Atom+Function         Bfn.  Coefficient  Atom+Function  
  ----- ------------  ---------------      ----- ------------  ---------------
   315      0.551134  20 C  px              223      0.541274  10 C  pz        
   317     -0.489862  20 C  pz              221     -0.479046  10 C  px        
   362     -0.336298  25 C  px              364     -0.330451  25 C  pz        
   330     -0.325643  22 H  px              238     -0.319715  12 H  pz        
   327      0.307035  21 H  pz              241      0.300716  13 H  px        

 Vector  318  Occ=0.000000D+00  E= 1.864701D+00
              MO Center= -2.9D-02,  3.4D-01, -8.7D-03, r^2= 3.5D+01
   Bfn.  Coefficient  Atom+Function         Bfn.  Coefficient  Atom+Function  
  ----- ------------  ---------------      ----- ------------  ---------------
   182     -1.035755   8 S  s               146      1.027669   6 S  s         
   316     -0.509949  20 C  py              222      0.503266  10 C  py        
   181      0.442090   8 S  s               145     -0.439063   6 S  s         
   190     -0.402036   8 S  py              154      0.398486   6 S  py        
   364     -0.399770  25 C  pz              268     -0.395429  15 C  px        

 Vector  319  Occ=0.000000D+00  E= 1.865494D+00
              MO Center=  1.3D-02,  7.1D-01, -7.7D-03, r^2= 3.4D+01
   Bfn.  Coefficient  Atom+Function         Bfn.  Coefficient  Atom+Function  
  ----- ------------  ---------------      ----- ------------  ---------------
   164      0.835418   7 S  s               128      0.827940   5 S  s         
   146     -0.821284   6 S  s               182     -0.810395   8 S  s         
   222     -0.521609  10 C  py              316     -0.519876  20 C  py        
   269     -0.418036  15 C  py              363     -0.416351  25 C  py        
    13     -0.395316   1 Fe py               75     -0.393891   3 Fe py        

 Vector  320  Occ=0.000000D+00  E= 1.868604D+00
              MO Center= -7.8D-03,  2.3D+00,  1.5D-02, r^2= 2.6D+01
   Bfn.  Coefficient  Atom+Function         Bfn.  Coefficient  Atom+Function  
  ----- ------------  ---------------      ----- ------------  ---------------
   128      1.502977   5 S  s               164     -1.499186   7 S  s         
   127     -0.645080   5 S  s               163      0.642886   7 S  s         
    12      0.536192   1 Fe px               14     -0.535466   1 Fe pz        
    74      0.534887   3 Fe px               76     -0.535540   3 Fe pz        
   223     -0.531978  10 C  pz              315      0.530980  20 C  px        

 Vector  321  Occ=0.000000D+00  E= 1.976203D+00
              MO Center=  4.6D-01, -3.3D+00, -4.6D-01, r^2= 2.5D+01
   Bfn.  Coefficient  Atom+Function         Bfn.  Coefficient  Atom+Function  
  ----- ------------  ---------------      ----- ------------  ---------------
   247      1.191902  14 S  s               341      1.032498  24 S  s         
   264     -0.865528  15 C  s               358     -0.756473  25 C  s         
   268      0.652057  15 C  px              269     -0.650928  15 C  py        
   270     -0.652420  15 C  pz              362     -0.568037  25 C  px        
   363     -0.566201  25 C  py              364      0.567616  25 C  pz        

 Vector  322  Occ=0.000000D+00  E= 1.976472D+00
              MO Center= -4.6D-01, -3.3D+00,  4.6D-01, r^2= 2.4D+01
   Bfn.  Coefficient  Atom+Function         Bfn.  Coefficient  Atom+Function  
  ----- ------------  ---------------      ----- ------------  ---------------
   341      1.216606  24 S  s               247     -1.061132  14 S  s         
   358     -0.836093  25 C  s               264      0.722674  15 C  s         
   362     -0.645652  25 C  px              363     -0.647959  25 C  py        
   364      0.646023  25 C  pz              268     -0.560738  15 C  px        
   269      0.562869  15 C  py              270      0.560314  15 C  pz        

 Vector  323  Occ=0.000000D+00  E= 1.979801D+00
              MO Center=  4.7D-02,  3.2D+00,  4.8D-02, r^2= 2.5D+01
   Bfn.  Coefficient  Atom+Function         Bfn.  Coefficient  Atom+Function  
  ----- ------------  ---------------      ----- ------------  ---------------
   200      1.132087   9 S  s               294      1.115638  19 S  s         
   217     -0.782455  10 C  s               311     -0.771776  20 C  s         
   221      0.607090  10 C  px              222      0.604692  10 C  py        
   223      0.606614  10 C  pz              315     -0.598088  20 C  px        
   316      0.596141  20 C  py              317     -0.598569  20 C  pz        

 Vector  324  Occ=0.000000D+00  E= 1.980372D+00
              MO Center= -4.7D-02,  3.3D+00, -4.7D-02, r^2= 2.4D+01
   Bfn.  Coefficient  Atom+Function         Bfn.  Coefficient  Atom+Function  
  ----- ------------  ---------------      ----- ------------  ---------------
   294     -1.157751  19 S  s               200      1.141634   9 S  s         
   311      0.748407  20 C  s               217     -0.737263  10 C  s         
   315      0.599250  20 C  px              316     -0.601280  20 C  py        
   317      0.598883  20 C  pz              221      0.590248  10 C  px        
   222      0.592665  10 C  py              223      0.590626  10 C  pz        

 Vector  325  Occ=0.000000D+00  E= 2.075784D+00
              MO Center=  5.5D-01, -3.4D+00, -2.6D-01, r^2= 2.5D+01
   Bfn.  Coefficient  Atom+Function         Bfn.  Coefficient  Atom+Function  
  ----- ------------  ---------------      ----- ------------  ---------------
   278      0.449829  16 H  px              384      0.396660  28 H  pz        
   277     -0.329242  16 H  s               275     -0.325832  15 C  d  2      
   289      0.312573  18 H  py              288     -0.303714  18 H  px        
   287      0.299311  18 H  s               266      0.291141  15 C  py        
   381     -0.288123  28 H  s               373      0.285681  26 H  py        

 Vector  326  Occ=0.000000D+00  E= 2.075924D+00
              MO Center=  1.3D+00, -3.2D+00, -1.6D+00, r^2= 2.2D+01
   Bfn.  Coefficient  Atom+Function         Bfn.  Coefficient  Atom+Function  
  ----- ------------  ---------------      ----- ------------  ---------------
   285      0.508875  17 H  pz              282      0.408036  17 H  s         
   273      0.358910  15 C  d  0            289     -0.333186  18 H  py        
   280     -0.326449  16 H  pz              377     -0.325115  27 H  px        
   265      0.290051  15 C  px              267      0.276882  15 C  pz        
   376     -0.253337  27 H  s               284      0.250740  17 H  py        

 Vector  327  Occ=0.000000D+00  E= 2.076008D+00
              MO Center= -1.6D+00, -3.4D+00,  1.3D+00, r^2= 2.1D+01
   Bfn.  Coefficient  Atom+Function         Bfn.  Coefficient  Atom+Function  
  ----- ------------  ---------------      ----- ------------  ---------------
   377      0.505250  27 H  px              376      0.410725  27 H  s         
   373     -0.357979  26 H  py              382     -0.321928  28 H  px        
   285      0.309361  17 H  pz              369      0.290847  25 C  d  2      
   359      0.288289  25 C  px              361      0.281924  25 C  pz        
   378      0.265410  27 H  py              282      0.258667  17 H  s         

 Vector  328  Occ=0.000000D+00  E= 2.076153D+00
              MO Center= -2.7D-01, -3.4D+00,  5.3D-01, r^2= 2.4D+01
   Bfn.  Coefficient  Atom+Function         Bfn.  Coefficient  Atom+Function  
  ----- ------------  ---------------      ----- ------------  ---------------
   384      0.421832  28 H  pz              278     -0.378014  16 H  px        
   373      0.370302  26 H  py              371      0.331379  26 H  s         
   289     -0.322951  18 H  py              381     -0.295964  28 H  s         
   287     -0.290749  18 H  s               374     -0.291932  26 H  pz        
   360      0.289995  25 C  py              275      0.281034  15 C  d  2      

 Vector  329  Occ=0.000000D+00  E= 2.077806D+00
              MO Center= -9.6D-02,  3.4D+00,  1.8D-01, r^2= 2.5D+01
   Bfn.  Coefficient  Atom+Function         Bfn.  Coefficient  Atom+Function  
  ----- ------------  ---------------      ----- ------------  ---------------
   243      0.420286  13 H  pz              325     -0.415265  21 H  px        
   232     -0.319086  11 H  py              336     -0.314129  23 H  py        
   240     -0.302190  13 H  s               322     -0.303562  20 C  d  2      
   230      0.299004  11 H  s               324     -0.298809  21 H  s         
   334      0.294661  23 H  s               233     -0.286175  11 H  pz        

 Vector  330  Occ=0.000000D+00  E= 2.078085D+00
              MO Center=  6.3D-01,  3.2D+00,  3.7D-01, r^2= 2.5D+01
   Bfn.  Coefficient  Atom+Function         Bfn.  Coefficient  Atom+Function  
  ----- ------------  ---------------      ----- ------------  ---------------
   236      0.456088  12 H  px              332      0.392432  22 H  pz        
   235     -0.366040  12 H  s               329      0.314268  22 H  s         
   232     -0.295542  11 H  py              241     -0.293770  13 H  px        
   320      0.274780  20 C  d  0            220     -0.261002  10 C  pz        
   327     -0.252956  21 H  pz              336      0.251223  23 H  py        

 Vector  331  Occ=0.000000D+00  E= 2.078100D+00
              MO Center= -3.6D-01,  3.4D+00, -6.4D-01, r^2= 2.4D+01
   Bfn.  Coefficient  Atom+Function         Bfn.  Coefficient  Atom+Function  
  ----- ------------  ---------------      ----- ------------  ---------------
   332      0.454065  22 H  pz              236     -0.389623  12 H  px        
   329      0.369444  22 H  s               320      0.326302  20 C  d  0      
   235      0.318184  12 H  s               336      0.317994  23 H  py        
   327     -0.290787  21 H  pz              232      0.278481  11 H  py        
   314      0.257252  20 C  pz              312     -0.254493  20 C  px        

 Vector  332  Occ=0.000000D+00  E= 2.078286D+00
              MO Center= -1.8D-01,  3.4D+00,  9.4D-02, r^2= 2.5D+01
   Bfn.  Coefficient  Atom+Function         Bfn.  Coefficient  Atom+Function  
  ----- ------------  ---------------      ----- ------------  ---------------
   325      0.409978  21 H  px              243      0.405598  13 H  pz        
   336      0.338389  23 H  py              232     -0.333072  11 H  py        
   334     -0.308894  23 H  s               230      0.304371  11 H  s         
   322      0.302924  20 C  d  2            324      0.291969  21 H  s         
   240     -0.289233  13 H  s               335     -0.281888  23 H  px        

 Vector  333  Occ=0.000000D+00  E= 2.329752D+00
              MO Center=  3.0D-01, -3.2D+00, -3.0D-01, r^2= 2.6D+01
   Bfn.  Coefficient  Atom+Function         Bfn.  Coefficient  Atom+Function  
  ----- ------------  ---------------      ----- ------------  ---------------
   263      0.415907  15 C  s               279      0.384764  16 H  py        
   283     -0.384626  17 H  px              290      0.384327  18 H  pz        
   357      0.379481  25 C  s               264      0.374389  15 C  s         
   372      0.350542  26 H  px              379     -0.350862  27 H  pz        
   383      0.351015  28 H  py              358      0.341485  25 C  s         

 Vector  334  Occ=0.000000D+00  E= 2.330173D+00
              MO Center= -3.0D-01, -3.4D+00,  3.0D-01, r^2= 2.5D+01
   Bfn.  Coefficient  Atom+Function         Bfn.  Coefficient  Atom+Function  
  ----- ------------  ---------------      ----- ------------  ---------------
   357     -0.420544  25 C  s               372     -0.389758  26 H  px        
   379      0.389524  27 H  pz              383     -0.389357  28 H  py        
   263      0.384774  15 C  s               358     -0.379935  25 C  s         
   279      0.356292  16 H  py              283     -0.356473  17 H  px        
   290      0.356733  18 H  pz              264      0.347739  15 C  s         

 Vector  335  Occ=0.000000D+00  E= 2.332011D+00
              MO Center=  3.0D-02,  3.2D+00,  3.4D-02, r^2= 2.6D+01
   Bfn.  Coefficient  Atom+Function         Bfn.  Coefficient  Atom+Function  
  ----- ------------  ---------------      ----- ------------  ---------------
   216      0.401534  10 C  s               310      0.397690  20 C  s         
   231     -0.368995  11 H  px              238     -0.369406  12 H  pz        
   242     -0.369634  13 H  py              326     -0.366086  21 H  py        
   330      0.365857  22 H  px              337      0.365444  23 H  pz        
   217      0.358163  10 C  s               311      0.354732  20 C  s         

 Vector  336  Occ=0.000000D+00  E= 2.332361D+00
              MO Center= -3.2D-02,  3.4D+00, -3.2D-02, r^2= 2.5D+01
   Bfn.  Coefficient  Atom+Function         Bfn.  Coefficient  Atom+Function  
  ----- ------------  ---------------      ----- ------------  ---------------
   310     -0.407012  20 C  s               216      0.403183  10 C  s         
   326      0.374488  21 H  py              330     -0.374633  22 H  px        
   337     -0.374972  23 H  pz              231     -0.371464  11 H  px        
   238     -0.371122  12 H  pz              242     -0.370976  13 H  py        
   311     -0.363142  20 C  s               217      0.359723  10 C  s         

 Vector  337  Occ=0.000000D+00  E= 2.535793D+00
              MO Center=  9.4D-01, -3.3D+00, -8.4D-01, r^2= 2.3D+01
   Bfn.  Coefficient  Atom+Function         Bfn.  Coefficient  Atom+Function  
  ----- ------------  ---------------      ----- ------------  ---------------
   367      0.446944  25 C  d  0            273      0.436844  15 C  d  0      
   274      0.424636  15 C  d  1            275     -0.401073  15 C  d  2      
   288      0.389633  18 H  px              280      0.387171  16 H  pz        
   271      0.359610  15 C  d -2            283     -0.343666  17 H  px        
   366     -0.344536  25 C  d -1            374     -0.343256  26 H  pz        

 Vector  338  Occ=0.000000D+00  E= 2.535808D+00
              MO Center=  3.7D-01, -3.3D+00, -4.8D-01, r^2= 2.5D+01
   Bfn.  Coefficient  Atom+Function         Bfn.  Coefficient  Atom+Function  
  ----- ------------  ---------------      ----- ------------  ---------------
   369     -0.455285  25 C  d  2            272      0.432988  15 C  d -1      
   273     -0.431480  15 C  d  0            284      0.420374  17 H  py        
   275     -0.358631  15 C  d  2            382     -0.348245  28 H  px        
   290      0.340849  18 H  pz              368     -0.331839  25 C  d  1      
   365      0.323950  25 C  d -2            269     -0.293393  15 C  py        

 Vector  339  Occ=0.000000D+00  E= 2.535990D+00
              MO Center= -6.8D-01, -3.4D+00,  5.6D-01, r^2= 2.3D+01
   Bfn.  Coefficient  Atom+Function         Bfn.  Coefficient  Atom+Function  
  ----- ------------  ---------------      ----- ------------  ---------------
   369      0.576481  25 C  d  2            365     -0.434354  25 C  d -2      
   378     -0.407098  27 H  py              272      0.371040  15 C  d -1      
   273     -0.362528  15 C  d  0            284      0.361905  17 H  py        
   372     -0.347264  26 H  px              382      0.341580  28 H  px        
   275     -0.316626  15 C  d  2            363      0.307292  25 C  py        

 Vector  340  Occ=0.000000D+00  E= 2.536022D+00
              MO Center= -6.3D-01, -3.4D+00,  7.5D-01, r^2= 2.3D+01
   Bfn.  Coefficient  Atom+Function         Bfn.  Coefficient  Atom+Function  
  ----- ------------  ---------------      ----- ------------  ---------------
   367      0.571310  25 C  d  0            366     -0.444921  25 C  d -1      
   374     -0.441969  26 H  pz              275      0.414592  15 C  d  2      
   288     -0.351930  18 H  px              383      0.346606  28 H  py        
   271     -0.344091  15 C  d -2            364      0.294604  25 C  pz        
   368     -0.282916  25 C  d  1            274     -0.278642  15 C  d  1      

 Vector  341  Occ=0.000000D+00  E= 2.537198D+00
              MO Center= -1.4D-02,  3.3D+00,  1.2D-01, r^2= 2.5D+01
   Bfn.  Coefficient  Atom+Function         Bfn.  Coefficient  Atom+Function  
  ----- ------------  ---------------      ----- ------------  ---------------
   226      0.530883  10 C  d  0            322     -0.440506  20 C  d  2      
   233     -0.386255  11 H  pz              335     -0.382764  23 H  px        
   225      0.372646  10 C  d -1            318      0.370607  20 C  d -2      
   227      0.335427  10 C  d  1            321     -0.325406  20 C  d  1      
   241      0.290745  13 H  px              242     -0.283926  13 H  py        

 Vector  342  Occ=0.000000D+00  E= 2.537216D+00
              MO Center=  1.4D-01,  3.3D+00,  1.6D-02, r^2= 2.5D+01
   Bfn.  Coefficient  Atom+Function         Bfn.  Coefficient  Atom+Function  
  ----- ------------  ---------------      ----- ------------  ---------------
   228      0.530410  10 C  d  2            320      0.481103  20 C  d  0      
   224     -0.397331  10 C  d -2            319      0.385107  20 C  d -1      
   237      0.369611  12 H  py              331      0.356546  22 H  py        
   241     -0.324827  13 H  px              327      0.323787  21 H  pz        
   231      0.318518  11 H  px              337     -0.309371  23 H  pz        

 Vector  343  Occ=0.000000D+00  E= 2.537352D+00
              MO Center= -8.9D-03,  3.4D+00, -1.3D-01, r^2= 2.4D+01
   Bfn.  Coefficient  Atom+Function         Bfn.  Coefficient  Atom+Function  
  ----- ------------  ---------------      ----- ------------  ---------------
   228      0.524707  10 C  d  2            320     -0.453932  20 C  d  0      
   319     -0.411385  20 C  d -1            224     -0.404469  10 C  d -2      
   331     -0.391865  22 H  py              237      0.387465  12 H  py        
   337      0.326180  23 H  pz              231      0.319891  11 H  px        
   327     -0.289767  21 H  pz              322     -0.287447  20 C  d  2      

 Vector  344  Occ=0.000000D+00  E= 2.537373D+00
              MO Center= -1.2D-01,  3.4D+00,  4.4D-03, r^2= 2.4D+01
   Bfn.  Coefficient  Atom+Function         Bfn.  Coefficient  Atom+Function  
  ----- ------------  ---------------      ----- ------------  ---------------
   226      0.524604  10 C  d  0            322      0.495202  20 C  d  2      
   318     -0.402566  20 C  d -2            335      0.404488  23 H  px        
   233     -0.396566  11 H  pz              225      0.392853  10 C  d -1      
   326     -0.311696  21 H  py              242     -0.303505  13 H  py        
   227      0.287804  10 C  d  1            321      0.283787  20 C  d  1      

 Vector  345  Occ=0.000000D+00  E= 2.805783D+00
              MO Center=  3.6D-01, -3.2D+00, -3.6D-01, r^2= 2.6D+01
   Bfn.  Coefficient  Atom+Function         Bfn.  Coefficient  Atom+Function  
  ----- ------------  ---------------      ----- ------------  ---------------
   263      1.132050  15 C  s               357      1.015202  25 C  s         
   264      0.637584  15 C  s               358      0.570587  25 C  s         
   278      0.555458  16 H  px              285     -0.555583  17 H  pz        
   289     -0.555424  18 H  py              276     -0.503027  16 H  s         
   281     -0.502975  17 H  s               286     -0.502637  18 H  s         

 Vector  346  Occ=0.000000D+00  E= 2.806144D+00
              MO Center= -3.6D-01, -3.4D+00,  3.6D-01, r^2= 2.5D+01
   Bfn.  Coefficient  Atom+Function         Bfn.  Coefficient  Atom+Function  
  ----- ------------  ---------------      ----- ------------  ---------------
   357      1.145770  25 C  s               263     -1.031348  15 C  s         
   358      0.656201  25 C  s               264     -0.591879  15 C  s         
   373     -0.562590  26 H  py              377     -0.562626  27 H  px        
   384      0.563039  28 H  pz              370     -0.509702  26 H  s         
   375     -0.509527  27 H  s               380     -0.509883  28 H  s         

 Vector  347  Occ=0.000000D+00  E= 2.807646D+00
              MO Center=  2.1D-02,  3.2D+00,  2.6D-02, r^2= 2.6D+01
   Bfn.  Coefficient  Atom+Function         Bfn.  Coefficient  Atom+Function  
  ----- ------------  ---------------      ----- ------------  ---------------
   216      1.077766  10 C  s               310      1.070242  20 C  s         
   217      0.611638  10 C  s               311      0.607312  20 C  s         
   232      0.529422  11 H  py              236      0.529392  12 H  px        
   243      0.529045  13 H  pz              325     -0.525348  21 H  px        
   332     -0.525695  22 H  pz              336      0.525725  23 H  py        

 Vector  348  Occ=0.000000D+00  E= 2.807910D+00
              MO Center= -2.4D-02,  3.4D+00, -2.3D-02, r^2= 2.5D+01
   Bfn.  Coefficient  Atom+Function         Bfn.  Coefficient  Atom+Function  
  ----- ------------  ---------------      ----- ------------  ---------------
   310     -1.092881  20 C  s               216      1.085446  10 C  s         
   311     -0.628562  20 C  s               217      0.624340  10 C  s         
   325      0.537290  21 H  px              332      0.536951  22 H  pz        
   336     -0.537117  23 H  py              232      0.533466  11 H  py        
   236      0.533299  12 H  px              243      0.533636  13 H  pz        

 Vector  349  Occ=0.000000D+00  E= 3.005151D+00
              MO Center=  2.4D+00, -3.3D+00, -2.4D+00, r^2= 1.4D+01
   Bfn.  Coefficient  Atom+Function         Bfn.  Coefficient  Atom+Function  
  ----- ------------  ---------------      ----- ------------  ---------------
   276      0.993848  16 H  s               278     -0.885496  16 H  px        
   265     -0.817326  15 C  px              281     -0.795961  17 H  s         
   273      0.755304  15 C  d  0            274     -0.739908  15 C  d  1      
   285     -0.697237  17 H  pz              268     -0.562862  15 C  px        
   271     -0.555276  15 C  d -2            266     -0.544599  15 C  py        

 Vector  350  Occ=0.000000D+00  E= 3.005171D+00
              MO Center=  4.5D-02, -3.4D+00,  3.8D-02, r^2= 2.5D+01
   Bfn.  Coefficient  Atom+Function         Bfn.  Coefficient  Atom+Function  
  ----- ------------  ---------------      ----- ------------  ---------------
   286      0.817658  18 H  s               380     -0.792681  28 H  s         
   289      0.724551  18 H  py              384      0.704281  28 H  pz        
   275      0.617022  15 C  d  2            361      0.587694  25 C  pz        
   267     -0.577559  15 C  pz              367      0.566048  25 C  d  0      
   272      0.557145  15 C  d -1            266      0.542822  15 C  py        

 Vector  351  Occ=0.000000D+00  E= 3.005252D+00
              MO Center= -2.2D-01, -3.4D+00,  3.4D-01, r^2= 2.4D+01
   Bfn.  Coefficient  Atom+Function         Bfn.  Coefficient  Atom+Function  
  ----- ------------  ---------------      ----- ------------  ---------------
   380      0.824203  28 H  s               286      0.770579  18 H  s         
   384     -0.728779  28 H  pz              289      0.681229  18 H  py        
   367     -0.650293  25 C  d  0            360     -0.623131  25 C  py        
   366     -0.593189  25 C  d -1            267     -0.587079  15 C  pz        
   275      0.562588  15 C  d  2            272      0.558248  15 C  d -1      

 Vector  352  Occ=0.000000D+00  E= 3.005274D+00
              MO Center= -2.2D+00, -3.5D+00,  2.0D+00, r^2= 1.5D+01
   Bfn.  Coefficient  Atom+Function         Bfn.  Coefficient  Atom+Function  
  ----- ------------  ---------------      ----- ------------  ---------------
   370     -0.902672  26 H  s               375      0.897748  27 H  s         
   359      0.822050  25 C  px              377      0.802377  27 H  px        
   373     -0.793902  26 H  py              369     -0.775376  25 C  d  2      
   365     -0.757886  25 C  d -2            362      0.566668  25 C  px        
   281      0.465552  17 H  s               372      0.444100  26 H  px        

 Vector  353  Occ=0.000000D+00  E= 3.006541D+00
              MO Center= -1.1D-01,  3.3D+00, -3.2D-01, r^2= 2.5D+01
   Bfn.  Coefficient  Atom+Function         Bfn.  Coefficient  Atom+Function  
  ----- ------------  ---------------      ----- ------------  ---------------
   328     -0.780038  22 H  s               234      0.770151  12 H  s         
   332     -0.688105  22 H  pz              236     -0.681063  12 H  px        
   312      0.651165  20 C  px              320      0.651755  20 C  d  0      
   323      0.645817  21 H  s               321      0.609026  20 C  d  1      
   220      0.589387  10 C  pz              325      0.579256  21 H  px        

 Vector  354  Occ=0.000000D+00  E= 3.006542D+00
              MO Center=  2.1D-01,  3.3D+00,  4.6D-01, r^2= 2.5D+01
   Bfn.  Coefficient  Atom+Function         Bfn.  Coefficient  Atom+Function  
  ----- ------------  ---------------      ----- ------------  ---------------
   239      0.804754  13 H  s               243     -0.710273  13 H  pz        
   323      0.688115  21 H  s               226     -0.663618  10 C  d  0      
   219      0.656873  10 C  py              333     -0.643654  23 H  s         
   229     -0.633687  11 H  s               225      0.616798  10 C  d -1      
   313      0.608153  20 C  py              325      0.605861  21 H  px        

 Vector  355  Occ=0.000000D+00  E= 3.006612D+00
              MO Center= -1.5D-01,  3.5D+00,  7.3D-02, r^2= 2.4D+01
   Bfn.  Coefficient  Atom+Function         Bfn.  Coefficient  Atom+Function  
  ----- ------------  ---------------      ----- ------------  ---------------
   229      0.788196  11 H  s               333     -0.787905  23 H  s         
   232     -0.700843  11 H  py              336      0.701058  23 H  py        
   322     -0.638049  20 C  d  2            313      0.623234  20 C  py        
   219     -0.608364  10 C  py              323      0.577286  21 H  s         
   318     -0.560145  20 C  d -2            225     -0.544216  10 C  d -1      

 Vector  356  Occ=0.000000D+00  E= 3.006632D+00
              MO Center=  4.4D-02,  3.4D+00, -2.1D-01, r^2= 2.4D+01
   Bfn.  Coefficient  Atom+Function         Bfn.  Coefficient  Atom+Function  
  ----- ------------  ---------------      ----- ------------  ---------------
   328      0.812820  22 H  s               234      0.795580  12 H  s         
   332      0.722043  22 H  pz              236     -0.706424  12 H  px        
   228     -0.623733  10 C  d  2            314      0.604408  20 C  pz        
   218     -0.582083  10 C  px              320     -0.579164  20 C  d  0      
   319      0.536683  20 C  d -1            224     -0.515151  10 C  d -2      

 Vector  357  Occ=0.000000D+00  E= 4.155389D+00
              MO Center= -1.2D-02, -9.5D-01,  1.2D-02, r^2= 2.2D+00
   Bfn.  Coefficient  Atom+Function         Bfn.  Coefficient  Atom+Function  
  ----- ------------  ---------------      ----- ------------  ---------------
   120      0.444663   4 Fe f -1             58      0.438596   2 Fe f -1      
   118     -0.344073   4 Fe f -3             56     -0.340256   2 Fe f -3      
   124      0.306687   4 Fe f  3             62     -0.303520   2 Fe f  3      
   121     -0.225081   4 Fe f  0             59      0.222236   2 Fe f  0      
   123     -0.210814   4 Fe f  2             61      0.207633   2 Fe f  2      

 Vector  358  Occ=0.000000D+00  E= 4.156439D+00
              MO Center= -1.5D-02, -9.5D-01,  1.5D-02, r^2= 2.2D+00
   Bfn.  Coefficient  Atom+Function         Bfn.  Coefficient  Atom+Function  
  ----- ------------  ---------------      ----- ------------  ---------------
   124      0.390059   4 Fe f  3             62      0.383436   2 Fe f  3      
   118     -0.342744   4 Fe f -3             56      0.336958   2 Fe f -3      
   121      0.308042   4 Fe f  0             59      0.305184   2 Fe f  0      
   120     -0.265164   4 Fe f -1             58      0.261301   2 Fe f -1      
   123      0.238044   4 Fe f  2             61      0.233439   2 Fe f  2      

 Vector  359  Occ=0.000000D+00  E= 4.159098D+00
              MO Center= -3.7D-03, -9.5D-01,  3.7D-03, r^2= 2.2D+00
   Bfn.  Coefficient  Atom+Function         Bfn.  Coefficient  Atom+Function  
  ----- ------------  ---------------      ----- ------------  ---------------
    59      0.396836   2 Fe f  0            121     -0.397569   4 Fe f  0      
    62     -0.381558   2 Fe f  3            124      0.381463   4 Fe f  3      
   120     -0.318301   4 Fe f -1             58     -0.315193   2 Fe f -1      
   118      0.245892   4 Fe f -3             56      0.243124   2 Fe f -3      
    60      0.156787   2 Fe f  1            122     -0.157080   4 Fe f  1      

 Vector  360  Occ=0.000000D+00  E= 4.160383D+00
              MO Center=  1.2D-02, -9.5D-01, -1.2D-02, r^2= 2.2D+00
   Bfn.  Coefficient  Atom+Function         Bfn.  Coefficient  Atom+Function  
  ----- ------------  ---------------      ----- ------------  ---------------
    58      0.443789   2 Fe f -1            120     -0.437174   4 Fe f -1      
    56     -0.344222   2 Fe f -3            118      0.338109   4 Fe f -3      
    62     -0.294668   2 Fe f  3            124     -0.292077   4 Fe f  3      
    61      0.252834   2 Fe f  2            123      0.251267   4 Fe f  2      
    59      0.176131   2 Fe f  0            121      0.175347   4 Fe f  0      

 Vector  361  Occ=0.000000D+00  E= 4.160579D+00
              MO Center=  1.4D-02, -9.4D-01, -1.4D-02, r^2= 2.3D+00
   Bfn.  Coefficient  Atom+Function         Bfn.  Coefficient  Atom+Function  
  ----- ------------  ---------------      ----- ------------  ---------------
    62      0.371412   2 Fe f  3            124     -0.365847   4 Fe f  3      
    56      0.328710   2 Fe f -3             61      0.326219   2 Fe f  2      
   118      0.323599   4 Fe f -3            123     -0.322620   4 Fe f  2      
    58      0.254642   2 Fe f -1            120      0.249655   4 Fe f -1      
    59      0.219064   2 Fe f  0            121     -0.213685   4 Fe f  0      

 Vector  362  Occ=0.000000D+00  E= 4.166557D+00
              MO Center= -7.5D-03, -9.5D-01,  7.5D-03, r^2= 2.2D+00
   Bfn.  Coefficient  Atom+Function         Bfn.  Coefficient  Atom+Function  
  ----- ------------  ---------------      ----- ------------  ---------------
   119      0.594423   4 Fe f -2             57      0.588315   2 Fe f -2      
    56      0.287337   2 Fe f -3            118      0.288358   4 Fe f -3      
    58      0.222155   2 Fe f -1            120      0.222837   4 Fe f -1      
    61     -0.093258   2 Fe f  2            123      0.092501   4 Fe f  2      
    60     -0.079081   2 Fe f  1            122      0.078539   4 Fe f  1      

 Vector  363  Occ=0.000000D+00  E= 4.168532D+00
              MO Center= -4.0D-03, -9.6D-01,  4.0D-03, r^2= 2.2D+00
   Bfn.  Coefficient  Atom+Function         Bfn.  Coefficient  Atom+Function  
  ----- ------------  ---------------      ----- ------------  ---------------
    57      0.393886   2 Fe f -2            119     -0.392542   4 Fe f -2      
   123      0.384161   4 Fe f  2             61      0.381827   2 Fe f  2      
   122      0.349274   4 Fe f  1             60      0.346937   2 Fe f  1      
    62      0.176652   2 Fe f  3            124      0.177025   4 Fe f  3      
   118      0.160565   4 Fe f -3             56     -0.157244   2 Fe f -3      

 Vector  364  Occ=0.000000D+00  E= 4.171409D+00
              MO Center= -2.4D-01, -9.4D-01,  2.4D-01, r^2= 2.1D+00
   Bfn.  Coefficient  Atom+Function         Bfn.  Coefficient  Atom+Function  
  ----- ------------  ---------------      ----- ------------  ---------------
   123      0.478610   4 Fe f  2            122     -0.387291   4 Fe f  1      
    61      0.344212   2 Fe f  2            120      0.323696   4 Fe f -1      
    58     -0.284379   2 Fe f -1            124     -0.281072   4 Fe f  3      
   118     -0.250593   4 Fe f -3             62     -0.249027   2 Fe f  3      
    60     -0.241796   2 Fe f  1             56      0.220336   2 Fe f -3      

 Vector  365  Occ=0.000000D+00  E= 4.171578D+00
              MO Center=  2.4D-01, -9.5D-01, -2.4D-01, r^2= 2.1D+00
   Bfn.  Coefficient  Atom+Function         Bfn.  Coefficient  Atom+Function  
  ----- ------------  ---------------      ----- ------------  ---------------
    60      0.516270   2 Fe f  1             61     -0.499101   2 Fe f  2      
   122     -0.420177   4 Fe f  1            123      0.371493   4 Fe f  2      
   121     -0.205823   4 Fe f  0             59      0.199072   2 Fe f  0      
    58      0.177730   2 Fe f -1             62      0.148122   2 Fe f  3      
    56     -0.136948   2 Fe f -3            120      0.083091   4 Fe f -1      

 Vector  366  Occ=0.000000D+00  E= 4.174867D+00
              MO Center=  6.4D-03, -9.2D-01, -6.4D-03, r^2= 2.3D+00
   Bfn.  Coefficient  Atom+Function         Bfn.  Coefficient  Atom+Function  
  ----- ------------  ---------------      ----- ------------  ---------------
    57      0.545403   2 Fe f -2            119     -0.540467   4 Fe f -2      
    56      0.288973   2 Fe f -3            118     -0.287582   4 Fe f -3      
   128     -0.225321   5 S  s               164      0.225441   7 S  s         
    58      0.224164   2 Fe f -1            120     -0.223074   4 Fe f -1      
    61     -0.182013   2 Fe f  2            123     -0.182768   4 Fe f  2      

 Vector  367  Occ=0.000000D+00  E= 4.179286D+00
              MO Center=  5.4D-03, -9.2D-01, -5.4D-03, r^2= 2.3D+00
   Bfn.  Coefficient  Atom+Function         Bfn.  Coefficient  Atom+Function  
  ----- ------------  ---------------      ----- ------------  ---------------
    61      0.364321   2 Fe f  2            123     -0.362308   4 Fe f  2      
    60      0.357755   2 Fe f  1            122     -0.354804   4 Fe f  1      
    57      0.318258   2 Fe f -2            119      0.317177   4 Fe f -2      
    56     -0.256227   2 Fe f -3            118     -0.254938   4 Fe f -3      
    58     -0.198792   2 Fe f -1            120     -0.197222   4 Fe f -1      

 Vector  368  Occ=0.000000D+00  E= 4.180814D+00
              MO Center=  3.4D-03, -9.2D-01, -3.4D-03, r^2= 2.3D+00
   Bfn.  Coefficient  Atom+Function         Bfn.  Coefficient  Atom+Function  
  ----- ------------  ---------------      ----- ------------  ---------------
    59      0.464112   2 Fe f  0            121      0.462383   4 Fe f  0      
    60      0.373665   2 Fe f  1            122      0.372419   4 Fe f  1      
    62     -0.297431   2 Fe f  3            124     -0.296497   4 Fe f  3      
   146     -0.284820   6 S  s               182      0.284635   8 S  s         
    58     -0.153444   2 Fe f -1            120      0.153174   4 Fe f -1      

 Vector  369  Occ=0.000000D+00  E= 4.199891D+00
              MO Center= -2.3D-03, -9.5D-01,  2.3D-03, r^2= 2.3D+00
   Bfn.  Coefficient  Atom+Function         Bfn.  Coefficient  Atom+Function  
  ----- ------------  ---------------      ----- ------------  ---------------
    59      0.387567   2 Fe f  0            121      0.388668   4 Fe f  0      
    60     -0.330465   2 Fe f  1            122     -0.331292   4 Fe f  1      
    56     -0.290911   2 Fe f -3            118      0.291280   4 Fe f -3      
    62      0.234286   2 Fe f  3            124      0.235109   4 Fe f  3      
    58     -0.225369   2 Fe f -1            120      0.225816   4 Fe f -1      

 Vector  370  Occ=0.000000D+00  E= 4.222257D+00
              MO Center=  2.3D-03, -8.0D-01, -2.3D-03, r^2= 2.6D+00
   Bfn.  Coefficient  Atom+Function         Bfn.  Coefficient  Atom+Function  
  ----- ------------  ---------------      ----- ------------  ---------------
   146      0.465726   6 S  s               182      0.465750   8 S  s         
    59     -0.419806   2 Fe f  0            121      0.418738   4 Fe f  0      
    35     -0.382688   2 Fe s                97     -0.382138   4 Fe s         
    60      0.305687   2 Fe f  1            122     -0.304916   4 Fe f  1      
    62     -0.294213   2 Fe f  3            124      0.293544   4 Fe f  3      

 Vector  371  Occ=0.000000D+00  E= 4.274014D+00
              MO Center=  4.4D-03,  9.5D-01,  4.3D-03, r^2= 2.2D+00
   Bfn.  Coefficient  Atom+Function         Bfn.  Coefficient  Atom+Function  
  ----- ------------  ---------------      ----- ------------  ---------------
    30      0.413707   1 Fe f  2             92      0.411965   3 Fe f  2      
    31     -0.394885   1 Fe f  3             93     -0.393300   3 Fe f  3      
    25      0.238747   1 Fe f -3             87     -0.237553   3 Fe f -3      
    29     -0.217244   1 Fe f  1             91     -0.215615   3 Fe f  1      
    27      0.185110   1 Fe f -1             89     -0.184361   3 Fe f -1      

 Vector  372  Occ=0.000000D+00  E= 4.276547D+00
              MO Center= -4.3D-03,  9.3D-01, -4.3D-03, r^2= 2.3D+00
   Bfn.  Coefficient  Atom+Function         Bfn.  Coefficient  Atom+Function  
  ----- ------------  ---------------      ----- ------------  ---------------
    30      0.423391   1 Fe f  2             92     -0.424890   3 Fe f  2      
    93      0.371538   3 Fe f  3             31     -0.369398   1 Fe f  3      
    87      0.246929   3 Fe f -3             25      0.245617   1 Fe f -3      
    29     -0.242176   1 Fe f  1             91      0.243096   3 Fe f  1      
    27      0.192491   1 Fe f -1             89      0.193302   3 Fe f -1      

 Vector  373  Occ=0.000000D+00  E= 4.276936D+00
              MO Center=  6.8D-03,  9.5D-01,  6.8D-03, r^2= 2.2D+00
   Bfn.  Coefficient  Atom+Function         Bfn.  Coefficient  Atom+Function  
  ----- ------------  ---------------      ----- ------------  ---------------
    30      0.459486   1 Fe f  2             92     -0.455750   3 Fe f  2      
    29      0.367434   1 Fe f  1             91     -0.364650   3 Fe f  1      
    31      0.284109   1 Fe f  3             93     -0.282289   3 Fe f  3      
    27      0.217518   1 Fe f -1             89      0.216359   3 Fe f -1      
    25     -0.170343   1 Fe f -3             87     -0.169935   3 Fe f -3      

 Vector  374  Occ=0.000000D+00  E= 4.278717D+00
              MO Center= -6.8D-03,  9.5D-01, -6.8D-03, r^2= 2.2D+00
   Bfn.  Coefficient  Atom+Function         Bfn.  Coefficient  Atom+Function  
  ----- ------------  ---------------      ----- ------------  ---------------
    92      0.484340   3 Fe f  2             30      0.480959   1 Fe f  2      
    91      0.398150   3 Fe f  1             29      0.395685   1 Fe f  1      
    93      0.277777   3 Fe f  3             31      0.275905   1 Fe f  3      
    89     -0.141289   3 Fe f -1             27      0.139131   1 Fe f -1      
    87      0.109000   3 Fe f -3             25     -0.107968   1 Fe f -3      

 Vector  375  Occ=0.000000D+00  E= 4.281074D+00
              MO Center= -6.2D-05,  9.5D-01, -5.0D-05, r^2= 2.2D+00
   Bfn.  Coefficient  Atom+Function         Bfn.  Coefficient  Atom+Function  
  ----- ------------  ---------------      ----- ------------  ---------------
    28      0.441986   1 Fe f  0             90     -0.442265   3 Fe f  0      
    29     -0.342510   1 Fe f  1             91      0.342604   3 Fe f  1      
    31      0.293690   1 Fe f  3             93     -0.293312   3 Fe f  3      
    27      0.240870   1 Fe f -1             89      0.241021   3 Fe f -1      
    25     -0.187298   1 Fe f -3             87     -0.186998   3 Fe f -3      

 Vector  376  Occ=0.000000D+00  E= 4.282435D+00
              MO Center=  3.7D-03,  9.5D-01,  3.7D-03, r^2= 2.3D+00
   Bfn.  Coefficient  Atom+Function         Bfn.  Coefficient  Atom+Function  
  ----- ------------  ---------------      ----- ------------  ---------------
    26      0.660242   1 Fe f -2             88      0.656760   3 Fe f -2      
    25     -0.189974   1 Fe f -3             87     -0.190829   3 Fe f -3      
    89     -0.149195   3 Fe f -1             27     -0.148121   1 Fe f -1      
   217     -0.081999  10 C  s               311     -0.081401  20 C  s         
    92     -0.062168   3 Fe f  2             30      0.060682   1 Fe f  2      

 Vector  377  Occ=0.000000D+00  E= 4.284105D+00
              MO Center= -3.2D-03,  9.6D-01, -3.1D-03, r^2= 2.2D+00
   Bfn.  Coefficient  Atom+Function         Bfn.  Coefficient  Atom+Function  
  ----- ------------  ---------------      ----- ------------  ---------------
    88     -0.565841   3 Fe f -2             26      0.562100   1 Fe f -2      
    29      0.225953   1 Fe f  1             91      0.226268   3 Fe f  1      
    25      0.210580   1 Fe f -3             87     -0.209422   3 Fe f -3      
    28      0.191804   1 Fe f  0             90      0.191799   3 Fe f  0      
    27      0.162600   1 Fe f -1             89     -0.161425   3 Fe f -1      

 Vector  378  Occ=0.000000D+00  E= 4.289090D+00
              MO Center= -4.0D-03,  9.4D-01, -4.0D-03, r^2= 2.2D+00
   Bfn.  Coefficient  Atom+Function         Bfn.  Coefficient  Atom+Function  
  ----- ------------  ---------------      ----- ------------  ---------------
    89     -0.460502   3 Fe f -1             27      0.456635   1 Fe f -1      
    87      0.357040   3 Fe f -3             25     -0.353764   1 Fe f -3      
    28      0.269888   1 Fe f  0             90      0.267880   3 Fe f  0      
    29     -0.237737   1 Fe f  1             91     -0.237777   3 Fe f  1      
    31      0.156707   1 Fe f  3             93      0.153951   3 Fe f  3      

 Vector  379  Occ=0.000000D+00  E= 4.289744D+00
              MO Center=  3.6D-03,  9.5D-01,  3.6D-03, r^2= 2.2D+00
   Bfn.  Coefficient  Atom+Function         Bfn.  Coefficient  Atom+Function  
  ----- ------------  ---------------      ----- ------------  ---------------
    27      0.456453   1 Fe f -1             89      0.452608   3 Fe f -1      
    25     -0.354229   1 Fe f -3             87     -0.350960   3 Fe f -3      
    93      0.291359   3 Fe f  3             31     -0.289752   1 Fe f  3      
    90      0.235098   3 Fe f  0             28     -0.232688   1 Fe f  0      
    30     -0.173243   1 Fe f  2             92      0.172972   3 Fe f  2      

 Vector  380  Occ=0.000000D+00  E= 4.295720D+00
              MO Center= -7.0D-04,  9.1D-01, -7.2D-04, r^2= 2.3D+00
   Bfn.  Coefficient  Atom+Function         Bfn.  Coefficient  Atom+Function  
  ----- ------------  ---------------      ----- ------------  ---------------
    26      0.410797   1 Fe f -2             88     -0.411131   3 Fe f -2      
    25     -0.315826   1 Fe f -3             87      0.316297   3 Fe f -3      
    29     -0.284311   1 Fe f  1             91     -0.284517   3 Fe f  1      
   146      0.272519   6 S  s               182     -0.272608   8 S  s         
    27     -0.245262   1 Fe f -1             30      0.244592   1 Fe f  2      

 Vector  381  Occ=0.000000D+00  E= 4.301523D+00
              MO Center=  2.5D-04,  8.8D-01,  2.3D-04, r^2= 2.4D+00
   Bfn.  Coefficient  Atom+Function         Bfn.  Coefficient  Atom+Function  
  ----- ------------  ---------------      ----- ------------  ---------------
    25      0.379410   1 Fe f -3             87      0.378975   3 Fe f -3      
   146     -0.334612   6 S  s               182     -0.334212   8 S  s         
    29      0.322520   1 Fe f  1             91     -0.322746   3 Fe f  1      
    27      0.294093   1 Fe f -1             89      0.293599   3 Fe f -1      
    30     -0.260699   1 Fe f  2             92      0.260660   3 Fe f  2      

 Vector  382  Occ=0.000000D+00  E= 4.308556D+00
              MO Center=  7.8D-05,  9.5D-01,  7.2D-05, r^2= 2.3D+00
   Bfn.  Coefficient  Atom+Function         Bfn.  Coefficient  Atom+Function  
  ----- ------------  ---------------      ----- ------------  ---------------
    28      0.399765   1 Fe f  0             90      0.399397   3 Fe f  0      
    25     -0.326820   1 Fe f -3             87      0.327140   3 Fe f -3      
    31     -0.298635   1 Fe f  3             93     -0.298575   3 Fe f  3      
   146      0.273373   6 S  s               182     -0.273630   8 S  s         
    29      0.266145   1 Fe f  1             91      0.265723   3 Fe f  1      

 Vector  383  Occ=0.000000D+00  E= 4.310718D+00
              MO Center=  4.2D-04,  9.3D-01,  4.0D-04, r^2= 2.3D+00
   Bfn.  Coefficient  Atom+Function         Bfn.  Coefficient  Atom+Function  
  ----- ------------  ---------------      ----- ------------  ---------------
    28      0.416724   1 Fe f  0             90      0.416544   3 Fe f  0      
    31      0.382606   1 Fe f  3             93      0.382458   3 Fe f  3      
   128     -0.379047   5 S  s               164      0.379108   7 S  s         
    27     -0.286837   1 Fe f -1             89      0.286665   3 Fe f -1      
    25      0.223047   1 Fe f -3             87     -0.222769   3 Fe f -3      

 Vector  384  Occ=0.000000D+00  E= 4.345896D+00
              MO Center= -1.7D-04,  8.5D-01, -2.2D-04, r^2= 2.5D+00
   Bfn.  Coefficient  Atom+Function         Bfn.  Coefficient  Atom+Function  
  ----- ------------  ---------------      ----- ------------  ---------------
   128      0.633225   5 S  s               164      0.633277   7 S  s         
     4     -0.484991   1 Fe s                66     -0.485060   3 Fe s         
    28      0.433882   1 Fe f  0             90     -0.433927   3 Fe f  0      
   146      0.373762   6 S  s               182      0.373843   8 S  s         
    31     -0.328592   1 Fe f  3             93      0.328671   3 Fe f  3      


     ---------------------------------------------
      Total Density - Mulliken Population Analysis
     ---------------------------------------------

    Atom       Charge   Shell Charges
 -----------   ------   -------------------------------------------------------
    1 Fe  26    25.73   2.00  2.00  1.99  0.55  0.00  6.00  6.00  0.79  4.75  1.65  0.00
    2 Fe  26    25.73   2.00  2.00  1.99  0.55  0.00  6.00  6.00  0.79  4.75  1.65  0.00
    3 Fe  26    25.73   2.00  2.00  1.99  0.55  0.00  6.00  6.00  0.79  4.75  1.65  0.00
    4 Fe  26    25.73   2.00  2.00  1.99  0.55  0.00  6.00  6.00  0.79  4.75  1.65  0.00
    5 S   16    16.32   2.00  1.98  1.26  0.64  5.92  1.78  2.69  0.05
    6 S   16    16.32   2.00  1.98  1.26  0.64  5.92  1.78  2.69  0.05
    7 S   16    16.32   2.00  1.98  1.26  0.64  5.92  1.78  2.69  0.05
    8 S   16    16.32   2.00  1.98  1.26  0.64  5.92  1.78  2.69  0.05
    9 S   16    16.45   2.00  1.98  1.22  0.60  5.92  1.83  2.85  0.05
   10 C    6     6.07   1.98  0.92  0.12  2.09  0.92  0.03
   11 H    1     0.98   0.74  0.21  0.02
   12 H    1     0.98   0.74  0.21  0.02
   13 H    1     0.98   0.74  0.21  0.02
   14 S   16    16.45   2.00  1.98  1.22  0.60  5.92  1.83  2.85  0.05
   15 C    6     6.07   1.98  0.92  0.12  2.09  0.92  0.03
   16 H    1     0.98   0.74  0.21  0.02
   17 H    1     0.98   0.74  0.21  0.02
   18 H    1     0.98   0.74  0.21  0.02
   19 S   16    16.45   2.00  1.98  1.22  0.60  5.92  1.83  2.85  0.05
   20 C    6     6.07   1.98  0.92  0.12  2.09  0.92  0.03
   21 H    1     0.98   0.74  0.21  0.02
   22 H    1     0.98   0.74  0.21  0.02
   23 H    1     0.98   0.74  0.21  0.02
   24 S   16    16.45   2.00  1.98  1.22  0.60  5.92  1.83  2.85  0.05
   25 C    6     6.07   1.98  0.92  0.12  2.09  0.92  0.03
   26 H    1     0.98   0.74  0.21  0.02
   27 H    1     0.98   0.74  0.21  0.02
   28 H    1     0.98   0.74  0.21  0.02

     --------------------------------------------
      Spin Density - Mulliken Population Analysis
     --------------------------------------------

    Atom       Charge   Shell Charges
 -----------   ------   -------------------------------------------------------
    1 Fe  26     3.50   0.00 -0.00  0.00  0.10  0.03 -0.00  0.01  0.17  2.68  0.52 -0.00
    2 Fe  26    -3.50  -0.00  0.00 -0.00 -0.10 -0.03  0.00 -0.01 -0.17 -2.68 -0.52  0.00
    3 Fe  26     3.50   0.00 -0.00  0.00  0.10  0.03 -0.00  0.01  0.17  2.68  0.52 -0.00
    4 Fe  26    -3.50  -0.00  0.00 -0.00 -0.10 -0.03  0.00 -0.01 -0.17 -2.68 -0.52  0.00
    5 S   16     0.08   0.00  0.00  0.01 -0.02  0.00  0.05  0.04  0.00
    6 S   16    -0.08  -0.00 -0.00 -0.01  0.02 -0.00 -0.05 -0.04 -0.00
    7 S   16     0.08   0.00  0.00  0.01 -0.02  0.00  0.05  0.04  0.00
    8 S   16    -0.08  -0.00 -0.00 -0.01  0.02 -0.00 -0.05 -0.04 -0.00
    9 S   16     0.24   0.00  0.00  0.02 -0.01  0.00  0.12  0.10  0.01
   10 C    6     0.02   0.00  0.00 -0.00  0.01  0.01  0.00
   11 H    1     0.01   0.01  0.00  0.00
   12 H    1     0.01   0.01  0.00  0.00
   13 H    1     0.01   0.01  0.00  0.00
   14 S   16    -0.24  -0.00 -0.00 -0.02  0.01 -0.00 -0.12 -0.10 -0.01
   15 C    6    -0.02  -0.00 -0.00  0.00 -0.01 -0.01 -0.00
   16 H    1    -0.01  -0.01 -0.00 -0.00
   17 H    1    -0.01  -0.01 -0.00 -0.00
   18 H    1    -0.01  -0.01 -0.00 -0.00
   19 S   16     0.24   0.00  0.00  0.02 -0.01  0.00  0.12  0.10  0.01
   20 C    6     0.02   0.00  0.00 -0.00  0.01  0.01  0.00
   21 H    1     0.01   0.01  0.00  0.00
   22 H    1     0.01   0.01  0.00  0.00
   23 H    1     0.01   0.01  0.00  0.00
   24 S   16    -0.24  -0.00 -0.00 -0.02  0.01 -0.00 -0.12 -0.10 -0.01
   25 C    6    -0.02  -0.00 -0.00  0.00 -0.01 -0.01 -0.00
   26 H    1    -0.01  -0.01 -0.00 -0.00
   27 H    1    -0.01  -0.01 -0.00 -0.00
   28 H    1    -0.01  -0.01 -0.00 -0.00

     -------------------------------------------
      Total Density - Lowdin Population Analysis
     -------------------------------------------

    Atom       Charge   Shell Charges
 -----------   ------   -------------------------------------------------------
    1 Fe  26    26.15   2.00  2.00  1.93  0.42  0.18  5.99  5.88  1.16  4.58  2.01  0.00
    2 Fe  26    26.15   2.00  2.00  1.93  0.42  0.18  5.99  5.88  1.16  4.58  2.01  0.00
    3 Fe  26    26.15   2.00  2.00  1.93  0.42  0.18  5.99  5.88  1.16  4.58  2.01  0.00
    4 Fe  26    26.15   2.00  2.00  1.93  0.42  0.18  5.99  5.88  1.16  4.58  2.01  0.00
    5 S   16    16.05   2.00  1.95  1.02  0.70  5.81  1.89  2.62  0.05
    6 S   16    16.05   2.00  1.95  1.02  0.70  5.81  1.89  2.62  0.05
    7 S   16    16.05   2.00  1.95  1.02  0.70  5.81  1.89  2.62  0.05
    8 S   16    16.05   2.00  1.95  1.02  0.70  5.81  1.89  2.62  0.05
    9 S   16    16.14   2.00  1.95  0.96  0.65  5.81  1.96  2.75  0.06
   10 C    6     6.19   1.96  0.60  0.33  1.85  1.36  0.08
   11 H    1     0.99   0.65  0.28  0.07
   12 H    1     0.99   0.65  0.28  0.07
   13 H    1     0.99   0.65  0.28  0.07
   14 S   16    16.14   2.00  1.95  0.96  0.65  5.81  1.96  2.75  0.06
   15 C    6     6.19   1.96  0.60  0.33  1.85  1.36  0.08
   16 H    1     0.99   0.65  0.28  0.07
   17 H    1     0.99   0.65  0.28  0.07
   18 H    1     0.99   0.65  0.28  0.07
   19 S   16    16.13   2.00  1.95  0.96  0.65  5.81  1.96  2.75  0.06
   20 C    6     6.19   1.96  0.60  0.33  1.85  1.36  0.08
   21 H    1     0.99   0.65  0.28  0.07
   22 H    1     0.99   0.65  0.28  0.07
   23 H    1     0.99   0.65  0.28  0.07
   24 S   16    16.13   2.00  1.95  0.96  0.65  5.81  1.96  2.75  0.06
   25 C    6     6.19   1.96  0.60  0.33  1.85  1.36  0.08
   26 H    1     0.99   0.65  0.28  0.07
   27 H    1     0.99   0.65  0.28  0.07
   28 H    1     0.99   0.65  0.28  0.07

     ------------------------------------------
      Spin Density - Lowdin Population Analysis
     ------------------------------------------

    Atom       Charge   Shell Charges
 -----------   ------   -------------------------------------------------------
    1 Fe  26     3.29   0.00  0.00  0.00  0.03  0.00  0.00  0.01  0.09  2.63  0.53 -0.00
    2 Fe  26    -3.29  -0.00 -0.00 -0.00 -0.03 -0.00 -0.00 -0.01 -0.09 -2.63 -0.53  0.00
    3 Fe  26     3.29   0.00  0.00  0.00  0.03  0.00  0.00  0.01  0.09  2.63  0.53 -0.00
    4 Fe  26    -3.29  -0.00 -0.00 -0.00 -0.03 -0.00 -0.00 -0.01 -0.09 -2.63 -0.53  0.00
    5 S   16     0.11   0.00  0.00  0.00 -0.00  0.00  0.05  0.06  0.00
    6 S   16    -0.11  -0.00 -0.00 -0.00  0.00 -0.00 -0.05 -0.06 -0.00
    7 S   16     0.11   0.00  0.00  0.00 -0.00  0.00  0.05  0.06  0.00
    8 S   16    -0.11  -0.00 -0.00 -0.00  0.00 -0.00 -0.05 -0.06 -0.00
    9 S   16     0.27   0.00  0.00  0.01  0.00  0.01  0.11  0.12  0.01
   10 C    6     0.02   0.00  0.00 -0.00  0.01  0.00  0.00
   11 H    1     0.01   0.00  0.00  0.00
   12 H    1     0.01   0.01  0.00  0.00
   13 H    1     0.01   0.01  0.00  0.00
   14 S   16    -0.27  -0.00 -0.00 -0.01 -0.00 -0.01 -0.11 -0.12 -0.01
   15 C    6    -0.02  -0.00 -0.00  0.00 -0.01 -0.00 -0.00
   16 H    1    -0.01  -0.01 -0.00 -0.00
   17 H    1    -0.01  -0.01 -0.00 -0.00
   18 H    1    -0.01  -0.00 -0.00 -0.00
   19 S   16     0.27   0.00  0.00  0.01  0.00  0.01  0.11  0.12  0.01
   20 C    6     0.02   0.00  0.00 -0.00  0.01  0.00  0.00
   21 H    1     0.01   0.01  0.00  0.00
   22 H    1     0.01   0.01  0.00  0.00
   23 H    1     0.01   0.00  0.00  0.00
   24 S   16    -0.27  -0.00 -0.00 -0.01 -0.00 -0.01 -0.11 -0.12 -0.01
   25 C    6    -0.02  -0.00 -0.00  0.00 -0.01 -0.00 -0.00
   26 H    1    -0.01  -0.00 -0.00 -0.00
   27 H    1    -0.01  -0.01 -0.00 -0.00
   28 H    1    -0.01  -0.01 -0.00 -0.00

   alpha - beta orbital overlaps 
   ----------------------------- 


   alpha      1      2      3      4      5      6      7      8      9     10
    beta      3      4      1      2      7      8      5      6     11     12
 overlap   0.995  0.995  1.000  1.000  0.986  0.995  0.983  0.998  1.000  1.000


   alpha     11     12     13     14     15     16     17     18     19     20
    beta      9     10     15     16     13     14     23     24     25     26
 overlap   1.000  1.000  0.998  0.998  1.000  1.000  0.999  0.999  0.998  0.998


   alpha     21     22     23     24     25     26     27     28     29     30
    beta     27     28     17     18     19     20     21     22     31     32
 overlap   0.999  0.999  0.999  0.999  0.999  0.999  1.000  1.000  1.000  1.000


   alpha     31     32     33     34     35     36     37     38     39     40
    beta     29     30     35     36     33     34     39     40     37     38
 overlap   1.000  1.000  0.991  0.995  0.988  0.995  1.000  1.000  1.000  1.000


   alpha     41     42     43     44     45     46     47     48     49     50
    beta     43     44     49     41     42     50     51     52     45     46
 overlap   1.000  1.000  0.998  0.997  0.993  0.992  1.000  1.000  0.999  0.999


   alpha     51     52     53     54     55     56     57     58     59     60
    beta     47     48     55     56     53     54     61     62     63     64
 overlap   1.000  1.000  1.000  1.000  1.000  1.000  1.000  1.000  1.000  1.000


   alpha     61     62     63     64     65     66     67     68     69     70
    beta     57     58     59     60     67     68     65     66     75     76
 overlap   1.000  1.000  1.000  1.000  1.000  1.000  0.996  0.996  0.970  0.978


   alpha     71     72     73     74     75     76     77     78     79     80
    beta     77     78     79     80     69     70     71     72     73     74
 overlap   0.970  0.978  1.000  1.000  0.969  0.976  0.970  0.978  0.996  0.996


   alpha     81     82     83     84     85     86     87     88     89     90
    beta     83     84     81     82     85     88     87     86     91     92
 overlap   1.000  1.000  1.000  1.000  0.984  0.999  0.984  0.999  0.999  0.992


   alpha     91     92     93     94     95     96     97     98     99    100
    beta     89     90     97     98     99    100     93     94     95     96
 overlap   0.999  0.992  0.896  0.887  0.713  0.716  0.918  0.916  0.909  0.910


   alpha    101    102    103    104    105    106    107    108    109    110
    beta    103    104    101    102    105    106    108    107    109    114
 overlap   0.772  0.984  0.772  0.984  0.960  0.620  0.702  0.701  0.622  0.501


   alpha    111    112    113    114    115    116    117    118    119    120
    beta    116    123    112    110    115    111    117    135    136    140
 overlap   0.544  0.638  0.465  0.501  0.665  0.546  0.564  0.695  0.519  0.512


   alpha    121    122    123    124    125    126    127    128    129    130
    beta    139    137    112    109    120    126    128    127    131    140
 overlap   0.602  0.707  0.637  0.567  0.425  0.748  0.714  0.714  0.607  0.713


   alpha    131    132    133    134    135    136    137    138    139    140
    beta    141    142    143    144    118    119    122    112    121    130
 overlap   0.675  0.579  0.811  0.813  0.696  0.519  0.708  0.547  0.602  0.713


   alpha    141    142    143    144    145    146    147    148    149    150
    beta    131    132    133    134    145    148    147    146    149    152
 overlap   0.675  0.579  0.811  0.813  0.793  0.975  0.807  0.975  0.963  0.981


   alpha    151    152    153    154    155    156    157    158    159    160
    beta    151    150    156    155    154    153    161    160    159    158
 overlap   0.943  0.981  0.726  0.940  0.939  0.726  0.985  0.945  0.942  0.952


   alpha    161    162    163    164    165    166    167    168    169    170
    beta    157    164    163    162    165    170    168    167    169    166
 overlap   0.985  0.985  0.968  0.985  0.927  0.699  0.811  0.811  0.871  0.698


   alpha    171    172    173    174    175    176    177    178    179    180
    beta    173    175    171    177    175    176    174    180    179    178
 overlap   0.712  0.595  0.711  0.798  0.662  0.871  0.798  0.992  0.991  0.992


   alpha    181    182    183    184    185    186    187    188    189    190
    beta    185    182    184    183    181    186    189    188    187    192
 overlap   0.744  0.974  0.971  0.971  0.744  0.720  0.971  0.974  0.971  0.994


   alpha    191    192    193    194    195    196    197    198    199    200
    beta    191    190    196    195    194    193    199    198    197    200
 overlap   0.984  0.994  0.996  0.996  0.996  0.996  0.997  0.966  0.996  0.848


   alpha    201    202    203    204    205    206    207    208    209    210
    beta    201    202    203    205    204    202    207    209    208    210
 overlap   0.961  0.723  0.967  0.864  0.864  0.643  0.895  0.888  0.886  0.916


   alpha    211    212    213    214    215    216    217    218    219    220
    beta    213    212    211    218    218    215    217    214    219    220
 overlap   0.958  0.974  0.957  0.783  0.560  0.532  0.558  0.785  0.840  0.744


   alpha    221    222    223    224    225    226    227    228    229    230
    beta    221    222    228    227    225    226    224    223    234    230
 overlap   0.749  0.998  0.975  0.967  0.967  0.975  0.970  0.974  0.732  0.699


   alpha    231    232    233    234    235    236    237    238    239    240
    beta    236    232    237    229    235    231    233    238    239    243
 overlap   0.936  0.989  0.940  0.733  0.555  0.935  0.941  0.845  0.791  0.727


   alpha    241    242    243    244    245    246    247    248    249    250
    beta    241    245    240    244    242    246    249    248    247    250
 overlap   0.941  0.700  0.728  0.915  0.702  0.882  0.967  0.892  0.965  0.775


   alpha    251    252    253    254    255    256    257    258    259    260
    beta    252    251    253    254    257    256    255    263    259    261
 overlap   0.887  0.868  0.954  0.959  0.982  0.955  0.982  0.672  0.992  0.793


   alpha    261    262    263    264    265    266    267    268    269    270
    beta    260    262    258    266    265    264    267    270    269    268
 overlap   0.793  0.988  0.673  0.768  0.849  0.769  0.843  0.990  0.612  0.990


   alpha    271    272    273    274    275    276    277    278    279    280
    beta    271    272    273    274    275    277    276    278    279    280
 overlap   0.773  0.988  0.978  0.799  0.994  0.764  0.763  0.949  0.715  0.526


   alpha    281    282    283    284    285    286    287    288    289    290
    beta    281    282    284    283    285    286    288    287    289    295
 overlap   0.788  0.855  0.692  0.689  0.973  0.884  0.899  0.900  0.971  0.954


   alpha    291    292    293    294    295    296    297    298    299    300
    beta    294    292    293    291    290    296    297    298    301    302
 overlap   0.951  0.960  0.990  0.951  0.954  0.982  0.964  0.924  1.000  1.000


   alpha    301    302    303    304    305    306    307    308    309    310
    beta    299    300    305    304    303    308    307    306    309    312
 overlap   1.000  1.000  0.984  0.783  0.984  0.847  0.805  0.847  0.940  0.842


   alpha    311    312    313    314    315    316    317    318    319    320
    beta    311    310    313    314    316    315    317    320    319    318
 overlap   0.977  0.842  0.851  0.977  0.876  0.880  0.840  0.868  0.975  0.868


   alpha    321    322    323    324    325    326    327    328    329    330
    beta    323    324    321    322    329    330    331    332    325    326
 overlap   0.976  0.999  0.976  0.999  0.989  0.948  0.984  0.986  0.989  0.885


   alpha    331    332    333    334    335    336    337    338    339    340
    beta    327    328    335    336    333    334    341    342    343    344
 overlap   0.908  0.986  0.940  1.000  0.940  1.000  0.971  0.963  0.999  0.999


   alpha    341    342    343    344    345    346    347    348    349    350
    beta    337    338    339    340    347    348    345    346    353    354
 overlap   0.968  0.960  0.997  0.997  0.941  1.000  0.941  1.000  0.985  0.982


   alpha    351    352    353    354    355    356    357    358    359    360
    beta    355    356    349    350    351    352    373    371    379    378
 overlap   0.999  0.998  0.977  0.972  0.982  0.982  0.691  0.850  0.907  0.739


   alpha    361    362    363    364    365    366    367    368    369    370
    beta    372    376    377    374    373    380    381    383    382    384
 overlap   0.934  0.975  0.816  0.661  0.719  0.895  0.894  0.857  0.963  0.868


   alpha    371    372    373    374    375    376    377    378    379    380
    beta    358    361    365    360    357    362    363    360    359    366
 overlap   0.850  0.934  0.709  0.667  0.660  0.975  0.815  0.738  0.907  0.895


   alpha    381    382    383    384
    beta    367    369    368    370
 overlap   0.893  0.963  0.857  0.868

     --------------------------
     Expectation value of S2:  
     --------------------------
      <S2> =      7.5266 (Exact =     0.0000)


 center of mass
 --------------
 x =  -0.00000000 y =  -0.00000000 z =  -0.00000000

 moments of inertia (a.u.)
 ------------------
       12587.855488110867          -0.000000000000           0.000000000000
          -0.000000000000       12587.855488110867           0.000000000000
           0.000000000000           0.000000000000       12587.855488110867

     Multipole analysis of the density
     ---------------------------------

     L   x y z        total         alpha         beta         nuclear
     -   - - -        -----         -----         ----         -------
     0   0 0 0     -2.000000   -135.000000   -135.000000    268.000000

     1   1 0 0     -0.001028      0.000150     -0.001177      0.000000
     1   0 1 0     -0.003845    -15.453797     15.449952      0.000000
     1   0 0 1     -0.003019     -0.000505     -0.002514      0.000000

     2   2 0 0   -179.365676  -1787.348804  -1787.346300   3395.329428
     2   1 1 0      0.011245      0.011117      0.000128     -0.000000
     2   1 0 1      0.016945    -34.429230     34.446174     -0.000000
     2   0 2 0   -178.724408  -1787.028469  -1787.025367   3395.329428
     2   0 1 1     -0.015162     -0.002890     -0.012272      0.000000
     2   0 0 2   -179.365363  -1787.348904  -1787.345886   3395.329428


------------------------------------------------------------
EAF file 0: "./A_BS2_seed.aoints.0" size=2861563904 bytes
------------------------------------------------------------
               write      read    awrite     aread      wait
               -----      ----    ------     -----      ----
     calls:     5458        22         0    120054    120054
   data(b): 2.86e+09  1.15e+07  0.00e+00  6.29e+10
   time(s): 0.00e+00  0.00e+00  0.00e+00  0.00e+00  0.00e+00
rate(mb/s): 0.00e+00  0.00e+00
------------------------------------------------------------


 Parallel integral file used   10915 records with       0 large values


 Task  times  cpu:     1594.5s     wall:     2159.4s


                                NWChem Input Module
                                -------------------


 Summary of allocated global arrays
-----------------------------------
  No active global arrays


MA_summarize_allocated_blocks: starting scan ...
MA_summarize_allocated_blocks: scan completed: 0 heap blocks, 0 stack blocks
MA usage statistics:

	allocation statistics:
					      heap	     stack
					      ----	     -----
	current number of blocks	         0	         0
	maximum number of blocks	        22	        54
	current total bytes		         0	         0
	maximum total bytes		  21180384	  44950392
	maximum total K-bytes		     21181	     44951
	maximum total M-bytes		        22	        45


                                     CITATION
                                     --------
                Please cite the following reference when publishing
                           results obtained with NWChem:

          E. Apra, E. J. Bylaska, W. A. de Jong, N. Govind, K. Kowalski,
       T. P. Straatsma, M. Valiev, H. J. J. van Dam, Y. Alexeev, J. Anchell,
       V. Anisimov, F. W. Aquino, R. Atta-Fynn, J. Autschbach, N. P. Bauman,
     J. C. Becca, D. E. Bernholdt, K. Bhaskaran-Nair, S. Bogatko, P. Borowski,
         J. Boschen, J. Brabec, A. Bruner, E. Cauet, Y. Chen, G. N. Chuev,
      C. J. Cramer, J. Daily, M. J. O. Deegan, T. H. Dunning Jr., M. Dupuis,
   K. G. Dyall, G. I. Fann, S. A. Fischer, A. Fonari, H. Fruchtl, L. Gagliardi,
      J. Garza, N. Gawande, S. Ghosh, K. Glaesemann, A. W. Gotz, J. Hammond,
       V. Helms, E. D. Hermes, K. Hirao, S. Hirata, M. Jacquelin, L. Jensen,
   B. G. Johnson, H. Jonsson, R. A. Kendall, M. Klemm, R. Kobayashi, V. Konkov,
      S. Krishnamoorthy, M. Krishnan, Z. Lin, R. D. Lins, R. J. Littlefield,
      A. J. Logsdail, K. Lopata, W. Ma, A. V. Marenich, J. Martin del Campo,
   D. Mejia-Rodriguez, J. E. Moore, J. M. Mullin, T. Nakajima, D. R. Nascimento,
    J. A. Nichols, P. J. Nichols, J. Nieplocha, A. Otero-de-la-Roza, B. Palmer,
    A. Panyala, T. Pirojsirikul, B. Peng, R. Peverati, J. Pittner, L. Pollack,
   R. M. Richard, P. Sadayappan, G. C. Schatz, W. A. Shelton, D. W. Silverstein,
   D. M. A. Smith, T. A. Soares, D. Song, M. Swart, H. L. Taylor, G. S. Thomas,
            V. Tipparaju, D. G. Truhlar, K. Tsemekhman, T. Van Voorhis,
      A. Vazquez-Mayagoitia, P. Verma, O. Villa, A. Vishnu, K. D. Vogiatzis,
        D. Wang, J. H. Weare, M. J. Williamson, T. L. Windus, K. Wolinski,
        A. T. Wong, Q. Wu, C. Yang, Q. Yu, M. Zacharias, Z. Zhang, Y. Zhao,
                                and R. J. Harrison
                        "NWChem: Past, present, and future
                         J. Chem. Phys. 152, 184102 (2020)
                               doi:10.1063/5.0004997

                                      AUTHORS
                                      -------
  E. Apra, E. J. Bylaska, N. Govind, K. Kowalski, M. Valiev, D. Mejia-Rodriguez,
       A. Kunitsa, N. P. Bauman, A. Panyala, W. A. de Jong, T. P. Straatsma,
   H. J. J. van Dam, D. Wang, T. L. Windus, J. Hammond, J. Autschbach, A. Woods,
    K. Bhaskaran-Nair, J. Brabec, K. Lopata, S. A. Fischer, S. Krishnamoorthy,
     M. Jacquelin, W. Ma, M. Klemm, O. Villa, Y. Chen, V. Anisimov, F. Aquino,
     S. Hirata, M. T. Hackler, E. Hermes, L. Jensen, J. E. Moore, J. C. Becca,
      V. Konjkov, T. Risthaus, M. Malagoli, A. Marenich, A. Otero-de-la-Roza,
        J. Mullin, P. Nichols, R. Peverati, J. Pittner, Y. Zhao, P.-D. Fan,
        A. Fonari, M. J. Williamson, R. J. Harrison, J. R. Rehr, M. Dupuis,
     D. Silverstein, D. M. A. Smith, J. Nieplocha, V. Tipparaju, M. Krishnan,
     B. E. Van Kuiken, A. Vazquez-Mayagoitia, M. Swart, Q. Wu, T. Van Voorhis,
     A. A. Auer, M. Nooijen, L. D. Crosby, E. Brown, G. Cisneros, G. I. Fann,
   H. Fruchtl, J. Garza, K. Hirao, R. A. Kendall, J. A. Nichols, K. Tsemekhman,
    K. Wolinski, J. Anchell, D. E. Bernholdt, P. Borowski, T. Clark, D. Clerc,
   H. Dachsel, M. J. O. Deegan, K. Dyall, D. Elwood, E. Glendening, M. Gutowski,
   A. C. Hess, J. Jaffe, B. G. Johnson, J. Ju, R. Kobayashi, R. Kutteh, Z. Lin,
   R. Littlefield, X. Long, B. Meng, T. Nakajima, S. Niu, L. Pollack, M. Rosing,
   K. Glaesemann, G. Sandrone, M. Stave, H. Taylor, G. Thomas, J. H. van Lenthe,
                               A. T. Wong, Z. Zhang.

 Total times  cpu:     1594.5s     wall:     2159.6s
[0] ARMCI Warning: Freed 1 leaked allocations
