      -----------------------------------------------------------      
     |                   =====================                   |     
     |                           x T B                           |     
     |                   =====================                   |     
     |                         S. Grimme                         |     
     |          Mulliken Center for Theoretical Chemistry        |     
     |                    University of Bonn                     |     
      -----------------------------------------------------------      

   * xtb version 6.6.1 (unknown) compiled by 'builduser@buildhost' on 2023-08-07

   xtb is free software: you can redistribute it and/or modify it under
   the terms of the GNU Lesser General Public License as published by
   the Free Software Foundation, either version 3 of the License, or
   (at your option) any later version.
   
   xtb is distributed in the hope that it will be useful,
   but WITHOUT ANY WARRANTY; without even the implied warranty of
   MERCHANTABILITY or FITNESS FOR A PARTICULAR PURPOSE.  See the
   GNU Lesser General Public License for more details.
   
   Cite this work as:
   * C. Bannwarth, E. Caldeweyher, S. Ehlert, A. Hansen, P. Pracht,
     J. Seibert, S. Spicher, S. Grimme, WIREs Comput. Mol. Sci., 2020, 11,
     e01493. DOI: 10.1002/wcms.1493
   
   for GFN2-xTB:
   * C. Bannwarth, S. Ehlert and S. Grimme., J. Chem. Theory Comput., 2019,
     15, 1652-1671. DOI: 10.1021/acs.jctc.8b01176
   for GFN1-xTB:
   * S. Grimme, C. Bannwarth, P. Shushkov, J. Chem. Theory Comput., 2017,
     13, 1989-2009. DOI: 10.1021/acs.jctc.7b00118
   for GFN0-xTB:
   * P. Pracht, E. Caldeweyher, S. Ehlert, S. Grimme, ChemRxiv, 2019, preprint.
     DOI: 10.26434/chemrxiv.8326202.v1
   for GFN-FF:
   * S. Spicher and S. Grimme, Angew. Chem. Int. Ed., 2020, 59, 15665-15673.
     DOI: 10.1002/anie.202004239
   
   for ALPB and GBSA implicit solvation:
   * S. Ehlert, M. Stahn, S. Spicher, S. Grimme, J. Chem. Theory Comput.,
     2021, 17, 4250-4261. DOI: 10.1021/acs.jctc.1c00471
   
   for DFT-D4:
   * E. Caldeweyher, C. Bannwarth and S. Grimme, J. Chem. Phys., 2017,
     147, 034112. DOI: 10.1063/1.4993215
   * E. Caldeweyher, S. Ehlert, A. Hansen, H. Neugebauer, S. Spicher,
     C. Bannwarth and S. Grimme, J. Chem. Phys., 2019, 150, 154122.
     DOI: 10.1063/1.5090222
   * E. Caldeweyher, J.-M. Mewes, S. Ehlert and S. Grimme, Phys. Chem. Chem. Phys.
     2020, 22, 8499-8512. DOI: 10.1039/D0CP00502A
   
   for sTDA-xTB:
   * S. Grimme and C. Bannwarth, J. Chem. Phys., 2016, 145, 054103.
     DOI: 10.1063/1.4959605
   
   in the mass-spec context:
   * V. Asgeirsson, C. Bauer and S. Grimme, Chem. Sci., 2017, 8, 4879.
     DOI: 10.1039/c7sc00601b
   * J. Koopman and S. Grimme, ACS Omega 2019, 4, 12, 15120-15133.
     DOI: 10.1021/acsomega.9b02011
   
   for metadynamics refer to:
   * S. Grimme, J. Chem. Theory Comput., 2019, 155, 2847-2862
     DOI: 10.1021/acs.jctc.9b00143
   
   for SPH calculations refer to:
   * S. Spicher and S. Grimme, J. Chem. Theory Comput., 2021, 17, 1701-1714
     DOI: 10.1021/acs.jctc.0c01306
   
   with help from (in alphabetical order)
   P. Atkinson, C. Bannwarth, F. Bohle, G. Brandenburg, E. Caldeweyher
   M. Checinski, S. Dohm, S. Ehlert, S. Ehrlich, I. Gerasimov, C. Hölzer
   A. Katbashev, J. Koopman, C. Lavigne, S. Lehtola, F. März, M. Müller,
   F. Musil, H. Neugebauer, J. Pisarek, C. Plett, P. Pracht, F. Pultar,
   J. Seibert, P. Shushkov, S. Spicher, M. Stahn, M. Steiner, T. Strunk,
   J. Stückrath, T. Rose, and J. Unsleber
   
 * started run on 2026/09/11 at 19:56:01.085     

           -------------------------------------------------
          |                Calculation Setup                |
           -------------------------------------------------

          program call               : xtb model_B_start.xyz --gfn 1 --chrg -4 --uhf 1 --alpb water --opt loose
          coordinate file            : model_B_start.xyz
          omp threads                :                     8

   ID    Z sym.   atoms
    1    6 C      1, 2, 9, 10, 17, 18, 25, 26, 33, 34, 41-43, 45, 47
    2   16 S      3, 11, 19, 27, 35, 60-63
    3    1 H      4-8, 12-16, 20-24, 28-32, 36-40, 48-55
    4    7 N      44, 46
    5   26 Fe     56-59
    6   28 Ni     64

           -------------------------------------------------
          |                 G F N 1 - x T B                 |
           -------------------------------------------------

        Reference                      10.1021/acs.jctc.7b00118
      * Hamiltonian:
        H0-scaling (s, p, d)           1.850000    2.250000    2.000000
        zeta-weighting                 0.000000
      * Dispersion:
        s8                             2.400000
        a1                             0.630000
        a2                             5.000000
        s9                             0.000000
      * Repulsion:
        kExp                           1.500000
        rExp                           1.000000
      * Coulomb:
        alpha                          2.000000
        third order                    atomic
        anisotropic                    false
      * Halogen bond correction:
        rad-scale                      1.300000
        damping                        0.440000

      * Solvation model:               ALPB
        Solvent                        water
        Parameter file                 internal GFN1-xTB/ALPB
        Dielectric constant                8.0200E+01
        Reference state                gsolv [1 M gas/solution]
        Free energy shift                  4.2456E-03 Eh       2.6642E+00 kcal/mol
        Temperature                        2.9815E+02 K
        Density                            1.0000E+00 kg/L
        Solvent mass                       1.8000E+01 g/mol
        Interaction kernel             P16
        Born radius scaling (c1)           1.9452E+00
        Born radii integrator          GBOBC
        Born offset                        0.0000E+00 a0       0.0000E+00 AA
        H-bond correction              true
        Ion screening                  false
        Surface tension                    1.0000E-05 Eh       1.5569E+01 dyn/cm
        Grid points                               230 per atom

          ...................................................
          :                      SETUP                      :
          :.................................................:
          :  # basis functions                 274          :
          :  # atomic orbitals                 260          :
          :  # shells                          142          :
          :  # electrons                       203          :
          :  # halogen bonds                     0          :
          :  max. iterations                   250          :
          :  Hamiltonian                  GFN1-xTB          :
          :  restarted?                      false          :
          :  GBSA solvation                   true          :
          :  PC potential                    false          :
          :  electronic temp.          300.0000000     K    :
          :  accuracy                    1.0000000          :
          :  -> integral cutoff          0.2500000E+02      :
          :  -> integral neglect         0.1000000E-07      :
          :  -> SCF convergence          0.1000000E-05 Eh   :
          :  -> wf. convergence          0.2000000E-04 e    :
          :  Broyden damping             0.4000000          :
          ...................................................

 iter      E             dE          RMSdq      gap      omega  full diag
   1    -79.3620910 -0.793621E+02  0.151E+01    0.16       0.0  T
   2     32.4989221  0.111861E+03  0.243E+01    0.08       1.0  T
   3    -63.0008922 -0.954998E+02  0.126E+01    0.14       1.0  T
   4    -30.4270299  0.325739E+02  0.149E+01    0.03       1.0  T
   5    -48.1173024 -0.176903E+02  0.144E+01    0.18       1.0  T
   6    -63.3980944 -0.152808E+02  0.113E+01    0.75       1.0  T
   7    -80.2450510 -0.168470E+02  0.101E+01    0.09       1.0  T
   8    -69.2226875  0.110224E+02  0.128E+01    0.26       1.0  T
   9    -91.9442364 -0.227215E+02  0.785E+00    0.10       1.0  T
  10    -90.1861546  0.175808E+01  0.784E+00    0.21       1.0  T
  11    -94.9643936 -0.477824E+01  0.666E+00    0.14       1.0  T
  12    -98.6212465 -0.365685E+01  0.571E+00    0.15       1.0  T
  13    -99.6604352 -0.103919E+01  0.577E+00    0.01       1.0  T
  14    -97.8147685  0.184567E+01  0.619E+00    0.09       1.0  T
  15    -97.9197451 -0.104977E+00  0.622E+00    0.07       1.0  T
  16    -88.3640565  0.955569E+01  0.750E+00    0.06       1.0  T
  17   -103.0712678 -0.147072E+02  0.399E+00    0.07       1.0  T
  18    -72.9372481  0.301340E+02  0.110E+01    0.07       1.0  T
  19    -72.9864182 -0.491701E-01  0.109E+01    0.10       1.0  T
  20    -62.2788332  0.107076E+02  0.126E+01    0.30       1.0  T
  21    -62.6739302 -0.395097E+00  0.125E+01    0.31       1.0  T
  22    -88.4398377 -0.257659E+02  0.830E+00    0.05       1.0  T
  23    -94.2537705 -0.581393E+01  0.683E+00    0.18       1.0  T
  24    -89.4312824  0.482249E+01  0.797E+00    0.25       1.0  T
  25    -84.2646333  0.516665E+01  0.896E+00    0.23       1.0  T
  26    -89.2040138 -0.493938E+01  0.807E+00    0.21       1.0  T
  27    -98.7681510 -0.956414E+01  0.579E+00    0.21       1.0  T
  28   -100.6456643 -0.187751E+01  0.515E+00    0.20       1.0  T
  29   -104.3053544 -0.365969E+01  0.363E+00    0.16       1.0  T
  30   -102.8775721  0.142778E+01  0.426E+00    0.15       1.0  T
  31   -106.0503720 -0.317280E+01  0.240E+00    0.11       1.0  T
  32   -104.9227575  0.112761E+01  0.320E+00    0.12       1.0  T
  33   -105.9744470 -0.105169E+01  0.221E+00    0.20       1.0  T
  34   -103.9984917  0.197596E+01  0.375E+00    0.15       1.0  T
  35   -106.4720566 -0.247356E+01  0.177E+00    0.17       1.0  T
  36   -106.0696045  0.402452E+00  0.236E+00    0.19       1.0  T
  37   -106.5693973 -0.499793E+00  0.167E+00    0.16       1.0  T
  38   -107.3402056 -0.770808E+00  0.420E-01    0.10       1.0  T
  39   -107.3382750  0.193064E-02  0.474E-01    0.11       1.0  T
  40   -107.1075274  0.230748E+00  0.977E-01    0.11       1.0  T
  41   -106.9729392  0.134588E+00  0.120E+00    0.12       1.0  T
  42   -106.9877642 -0.148250E-01  0.118E+00    0.12       1.0  T
  43   -106.9972069 -0.944274E-02  0.116E+00    0.12       1.0  T
  44   -107.3608824 -0.363675E+00  0.283E-01    0.09       1.0  T
  45   -107.3672550 -0.637266E-02  0.243E-01    0.08       1.0  T
  46   -107.3378919  0.293631E-01  0.408E-01    0.08       1.0  T
  47   -107.3580537 -0.201617E-01  0.307E-01    0.08       1.0  T
  48   -107.3778395 -0.197858E-01  0.162E-01    0.08       1.0  T
  49   -107.3816173 -0.377786E-02  0.114E-01    0.09       1.0  T
  50   -107.3827530 -0.113568E-02  0.891E-02    0.09       1.0  T
  51   -107.3840854 -0.133241E-02  0.538E-02    0.09       1.0  T
  52   -107.3847544 -0.668928E-03  0.172E-02    0.09       1.0  T
  53   -107.3848173 -0.629079E-04  0.102E-02    0.09       1.2  T
  54   -107.3848312 -0.139250E-04  0.519E-03    0.09       2.4  T
  55   -107.3848311  0.985075E-07  0.442E-03    0.09       2.8  T
  56   -107.3848179  0.132250E-04  0.818E-03    0.09       1.5  T
  57   -107.3848358 -0.178869E-04  0.120E-03    0.09      10.4  T
  58   -107.3848360 -0.259272E-06  0.654E-04    0.09      19.1  T
  59   -107.3848358  0.172832E-06  0.104E-03    0.09      12.0  T
  60   -107.3848361 -0.222911E-06  0.443E-04    0.09      28.2  T
  61   -107.3848361 -0.362374E-07  0.203E-04    0.09      61.4  T
  62   -107.3848361 -0.731828E-08  0.116E-04    0.09     107.3  T
  63   -107.3848361 -0.219005E-08  0.715E-05    0.09     174.8  T

   *** convergence criteria satisfied after 63 iterations ***

         #    Occupation            Energy/Eh            Energy/eV
      -------------------------------------------------------------
         1        2.0000           -0.7472341             -20.3333
       ...           ...                  ...                  ...
        96        2.0000           -0.1821216              -4.9558
        97        2.0000           -0.1806511              -4.9158
        98        1.9999           -0.1798244              -4.8933
        99        1.9997           -0.1786582              -4.8615
       100        1.9993           -0.1777792              -4.8376
       101        1.8391           -0.1725121              -4.6943
       102        1.0084           -0.1692670              -4.6060 (HOMO)
       103        0.1530           -0.1659027              -4.5144 (LUMO)
       104        0.0006           -0.1604393              -4.3658
       105        0.0001           -0.1588959              -4.3238
       106        0.0000           -0.1555405              -4.2325
       107        0.0000           -0.1533628              -4.1732
       ...           ...                  ...                  ...
       260                         11.9301153             324.6350
      -------------------------------------------------------------
                  HL-Gap            0.0033642 Eh            0.0915 eV
             Fermi-level           -0.1692353 Eh           -4.6051 eV

 SCC (total)                   0 d,  0 h,  0 min,  6.910 sec
 SCC setup                      ...        0 min,  0.003 sec (  0.048%)
 Dispersion                     ...        0 min,  0.001 sec (  0.017%)
 classical contributions        ...        0 min,  0.000 sec (  0.003%)
 integral evaluation            ...        0 min,  0.031 sec (  0.449%)
 iterations                     ...        0 min,  6.662 sec ( 96.401%)
 molecular gradient             ...        0 min,  0.091 sec (  1.313%)
 printout                       ...        0 min,  0.122 sec (  1.767%)

         :::::::::::::::::::::::::::::::::::::::::::::::::::::
         ::                     SUMMARY                     ::
         :::::::::::::::::::::::::::::::::::::::::::::::::::::
         :: total energy            -106.608996731335 Eh    ::
         :: total w/o Gsasa/hb      -106.605261032256 Eh    ::
         :: gradient norm              0.134278707534 Eh/a0 ::
         :: HOMO-LUMO gap              0.091545573746 eV    ::
         ::.................................................::
         :: SCC energy              -107.384836111501 Eh    ::
         :: -> electrostatic           0.990549087268 Eh    ::
         :: -> Gsolv                  -0.640982704184 Eh    ::
         ::    -> Gelec               -0.637247005105 Eh    ::
         ::    -> Gsasa               -0.006954181923 Eh    ::
         ::    -> Ghb                 -0.001027123827 Eh    ::
         ::    -> Gshift               0.004245606671 Eh    ::
         :: repulsion energy           0.837785993294 Eh    ::
         :: dispersion energy         -0.061946613127 Eh    ::
         :: halogen bond corr.         0.000000000000 Eh    ::
         :: add. restraining           0.000000000000 Eh    ::
         :: total charge              -4.000000000000 e     ::
         :::::::::::::::::::::::::::::::::::::::::::::::::::::

      ----------------------------------------------------------- 
     |                   =====================                   |
     |                        A N C O P T                        |
     |                   =====================                   |
     |               Approximate Normal Coordinate               |
     |                Rational Function Optimizer                |
      ----------------------------------------------------------- 

          ...................................................
          :                      SETUP                      :
          :.................................................:
          :   optimization level             loose          :
          :   max. optcycles                   200          :
          :   ANC micro-cycles                  20          :
          :   degrees of freedom               186          :
          :.................................................:
          :   RF solver                   davidson          :
          :   write xtbopt.log                true          :
          :   linear?                        false          :
          :   energy convergence         0.5000000E-04 Eh   :
          :   grad. convergence          0.4000000E-02 Eh/α :
          :   maxmium RF displ.          1.0000000          :
          :   Hlow (freq-cutoff)         0.1000000E-01      :
          :   Hmax (freq-cutoff)         5.0000000          :
          :   S6 in model hess.         20.0000000          :
          ...................................................

generating ANC from model Hessian ...
Using Lindh-Hessian (1995)
 Shifting diagonal of input Hessian by    1.1714157698586330E-002
 Lowest  eigenvalues of input Hessian
    0.010000    0.010968    0.011595    0.011623    0.011643    0.011683
    0.011699    0.000000    0.000000    0.000000    0.000000    0.000000
    0.000000    0.011722    0.011860    0.011904    0.011951    0.012019
 Highest eigenvalues
    1.227873    1.565747    1.895984    1.970895    2.128913    2.226242


........................................................................
.............................. CYCLE    1 ..............................
........................................................................

 iter      E             dE          RMSdq      gap      omega  full diag
   1   -107.3848361 -0.107385E+03  0.811E-05    0.09       0.0  T
   2   -107.3848306  0.547384E-05  0.439E-03    0.09       2.8  T
   3   -107.3848361 -0.546576E-05  0.189E-04    0.09      66.3  T
   4   -107.3848361 -0.429168E-09  0.187E-04    0.09      67.0  T
   5   -107.3848361 -0.732508E-08  0.933E-05    0.09     133.9  T
     SCC iter.                  ...        0 min,  0.523 sec
     gradient                   ...        0 min,  0.070 sec
 * total energy  :  -106.6089967 Eh     change        0.7252083E-09 Eh
   gradient norm :     0.1342782 Eh/α   predicted     0.0000000E+00 (-100.00%)
   displ. norm   :     0.4908413 α      lambda       -0.3670220E-01
   maximum displ.:     0.1625885 α      in ANC's #36, #92, #42, ...

........................................................................
.............................. CYCLE    2 ..............................
........................................................................

 iter      E             dE          RMSdq      gap      omega  full diag
   1   -107.1086356 -0.107109E+03  0.113E+00    0.10       0.0  T
   2    -86.3655505  0.207431E+02  0.841E+00    0.10       1.0  T
   3    -90.9752865 -0.460974E+01  0.760E+00    0.16       1.0  T
   4    -79.4353818  0.115399E+02  0.917E+00    0.17       1.0  T
   5   -102.5518389 -0.231165E+02  0.415E+00    0.18       1.0  T
   6   -101.9410802  0.610759E+00  0.436E+00    0.15       1.0  T
   7   -105.4070000 -0.346592E+01  0.259E+00    0.15       1.0  T
   8   -107.1260936 -0.171909E+01  0.101E+00    0.11       1.0  T
   9   -107.0561328  0.699608E-01  0.124E+00    0.19       1.0  T
  10   -107.1465545 -0.904218E-01  0.104E+00    0.19       1.0  T
  11   -107.3650610 -0.218506E+00  0.433E-01    0.12       1.0  T
  12   -107.3323144  0.327466E-01  0.571E-01    0.09       1.0  T
  13   -107.3962115 -0.638971E-01  0.268E-01    0.10       1.0  T
  14   -107.4005956 -0.438411E-02  0.229E-01    0.10       1.0  T
  15   -107.4071914 -0.659574E-02  0.174E-01    0.10       1.0  T
  16   -107.3960872  0.111041E-01  0.267E-01    0.10       1.0  T
  17   -107.4007571 -0.466986E-02  0.230E-01    0.10       1.0  T
  18   -107.4029425 -0.218546E-02  0.214E-01    0.12       1.0  T
  19   -107.4118893 -0.894672E-02  0.108E-01    0.11       1.0  T
  20   -107.4115513  0.337908E-03  0.112E-01    0.12       1.0  T
  21   -107.4125692 -0.101783E-02  0.911E-02    0.12       1.0  T
  22   -107.4134943 -0.925139E-03  0.681E-02    0.11       1.0  T
  23   -107.4143462 -0.851846E-03  0.381E-02    0.11       1.0  T
  24   -107.4147033 -0.357104E-03  0.945E-03    0.11       1.3  T
  25   -107.4147234 -0.201182E-04  0.341E-03    0.11       3.7  T
  26   -107.4147260 -0.263815E-05  0.114E-03    0.11      11.0  T
  27   -107.4147263 -0.296602E-06  0.336E-04    0.11      37.2  T
  28   -107.4147263 -0.247974E-07  0.110E-04    0.11     113.5  T
  29   -107.4147263 -0.273627E-08  0.347E-05    0.11     360.1  T
     SCC iter.                  ...        0 min,  2.966 sec
     gradient                   ...        0 min,  0.073 sec
 * total energy  :  -106.6352088 Eh     change       -0.2621211E-01 Eh
   gradient norm :     0.0534263 Eh/α   predicted    -0.2277235E-01 ( -13.12%)
   displ. norm   :     0.5643865 α      lambda       -0.1508643E-01
   maximum displ.:     0.1768278 α      in ANC's #42, #1, #2, ...

........................................................................
.............................. CYCLE    3 ..............................
........................................................................

 iter      E             dE          RMSdq      gap      omega  full diag
   1   -107.3367456 -0.107337E+03  0.632E-01    0.14       0.0  T
   2    -93.1151285  0.142216E+02  0.830E+00    0.05       1.0  T
   3   -106.0415770 -0.129264E+02  0.242E+00    0.20       1.0  T
   4    -98.7092857  0.733229E+01  0.542E+00    0.08       1.0  T
   5   -100.4999109 -0.179063E+01  0.488E+00    0.14       1.0  T
   6   -106.3791599 -0.587925E+01  0.200E+00    0.16       1.0  T
   7   -106.6781196 -0.298960E+00  0.166E+00    0.12       1.0  T
   8   -107.2087945 -0.530675E+00  0.882E-01    0.10       1.0  T
   9   -107.3903633 -0.181569E+00  0.370E-01    0.12       1.0  T
  10   -107.4110573 -0.206941E-01  0.265E-01    0.13       1.0  T
  11   -107.4003808  0.106766E-01  0.330E-01    0.13       1.0  T
  12   -107.4144894 -0.141086E-01  0.232E-01    0.13       1.0  T
  13   -107.4219376 -0.744819E-02  0.158E-01    0.14       1.0  T
  14   -107.4245557 -0.261813E-02  0.118E-01    0.14       1.0  T
  15   -107.4265603 -0.200465E-02  0.784E-02    0.14       1.0  T
  16   -107.4277523 -0.119196E-02  0.361E-02    0.14       1.0  T
  17   -107.4280099 -0.257629E-03  0.148E-02    0.14       1.0  T
  18   -107.4280175 -0.759691E-05  0.123E-02    0.14       1.0  T
  19   -107.4280409 -0.233861E-04  0.716E-03    0.14       1.7  T
  20   -107.4280502 -0.929761E-05  0.380E-03    0.14       3.3  T
  21   -107.4280530 -0.275964E-05  0.195E-03    0.14       6.4  T
  22   -107.4280538 -0.852457E-06  0.814E-04    0.14      15.4  T
  23   -107.4280540 -0.143987E-06  0.286E-04    0.14      43.8  T
  24   -107.4280540 -0.196531E-07  0.106E-04    0.14     118.2  T
  25   -107.4280540 -0.244532E-08  0.396E-05    0.14     315.5  T
     SCC iter.                  ...        0 min,  2.522 sec
     gradient                   ...        0 min,  0.064 sec
 * total energy  :  -106.6454117 Eh     change       -0.1020282E-01 Eh
   gradient norm :     0.0169671 Eh/α   predicted    -0.9945988E-02 (  -2.52%)
   displ. norm   :     0.5979187 α      lambda       -0.6631748E-02
   maximum displ.:     0.2135947 α      in ANC's #1, #27, #36, ...

........................................................................
.............................. CYCLE    4 ..............................
........................................................................

 iter      E             dE          RMSdq      gap      omega  full diag
   1   -107.4167525 -0.107417E+03  0.212E-01    0.15       0.0  T
   2   -101.7571324  0.565962E+01  0.459E+00    0.06       1.0  T
   3   -106.6126524 -0.485552E+01  0.171E+00    0.08       1.0  T
   4   -106.6927916 -0.801392E-01  0.165E+00    0.25       1.0  T
   5   -107.2825994 -0.589808E+00  0.746E-01    0.11       1.0  T
   6   -106.8182328  0.464367E+00  0.151E+00    0.10       1.0  T
   7   -107.4178397 -0.599607E+00  0.181E-01    0.14       1.0  T
   8   -107.4120241  0.581565E-02  0.225E-01    0.14       1.0  T
   9   -107.4194859 -0.746181E-02  0.153E-01    0.14       1.0  T
  10   -107.4228026 -0.331665E-02  0.105E-01    0.15       1.0  T
  11   -107.4253851 -0.258254E-02  0.375E-02    0.15       1.0  T
  12   -107.4257215 -0.336426E-03  0.112E-02    0.15       1.1  T
  13   -107.4257141  0.747072E-05  0.118E-02    0.15       1.1  T
  14   -107.4257280 -0.139472E-04  0.946E-03    0.15       1.3  T
  15   -107.4257517 -0.237061E-04  0.210E-03    0.15       5.9  T
  16   -107.4257528 -0.112568E-05  0.524E-04    0.15      23.9  T
  17   -107.4257529 -0.502155E-07  0.305E-04    0.15      41.0  T
  18   -107.4257529 -0.216001E-07  0.891E-05    0.15     140.2  T
  19   -107.4257529 -0.154577E-08  0.374E-05    0.15     334.5  T
     SCC iter.                  ...        0 min,  1.993 sec
     gradient                   ...        0 min,  0.065 sec
 * total energy  :  -106.6506094 Eh     change       -0.5197746E-02 Eh
   gradient norm :     0.0159979 Eh/α   predicted    -0.4501496E-02 ( -13.40%)
   displ. norm   :     0.7031691 α      lambda       -0.5595948E-02
   maximum displ.:     0.2797509 α      in ANC's #1, #27, #40, ...

........................................................................
.............................. CYCLE    5 ..............................
........................................................................

 iter      E             dE          RMSdq      gap      omega  full diag
   1   -107.4075099 -0.107408E+03  0.280E-01    0.18       0.0  T
   2    -87.1527335  0.202548E+02  0.799E+00    0.13       1.0  T
   3   -102.9132865 -0.157606E+02  0.413E+00    0.08       1.0  T
   4   -106.9643138 -0.405103E+01  0.142E+00    0.13       1.0  T
   5   -107.1546621 -0.190348E+00  0.997E-01    0.20       1.0  T
   6   -106.5034518  0.651210E+00  0.183E+00    0.11       1.0  T
   7   -107.3790216 -0.875570E+00  0.423E-01    0.16       1.0  T
   8   -107.4019141 -0.228925E-01  0.288E-01    0.18       1.0  T
   9   -107.4181533 -0.162392E-01  0.158E-01    0.17       1.0  T
  10   -107.4211921 -0.303876E-02  0.112E-01    0.17       1.0  T
  11   -107.4231067 -0.191462E-02  0.696E-02    0.17       1.0  T
  12   -107.4238772 -0.770498E-03  0.431E-02    0.17       1.0  T
  13   -107.4242346 -0.357375E-03  0.225E-02    0.17       1.0  T
  14   -107.4242903 -0.557256E-04  0.176E-02    0.17       1.0  T
  15   -107.4243040 -0.137053E-04  0.159E-02    0.17       1.0  T
  16   -107.4243563 -0.522618E-04  0.780E-03    0.17       1.6  T
  17   -107.4243624 -0.613377E-05  0.600E-03    0.17       2.1  T
  18   -107.4243665 -0.414421E-05  0.443E-03    0.17       2.8  T
  19   -107.4243714 -0.481752E-05  0.995E-04    0.17      12.6  T
  20   -107.4243716 -0.227523E-06  0.329E-04    0.17      38.0  T
  21   -107.4243716 -0.180336E-07  0.190E-04    0.17      65.6  T
  22   -107.4243716 -0.697460E-08  0.991E-05    0.17     126.1  T
     SCC iter.                  ...        0 min,  2.244 sec
     gradient                   ...        0 min,  0.066 sec
 * total energy  :  -106.6549248 Eh     change       -0.4315425E-02 Eh
   gradient norm :     0.0176612 Eh/α   predicted    -0.4181429E-02 (  -3.11%)
   displ. norm   :     0.7008440 α      lambda       -0.4479263E-02
   maximum displ.:     0.3051633 α      in ANC's #1, #22, #14, ...

........................................................................
.............................. CYCLE    6 ..............................
........................................................................

 iter      E             dE          RMSdq      gap      omega  full diag
   1   -107.4130926 -0.107413E+03  0.238E-01    0.19       0.0  T
   2    -92.2263917  0.151867E+02  0.713E+00    0.11       1.0  T
   3   -105.3515375 -0.131251E+02  0.267E+00    0.10       1.0  T
   4   -107.2680820 -0.191654E+01  0.757E-01    0.22       1.0  T
   5   -106.5799492  0.688133E+00  0.180E+00    0.12       1.0  T
   6   -107.3049167 -0.724967E+00  0.721E-01    0.17       1.0  T
   7   -107.4239778 -0.119061E+00  0.815E-02    0.18       1.0  T
   8   -107.4194192  0.455862E-02  0.153E-01    0.18       1.0  T
   9   -107.4237553 -0.433613E-02  0.800E-02    0.18       1.0  T
  10   -107.4241782 -0.422859E-03  0.666E-02    0.18       1.0  T
  11   -107.4247291 -0.550957E-03  0.467E-02    0.18       1.0  T
  12   -107.4252171 -0.487996E-03  0.917E-03    0.18       1.4  T
  13   -107.4252236 -0.647720E-05  0.698E-03    0.18       1.8  T
  14   -107.4252210  0.258553E-05  0.760E-03    0.18       1.6  T
  15   -107.4252323 -0.112579E-04  0.392E-03    0.18       3.2  T
  16   -107.4252352 -0.294477E-05  0.217E-03    0.18       5.8  T
  17   -107.4252358 -0.575605E-06  0.159E-03    0.18       7.9  T
  18   -107.4252362 -0.380333E-06  0.102E-03    0.18      12.2  T
  19   -107.4252364 -0.238708E-06  0.362E-04    0.18      34.5  T
  20   -107.4252364 -0.237508E-07  0.183E-04    0.18      68.3  T
  21   -107.4252364 -0.736307E-08  0.567E-05    0.18     220.6  T
     SCC iter.                  ...        0 min,  2.127 sec
     gradient                   ...        0 min,  0.063 sec
 * total energy  :  -106.6584972 Eh     change       -0.3572377E-02 Eh
   gradient norm :     0.0157878 Eh/α   predicted    -0.3339708E-02 (  -6.51%)
   displ. norm   :     0.6812589 α      lambda       -0.3756301E-02
   maximum displ.:     0.3245660 α      in ANC's #1, #22, #14, ...

........................................................................
.............................. CYCLE    7 ..............................
........................................................................

 iter      E             dE          RMSdq      gap      omega  full diag
   1   -107.4193381 -0.107419E+03  0.239E-01    0.19       0.0  T
   2    -93.6493377  0.137700E+02  0.689E+00    0.11       1.0  T
   3   -105.8854263 -0.122361E+02  0.240E+00    0.07       1.0  T
   4   -107.1785813 -0.129316E+01  0.965E-01    0.20       1.0  T
   5   -107.0010999  0.177481E+00  0.132E+00    0.20       1.0  T
   6   -106.4252143  0.575886E+00  0.186E+00    0.14       1.0  T
   7   -107.4130191 -0.987805E+00  0.265E-01    0.19       1.0  T
   8   -107.4234753 -0.104562E-01  0.171E-01    0.19       1.0  T
   9   -107.4301536 -0.667830E-02  0.736E-02    0.19       1.0  T
  10   -107.4301699 -0.163228E-04  0.714E-02    0.19       1.0  T
  11   -107.4309411 -0.771247E-03  0.423E-02    0.19       1.0  T
  12   -107.4312629 -0.321805E-03  0.147E-02    0.18       1.0  T
  13   -107.4312596  0.331384E-05  0.146E-02    0.18       1.0  T
  14   -107.4312911 -0.315088E-04  0.985E-03    0.18       1.3  T
  15   -107.4313069 -0.157594E-04  0.613E-03    0.18       2.0  T
  16   -107.4313158 -0.890492E-05  0.231E-03    0.18       5.4  T
  17   -107.4313165 -0.708447E-06  0.162E-03    0.18       7.7  T
  18   -107.4313169 -0.383966E-06  0.105E-03    0.18      11.9  T
  19   -107.4313171 -0.232337E-06  0.405E-04    0.18      30.9  T
  20   -107.4313172 -0.219078E-07  0.270E-04    0.18      46.2  T
  21   -107.4313172 -0.155956E-07  0.122E-04    0.18     102.6  T
  22   -107.4313172 -0.375223E-08  0.260E-05    0.18     480.5  T
     SCC iter.                  ...        0 min,  2.255 sec
     gradient                   ...        0 min,  0.062 sec
 * total energy  :  -106.6616075 Eh     change       -0.3110279E-02 Eh
   gradient norm :     0.0147301 Eh/α   predicted    -0.2749830E-02 ( -11.59%)
   displ. norm   :     0.7397584 α      lambda       -0.3534497E-02
   maximum displ.:     0.3398100 α      in ANC's #1, #22, #19, ...

........................................................................
.............................. CYCLE    8 ..............................
........................................................................

 iter      E             dE          RMSdq      gap      omega  full diag
   1   -107.4165381 -0.107417E+03  0.304E-01    0.18       0.0  T
   2    -85.2939956  0.221225E+02  0.844E+00    0.04       1.0  T
   3   -103.2479582 -0.179540E+02  0.381E+00    0.21       1.0  T
   4   -107.2179318 -0.396997E+01  0.874E-01    0.16       1.0  T
   5   -107.0361547  0.181777E+00  0.129E+00    0.18       1.0  T
   6   -107.2319585 -0.195804E+00  0.880E-01    0.19       1.0  T
   7   -107.4290004 -0.197042E+00  0.181E-01    0.18       1.0  T
   8   -107.4343901 -0.538970E-02  0.108E-01    0.18       1.0  T
   9   -107.4339954  0.394661E-03  0.109E-01    0.18       1.0  T
  10   -107.4338091  0.186350E-03  0.109E-01    0.18       1.0  T
  11   -107.4354949 -0.168585E-02  0.742E-02    0.18       1.0  T
  12   -107.4365891 -0.109416E-02  0.304E-02    0.18       1.0  T
  13   -107.4368208 -0.231671E-03  0.935E-03    0.18       1.3  T
  14   -107.4368299 -0.915890E-05  0.726E-03    0.18       1.7  T
  15   -107.4368384 -0.849724E-05  0.437E-03    0.18       2.9  T
  16   -107.4368406 -0.219816E-05  0.324E-03    0.18       3.9  T
  17   -107.4368415 -0.922221E-06  0.260E-03    0.18       4.8  T
  18   -107.4368425 -0.920001E-06  0.176E-03    0.18       7.1  T
  19   -107.4368431 -0.617135E-06  0.845E-04    0.18      14.8  T
  20   -107.4368432 -0.177003E-06  0.175E-04    0.18      71.6  T
  21   -107.4368433 -0.666948E-08  0.685E-05    0.18     182.5  T
     SCC iter.                  ...        0 min,  2.101 sec
     gradient                   ...        0 min,  0.063 sec
 * total energy  :  -106.6648524 Eh     change       -0.3244865E-02 Eh
   gradient norm :     0.0150738 Eh/α   predicted    -0.2734366E-02 ( -15.73%)
   displ. norm   :     0.8545902 α      lambda       -0.4509140E-02
   maximum displ.:     0.3553705 α      in ANC's #1, #22, #35, ...

........................................................................
.............................. CYCLE    9 ..............................
........................................................................

 iter      E             dE          RMSdq      gap      omega  full diag
   1   -107.3825924 -0.107383E+03  0.509E-01    0.15       0.0  T
   2    -86.7773778  0.206052E+02  0.803E+00    0.04       1.0  T
   3   -103.2033167 -0.164259E+02  0.399E+00    0.22       1.0  T
   4   -106.3420225 -0.313871E+01  0.211E+00    0.09       1.0  T
   5   -105.9805916  0.361431E+00  0.227E+00    0.12       1.0  T
   6   -106.5392120 -0.558620E+00  0.183E+00    0.10       1.0  T
   7   -107.3790737 -0.839862E+00  0.513E-01    0.17       1.0  T
   8   -107.4401101 -0.610363E-01  0.152E-01    0.17       1.0  T
   9   -107.4161802  0.239299E-01  0.339E-01    0.18       1.0  T
  10   -107.4174458 -0.126557E-02  0.326E-01    0.17       1.0  T
  11   -107.4339182 -0.164724E-01  0.206E-01    0.17       1.0  T
  12   -107.4423267 -0.840852E-02  0.961E-02    0.17       1.0  T
  13   -107.4443840 -0.205731E-02  0.450E-02    0.17       1.0  T
  14   -107.4445048 -0.120805E-03  0.396E-02    0.17       1.0  T
  15   -107.4446710 -0.166159E-03  0.296E-02    0.16       1.0  T
  16   -107.4447352 -0.641918E-04  0.245E-02    0.16       1.0  T
  17   -107.4448517 -0.116527E-03  0.127E-02    0.16       1.0  T
  18   -107.4448892 -0.374630E-04  0.447E-03    0.16       2.8  T
  19   -107.4448918 -0.258579E-05  0.302E-03    0.16       4.1  T
  20   -107.4448933 -0.154032E-05  0.173E-03    0.16       7.2  T
  21   -107.4448940 -0.733235E-06  0.358E-04    0.16      35.0  T
  22   -107.4448940 -0.192307E-07  0.232E-04    0.16      53.9  T
  23   -107.4448941 -0.132520E-07  0.545E-05    0.16     229.2  T
  24   -107.4448941 -0.681467E-09  0.177E-05    0.16     707.3  T
     SCC iter.                  ...        0 min,  2.433 sec
     gradient                   ...        0 min,  0.075 sec
 * total energy  :  -106.6691954 Eh     change       -0.4343053E-02 Eh
   gradient norm :     0.0170126 Eh/α   predicted    -0.3901138E-02 ( -10.18%)
   displ. norm   :     0.8895176 α      lambda       -0.5006201E-02
   maximum displ.:     0.3181176 α      in ANC's #1, #19, #35, ...

........................................................................
.............................. CYCLE   10 ..............................
........................................................................

 iter      E             dE          RMSdq      gap      omega  full diag
   1   -107.3351331 -0.107335E+03  0.669E-01    0.14       0.0  T
   2    -67.2771798  0.400580E+02  0.109E+01    0.15       1.0  T
   3    -86.4628401 -0.191857E+02  0.831E+00    0.35       1.0  T
   4   -105.3615872 -0.188987E+02  0.316E+00    0.18       1.0  T
   5   -106.2346380 -0.873051E+00  0.205E+00    0.10       1.0  T
   6   -103.7324755  0.250216E+01  0.367E+00    0.03       1.0  T
   7   -107.2916467 -0.355917E+01  0.801E-01    0.20       1.0  T
   8   -107.4290878 -0.137441E+00  0.272E-01    0.17       1.0  T
   9   -107.3110810  0.118007E+00  0.733E-01    0.20       1.0  T
  10   -107.3079240  0.315702E-02  0.731E-01    0.20       1.0  T
  11   -107.3606339 -0.527098E-01  0.570E-01    0.20       1.0  T
  12   -107.4436488 -0.830149E-01  0.112E-01    0.17       1.0  T
  13   -107.4450142 -0.136546E-02  0.814E-02    0.16       1.0  T
  14   -107.4461739 -0.115968E-02  0.394E-02    0.16       1.0  T
  15   -107.4463147 -0.140748E-03  0.314E-02    0.16       1.0  T
  16   -107.4463205 -0.584831E-05  0.302E-02    0.16       1.0  T
  17   -107.4465291 -0.208559E-03  0.118E-02    0.16       1.1  T
  18   -107.4465582 -0.291136E-04  0.246E-03    0.16       5.1  T
  19   -107.4465593 -0.106382E-05  0.135E-03    0.16       9.3  T
  20   -107.4465595 -0.210093E-06  0.767E-04    0.16      16.3  T
  21   -107.4465595 -0.441988E-07  0.594E-04    0.16      21.1  T
  22   -107.4465596 -0.708731E-07  0.240E-04    0.16      52.1  T
  23   -107.4465596 -0.128267E-07  0.824E-05    0.16     151.7  T
  24   -107.4465596 -0.978190E-09  0.540E-05    0.16     231.4  T
     SCC iter.                  ...        0 min,  2.397 sec
     gradient                   ...        0 min,  0.066 sec
 * total energy  :  -106.6724417 Eh     change       -0.3246330E-02 Eh
   gradient norm :     0.0204382 Eh/α   predicted    -0.4483660E-02 (  38.11%)
   displ. norm   :     0.3849883 α      lambda       -0.2155736E-02
   maximum displ.:     0.1488731 α      in ANC's #1, #19, #14, ...

........................................................................
.............................. CYCLE   11 ..............................
........................................................................

 iter      E             dE          RMSdq      gap      omega  full diag
   1   -107.4200660 -0.107420E+03  0.300E-01    0.19       0.0  T
   2    -80.2719350  0.271481E+02  0.945E+00    0.15       1.0  T
   3   -104.9926208 -0.247207E+02  0.312E+00    0.29       1.0  T
   4   -106.6558872 -0.166327E+01  0.168E+00    0.08       1.0  T
   5   -106.8294247 -0.173537E+00  0.149E+00    0.18       1.0  T
   6   -107.2171196 -0.387695E+00  0.930E-01    0.17       1.0  T
   7   -107.4366752 -0.219556E+00  0.166E-01    0.20       1.0  T
   8   -107.4336849  0.299037E-02  0.205E-01    0.18       1.0  T
   9   -107.4377795 -0.409458E-02  0.161E-01    0.18       1.0  T
  10   -107.4399297 -0.215025E-02  0.133E-01    0.18       1.0  T
  11   -107.4431144 -0.318471E-02  0.708E-02    0.18       1.0  T
  12   -107.4443606 -0.124621E-02  0.120E-02    0.18       1.0  T
  13   -107.4443563  0.433191E-05  0.119E-02    0.18       1.0  T
  14   -107.4443679 -0.116440E-04  0.983E-03    0.18       1.3  T
  15   -107.4443920 -0.240938E-04  0.217E-03    0.18       5.8  T
  16   -107.4443919  0.933260E-07  0.199E-03    0.18       6.3  T
  17   -107.4443927 -0.746475E-06  0.943E-04    0.18      13.3  T
  18   -107.4443928 -0.155808E-06  0.521E-04    0.18      24.0  T
  19   -107.4443929 -0.565288E-07  0.201E-04    0.18      62.2  T
  20   -107.4443929 -0.827015E-08  0.861E-05    0.18     145.2  T
  21   -107.4443929 -0.135935E-08  0.410E-05    0.18     304.8  T
     SCC iter.                  ...        0 min,  2.123 sec
     gradient                   ...        0 min,  0.064 sec
 * total energy  :  -106.6741502 Eh     change       -0.1708414E-02 Eh
   gradient norm :     0.0159860 Eh/α   predicted    -0.1237630E-02 ( -27.56%)
   displ. norm   :     0.5783905 α      lambda       -0.2641202E-02
   maximum displ.:     0.1782985 α      in ANC's #21, #1, #19, ...

........................................................................
.............................. CYCLE   12 ..............................
........................................................................

 iter      E             dE          RMSdq      gap      omega  full diag
   1   -107.4162187 -0.107416E+03  0.326E-01    0.19       0.0  T
   2    -91.9832679  0.154330E+02  0.702E+00    0.14       1.0  T
   3   -100.0346311 -0.805136E+01  0.527E+00    0.21       1.0  T
   4   -106.7623550 -0.672772E+01  0.178E+00    0.10       1.0  T
   5   -107.4379920 -0.675637E+00  0.168E-01    0.18       1.0  T
   6   -107.2709279  0.167064E+00  0.802E-01    0.20       1.0  T
   7   -107.3754613 -0.104533E+00  0.504E-01    0.21       1.0  T
   8   -107.4331506 -0.576893E-01  0.211E-01    0.19       1.0  T
   9   -107.4331168  0.337407E-04  0.208E-01    0.19       1.0  T
  10   -107.4361634 -0.304655E-02  0.177E-01    0.19       1.0  T
  11   -107.4428210 -0.665764E-02  0.794E-02    0.19       1.0  T
  12   -107.4441941 -0.137306E-02  0.253E-02    0.19       1.0  T
  13   -107.4442617 -0.676466E-04  0.180E-02    0.19       1.0  T
  14   -107.4443211 -0.593495E-04  0.662E-03    0.19       1.9  T
  15   -107.4443260 -0.492661E-05  0.525E-03    0.19       2.4  T
  16   -107.4443316 -0.559119E-05  0.176E-03    0.19       7.1  T
  17   -107.4443322 -0.553643E-06  0.902E-04    0.19      13.9  T
  18   -107.4443323 -0.892543E-07  0.672E-04    0.19      18.6  T
  19   -107.4443323 -0.600490E-07  0.526E-04    0.19      23.8  T
  20   -107.4443324 -0.515638E-07  0.159E-04    0.19      78.5  T
  21   -107.4443324 -0.401752E-08  0.728E-05    0.19     171.6  T
     SCC iter.                  ...        0 min,  2.100 sec
     gradient                   ...        0 min,  0.067 sec
 * total energy  :  -106.6760610 Eh     change       -0.1910799E-02 Eh
   gradient norm :     0.0131298 Eh/α   predicted    -0.1762390E-02 (  -7.77%)
   displ. norm   :     0.6624828 α      lambda       -0.2115107E-02
   maximum displ.:     0.2112740 α      in ANC's #1, #21, #3, ...

........................................................................
.............................. CYCLE   13 ..............................
........................................................................

 iter      E             dE          RMSdq      gap      omega  full diag
   1   -107.3997313 -0.107400E+03  0.379E-01    0.18       0.0  T
   2    -87.2366837  0.201630E+02  0.812E+00    0.13       1.0  T
   3    -95.8770396 -0.864036E+01  0.619E+00    0.08       1.0  T
   4   -106.1074627 -0.102304E+02  0.247E+00    0.26       1.0  T
   5   -106.5890326 -0.481570E+00  0.180E+00    0.14       1.0  T
   6   -107.2990391 -0.710007E+00  0.712E-01    0.21       1.0  T
   7   -107.4328792 -0.133840E+00  0.125E-01    0.20       1.0  T
   8   -107.4204582  0.124210E-01  0.252E-01    0.19       1.0  T
   9   -107.4257259 -0.526772E-02  0.207E-01    0.20       1.0  T
  10   -107.4299982 -0.427235E-02  0.161E-01    0.19       1.0  T
  11   -107.4353448 -0.534660E-02  0.709E-02    0.19       1.0  T
  12   -107.4359896 -0.644796E-03  0.509E-02    0.19       1.0  T
  13   -107.4363758 -0.386115E-03  0.346E-02    0.19       1.0  T
  14   -107.4365798 -0.204053E-03  0.221E-02    0.19       1.0  T
  15   -107.4366693 -0.894935E-04  0.893E-03    0.19       1.4  T
  16   -107.4366752 -0.589881E-05  0.695E-03    0.19       1.8  T
  17   -107.4366860 -0.108192E-04  0.197E-03    0.19       6.4  T
  18   -107.4366866 -0.578611E-06  0.121E-03    0.19      10.3  T
  19   -107.4366869 -0.353762E-06  0.320E-04    0.19      39.1  T
  20   -107.4366870 -0.134875E-07  0.204E-04    0.19      61.3  T
  21   -107.4366870 -0.389171E-08  0.171E-04    0.19      73.1  T
  22   -107.4366870 -0.676593E-08  0.270E-05    0.19     462.3  T
     SCC iter.                  ...        0 min,  2.172 sec
     gradient                   ...        0 min,  0.063 sec
 * total energy  :  -106.6773167 Eh     change       -0.1255754E-02 Eh
   gradient norm :     0.0215679 Eh/α   predicted    -0.1521703E-02 (  21.18%)
   displ. norm   :     0.5850781 α      lambda       -0.2258187E-02
   maximum displ.:     0.1829963 α      in ANC's #12, #11, #21, ...

........................................................................
.............................. CYCLE   14 ..............................
........................................................................

 iter      E             dE          RMSdq      gap      omega  full diag
   1   -107.4148214 -0.107415E+03  0.349E-01    0.18       0.0  T
   2    -88.9456325  0.184692E+02  0.777E+00    0.06       1.0  T
   3    -98.7894135 -0.984378E+01  0.537E+00    0.08       1.0  T
   4   -105.9250417 -0.713563E+01  0.256E+00    0.22       1.0  T
   5   -106.7068506 -0.781809E+00  0.168E+00    0.19       1.0  T
   6   -107.4017004 -0.694850E+00  0.426E-01    0.20       1.0  T
   7   -107.4401483 -0.384480E-01  0.163E-01    0.19       1.0  T
   8   -107.4391678  0.980527E-03  0.175E-01    0.20       1.0  T
   9   -107.4423016 -0.313384E-02  0.135E-01    0.20       1.0  T
  10   -107.4461023 -0.380062E-02  0.592E-02    0.19       1.0  T
  11   -107.4451114  0.990825E-03  0.845E-02    0.19       1.0  T
  12   -107.4459971 -0.885623E-03  0.621E-02    0.19       1.0  T
  13   -107.4464737 -0.476640E-03  0.446E-02    0.19       1.0  T
  14   -107.4469585 -0.484764E-03  0.170E-02    0.19       1.0  T
  15   -107.4469777 -0.192541E-04  0.139E-02    0.19       1.0  T
  16   -107.4469921 -0.143951E-04  0.115E-02    0.19       1.1  T
  17   -107.4470193 -0.272099E-04  0.473E-03    0.19       2.6  T
  18   -107.4470244 -0.510658E-05  0.192E-03    0.19       6.5  T
  19   -107.4470252 -0.784165E-06  0.615E-04    0.19      20.3  T
  20   -107.4470252 -0.383542E-07  0.439E-04    0.19      28.5  T
  21   -107.4470253 -0.464048E-07  0.127E-04    0.19      98.7  T
  22   -107.4470253 -0.400291E-08  0.330E-05    0.19     378.4  T
     SCC iter.                  ...        0 min,  2.185 sec
     gradient                   ...        0 min,  0.067 sec
 * total energy  :  -106.6785890 Eh     change       -0.1272272E-02 Eh
   gradient norm :     0.0179706 Eh/α   predicted    -0.1515599E-02 (  19.13%)
   displ. norm   :     0.5152700 α      lambda       -0.1920845E-02
   maximum displ.:     0.2368360 α      in ANC's #21, #3, #19, ...

........................................................................
.............................. CYCLE   15 ..............................
........................................................................

 iter      E             dE          RMSdq      gap      omega  full diag
   1   -107.4077140 -0.107408E+03  0.390E-01    0.18       0.0  T
   2    -70.8597872  0.365479E+02  0.108E+01    0.06       1.0  T
   3    -99.4095674 -0.285498E+02  0.538E+00    0.21       1.0  T
   4   -106.8249380 -0.741537E+01  0.174E+00    0.12       1.0  T
   5   -107.0113833 -0.186445E+00  0.123E+00    0.17       1.0  T
   6   -106.3496544  0.661729E+00  0.203E+00    0.14       1.0  T
   7   -107.3592397 -0.100959E+01  0.581E-01    0.17       1.0  T
   8   -107.4420355 -0.827958E-01  0.117E-01    0.18       1.0  T
   9   -107.4394676  0.256794E-02  0.161E-01    0.19       1.0  T
  10   -107.4388785  0.589092E-03  0.167E-01    0.19       1.0  T
  11   -107.4436957 -0.481728E-02  0.896E-02    0.19       1.0  T
  12   -107.4454441 -0.174837E-02  0.282E-02    0.18       1.0  T
  13   -107.4451462  0.297899E-03  0.427E-02    0.18       1.0  T
  14   -107.4453752 -0.229018E-03  0.313E-02    0.18       1.0  T
  15   -107.4456138 -0.238608E-03  0.112E-02    0.18       1.1  T
  16   -107.4456263 -0.124215E-04  0.825E-03    0.18       1.5  T
  17   -107.4456323 -0.603050E-05  0.661E-03    0.18       1.9  T
  18   -107.4456405 -0.817327E-05  0.350E-03    0.18       3.6  T
  19   -107.4456434 -0.295967E-05  0.724E-04    0.18      17.3  T
  20   -107.4456435 -0.818283E-07  0.480E-04    0.18      26.0  T
  21   -107.4456435 -0.355134E-07  0.192E-04    0.18      65.0  T
  22   -107.4456436 -0.923754E-08  0.420E-05    0.18     297.5  T
     SCC iter.                  ...        0 min,  2.203 sec
     gradient                   ...        0 min,  0.068 sec
 * total energy  :  -106.6794784 Eh     change       -0.8894204E-03 Eh
   gradient norm :     0.0164939 Eh/α   predicted    -0.1215420E-02 (  36.65%)
   displ. norm   :     0.4402746 α      lambda       -0.1632223E-02
   maximum displ.:     0.1264093 α      in ANC's #8, #11, #39, ...

........................................................................
.............................. CYCLE   16 ..............................
........................................................................

 iter      E             dE          RMSdq      gap      omega  full diag
   1   -107.4335919 -0.107434E+03  0.247E-01    0.17       0.0  T
   2    -96.6652505  0.107683E+02  0.614E+00    0.04       1.0  T
   3   -102.2095332 -0.554428E+01  0.420E+00    0.05       1.0  T
   4   -107.0027772 -0.479324E+01  0.138E+00    0.19       1.0  T
   5   -107.1125117 -0.109734E+00  0.113E+00    0.19       1.0  T
   6   -107.3824975 -0.269986E+00  0.509E-01    0.17       1.0  T
   7   -107.4475038 -0.650064E-01  0.897E-02    0.18       1.0  T
   8   -107.4483548 -0.850987E-03  0.726E-02    0.18       1.0  T
   9   -107.4481656  0.189252E-03  0.777E-02    0.18       1.0  T
  10   -107.4490486 -0.883085E-03  0.486E-02    0.18       1.0  T
  11   -107.4493164 -0.267738E-03  0.324E-02    0.18       1.0  T
  12   -107.4495395 -0.223097E-03  0.116E-02    0.18       1.1  T
  13   -107.4495507 -0.111892E-04  0.960E-03    0.18       1.3  T
  14   -107.4495668 -0.161749E-04  0.580E-03    0.18       2.2  T
  15   -107.4495743 -0.750097E-05  0.255E-03    0.18       4.9  T
  16   -107.4495746 -0.285635E-06  0.237E-03    0.18       5.3  T
  17   -107.4495756 -0.924110E-06  0.137E-03    0.18       9.1  T
  18   -107.4495760 -0.398716E-06  0.563E-04    0.18      22.2  T
  19   -107.4495760 -0.728513E-07  0.188E-04    0.18      66.6  T
  20   -107.4495760 -0.681794E-08  0.965E-05    0.18     129.5  T
     SCC iter.                  ...        0 min,  2.049 sec
     gradient                   ...        0 min,  0.064 sec
 * total energy  :  -106.6804655 Eh     change       -0.9871235E-03 Eh
   gradient norm :     0.0142354 Eh/α   predicted    -0.9743084E-03 (  -1.30%)
   displ. norm   :     0.4907389 α      lambda       -0.1164259E-02
   maximum displ.:     0.1447882 α      in ANC's #11, #21, #16, ...

........................................................................
.............................. CYCLE   17 ..............................
........................................................................

 iter      E             dE          RMSdq      gap      omega  full diag
   1   -107.4175608 -0.107418E+03  0.325E-01    0.18       0.0  T
   2    -85.0818497  0.223357E+02  0.841E+00    0.14       1.0  T
   3   -105.1737805 -0.200919E+02  0.288E+00    0.09       1.0  T
   4   -107.0322698 -0.185849E+01  0.128E+00    0.18       1.0  T
   5   -107.1535657 -0.121296E+00  0.108E+00    0.18       1.0  T
   6   -106.9390772  0.214488E+00  0.137E+00    0.18       1.0  T
   7   -107.4322807 -0.493204E+00  0.218E-01    0.18       1.0  T
   8   -107.4411534 -0.887266E-02  0.134E-01    0.19       1.0  T
   9   -107.4418537 -0.700327E-03  0.122E-01    0.19       1.0  T
  10   -107.4434021 -0.154844E-02  0.930E-02    0.19       1.0  T
  11   -107.4450038 -0.160161E-02  0.484E-02    0.18       1.0  T
  12   -107.4448682  0.135505E-03  0.520E-02    0.18       1.0  T
  13   -107.4450806 -0.212364E-03  0.431E-02    0.18       1.0  T
  14   -107.4455179 -0.437283E-03  0.157E-02    0.18       1.0  T
  15   -107.4455587 -0.407868E-04  0.969E-03    0.18       1.3  T
  16   -107.4455767 -0.180133E-04  0.457E-03    0.18       2.7  T
  17   -107.4455791 -0.237674E-05  0.345E-03    0.18       3.6  T
  18   -107.4455820 -0.294795E-05  0.116E-03    0.18      10.8  T
  19   -107.4455823 -0.315933E-06  0.224E-04    0.18      55.7  T
  20   -107.4455823 -0.105238E-07  0.674E-05    0.18     185.4  T
  21   -107.4455823 -0.110713E-08  0.215E-05    0.18     580.7  T
     SCC iter.                  ...        0 min,  2.184 sec
     gradient                   ...        0 min,  0.065 sec
 * total energy  :  -106.6811905 Eh     change       -0.7250195E-03 Eh
   gradient norm :     0.0146480 Eh/α   predicted    -0.7223222E-03 (  -0.37%)
   displ. norm   :     0.4920010 α      lambda       -0.1108890E-02
   maximum displ.:     0.1480647 α      in ANC's #2, #11, #21, ...

........................................................................
.............................. CYCLE   18 ..............................
........................................................................

 iter      E             dE          RMSdq      gap      omega  full diag
   1   -107.4043088 -0.107404E+03  0.409E-01    0.18       0.0  T
   2    -72.4418447  0.349625E+02  0.108E+01    0.05       1.0  T
   3   -103.7960439 -0.313542E+02  0.386E+00    0.14       1.0  T
   4   -106.1809243 -0.238488E+01  0.221E+00    0.14       1.0  T
   5   -106.4968950 -0.315971E+00  0.185E+00    0.18       1.0  T
   6   -107.2024276 -0.705533E+00  0.969E-01    0.18       1.0  T
   7   -107.4154317 -0.213004E+00  0.348E-01    0.17       1.0  T
   8   -107.4338961 -0.184644E-01  0.235E-01    0.19       1.0  T
   9   -107.4431414 -0.924535E-02  0.156E-01    0.19       1.0  T
  10   -107.4448008 -0.165937E-02  0.134E-01    0.19       1.0  T
  11   -107.4486815 -0.388067E-02  0.437E-02    0.19       1.0  T
  12   -107.4489124 -0.230908E-03  0.314E-02    0.19       1.0  T
  13   -107.4487690  0.143419E-03  0.385E-02    0.19       1.0  T
  14   -107.4490937 -0.324782E-03  0.188E-02    0.19       1.0  T
  15   -107.4491293 -0.355700E-04  0.126E-02    0.19       1.0  T
  16   -107.4491636 -0.342670E-04  0.453E-03    0.19       2.8  T
  17   -107.4491644 -0.843411E-06  0.415E-03    0.19       3.0  T
  18   -107.4491684 -0.395316E-05  0.160E-03    0.19       7.8  T
  19   -107.4491687 -0.312998E-06  0.114E-03    0.19      11.0  T
  20   -107.4491689 -0.267681E-06  0.552E-04    0.19      22.6  T
  21   -107.4491690 -0.288710E-07  0.423E-04    0.19      29.6  T
  22   -107.4491690 -0.392955E-07  0.853E-05    0.19     146.6  T
  23   -107.4491690 -0.466201E-09  0.712E-05    0.19     175.5  T
     SCC iter.                  ...        0 min,  2.322 sec
     gradient                   ...        0 min,  0.061 sec
 * total energy  :  -106.6819610 Eh     change       -0.7704084E-03 Eh
   gradient norm :     0.0120156 Eh/α   predicted    -0.6886601E-03 ( -10.61%)
   displ. norm   :     0.5069796 α      lambda       -0.1048740E-02
   maximum displ.:     0.1711843 α      in ANC's #11, #21, #6, ...

........................................................................
.............................. CYCLE   19 ..............................
........................................................................

 iter      E             dE          RMSdq      gap      omega  full diag
   1   -107.4468949 -0.107447E+03  0.173E-01    0.20       0.0  T
   2    -93.4423342  0.140046E+02  0.680E+00    0.10       1.0  T
   3   -106.8271672 -0.133848E+02  0.154E+00    0.18       1.0  T
   4   -107.2674296 -0.440262E+00  0.833E-01    0.18       1.0  T
   5   -107.2664438  0.985766E-03  0.865E-01    0.20       1.0  T
   6   -106.9926071  0.273837E+00  0.131E+00    0.17       1.0  T
   7   -107.4446847 -0.452078E+00  0.188E-01    0.20       1.0  T
   8   -107.4542881 -0.960342E-02  0.334E-02    0.20       1.0  T
   9   -107.4541524  0.135763E-03  0.422E-02    0.20       1.0  T
  10   -107.4544392 -0.286840E-03  0.242E-02    0.20       1.0  T
  11   -107.4543936  0.456094E-04  0.270E-02    0.20       1.0  T
  12   -107.4545391 -0.145486E-03  0.801E-03    0.20       1.6  T
  13   -107.4545427 -0.362401E-05  0.681E-03    0.20       1.8  T
  14   -107.4545480 -0.526333E-05  0.516E-03    0.20       2.4  T
  15   -107.4545546 -0.662095E-05  0.156E-03    0.20       8.0  T
  16   -107.4545552 -0.639677E-06  0.395E-04    0.20      31.7  T
  17   -107.4545552 -0.201816E-07  0.279E-04    0.20      44.9  T
  18   -107.4545553 -0.156021E-07  0.139E-04    0.20      89.9  T
  19   -107.4545553 -0.411686E-08  0.535E-05    0.20     233.6  T
     SCC iter.                  ...        0 min,  1.935 sec
     gradient                   ...        0 min,  0.066 sec
 * total energy  :  -106.6826484 Eh     change       -0.6874086E-03 Eh
   gradient norm :     0.0123042 Eh/α   predicted    -0.6591510E-03 (  -4.11%)
   displ. norm   :     0.5331180 α      lambda       -0.1015949E-02
   maximum displ.:     0.1672172 α      in ANC's #11, #21, #16, ...

........................................................................
.............................. CYCLE   20 ..............................
........................................................................

 iter      E             dE          RMSdq      gap      omega  full diag
   1   -107.4258827 -0.107426E+03  0.300E-01    0.19       0.0  T
   2    -82.3170652  0.251088E+02  0.891E+00    0.02       1.0  T
   3   -103.5695884 -0.212525E+02  0.389E+00    0.17       1.0  T
   4   -106.8859255 -0.331634E+01  0.150E+00    0.18       1.0  T
   5   -107.0751849 -0.189259E+00  0.118E+00    0.20       1.0  T
   6   -107.2251121 -0.149927E+00  0.928E-01    0.19       1.0  T
   7   -107.4482442 -0.223132E+00  0.927E-02    0.20       1.0  T
   8   -107.4470424  0.120188E-02  0.114E-01    0.21       1.0  T
   9   -107.4483703 -0.132795E-02  0.882E-02    0.21       1.0  T
  10   -107.4490020 -0.631631E-03  0.727E-02    0.21       1.0  T
  11   -107.4502564 -0.125443E-02  0.190E-02    0.20       1.0  T
  12   -107.4502252  0.311536E-04  0.214E-02    0.20       1.0  T
  13   -107.4502369 -0.116728E-04  0.200E-02    0.20       1.0  T
  14   -107.4503092 -0.723120E-04  0.111E-02    0.20       1.1  T
  15   -107.4503357 -0.265043E-04  0.502E-03    0.20       2.5  T
  16   -107.4503403 -0.461471E-05  0.246E-03    0.20       5.1  T
  17   -107.4503415 -0.113151E-05  0.132E-03    0.20       9.4  T
  18   -107.4503417 -0.227355E-06  0.846E-04    0.20      14.8  T
  19   -107.4503419 -0.169843E-06  0.204E-04    0.20      61.4  T
  20   -107.4503419 -0.866305E-08  0.659E-05    0.20     189.6  T
  21   -107.4503419 -0.848104E-09  0.297E-05    0.20     420.9  T
     SCC iter.                  ...        0 min,  2.249 sec
     gradient                   ...        0 min,  0.065 sec
 * total energy  :  -106.6833305 Eh     change       -0.6821480E-03 Eh
   gradient norm :     0.0126567 Eh/α   predicted    -0.6523466E-03 (  -4.37%)
   displ. norm   :     0.4449079 α      lambda       -0.8961151E-03
   maximum displ.:     0.1498341 α      in ANC's #11, #4, #27, ...
 * RMSD in coord.:     1.0527479 α      energy gain  -0.7433378E-01 Eh

generating ANC from model Hessian ...
Using Lindh-Hessian (1995)
 Shifting diagonal of input Hessian by    1.0469168644928216E-002
 Lowest  eigenvalues of input Hessian
    0.010000    0.010238    0.010394    0.010413    0.010452    0.000000
    0.000000    0.000000    0.000000    0.000000    0.000000    0.010519
    0.010527    0.010577    0.010611    0.010715    0.010849    0.010921
 Highest eigenvalues
    1.204935    1.517145    1.796946    1.893315    1.962601    2.066007


........................................................................
.............................. CYCLE   21 ..............................
........................................................................

 iter      E             dE          RMSdq      gap      omega  full diag
   1   -107.4484748 -0.107448E+03  0.126E-01    0.20       0.0  T
   2    -99.5653582  0.788312E+01  0.522E+00    0.11       1.0  T
   3   -107.2002707 -0.763491E+01  0.100E+00    0.20       1.0  T
   4   -107.1316940  0.685767E-01  0.108E+00    0.18       1.0  T
   5   -107.4258919 -0.294198E+00  0.341E-01    0.21       1.0  T
   6   -106.7996326  0.626259E+00  0.155E+00    0.17       1.0  T
   7   -107.4450780 -0.645445E+00  0.168E-01    0.20       1.0  T
   8   -107.4516304 -0.655241E-02  0.505E-02    0.21       1.0  T
   9   -107.4516526 -0.221117E-04  0.492E-02    0.20       1.0  T
  10   -107.4520885 -0.435969E-03  0.283E-02    0.21       1.0  T
  11   -107.4521815 -0.929747E-04  0.208E-02    0.21       1.0  T
  12   -107.4522731 -0.915883E-04  0.775E-03    0.21       1.6  T
  13   -107.4522844 -0.112874E-04  0.403E-03    0.21       3.1  T
  14   -107.4522851 -0.775793E-06  0.358E-03    0.21       3.5  T
  15   -107.4522877 -0.253193E-05  0.172E-03    0.21       7.3  T
  16   -107.4522881 -0.436238E-06  0.113E-03    0.21      11.1  T
  17   -107.4522883 -0.198728E-06  0.710E-04    0.21      17.6  T
  18   -107.4522884 -0.995856E-07  0.340E-04    0.21      36.7  T
  19   -107.4522884 -0.268984E-07  0.904E-05    0.21     138.3  T
  20   -107.4522884 -0.186530E-08  0.265E-05    0.21     471.1  T
     SCC iter.                  ...        0 min,  2.076 sec
     gradient                   ...        0 min,  0.069 sec
 * total energy  :  -106.6839193 Eh     change       -0.5887975E-03 Eh
   gradient norm :     0.0141331 Eh/α   predicted     0.0000000E+00 (-100.00%)
   displ. norm   :     0.1703322 α      lambda       -0.7211699E-03
   maximum displ.:     0.0481019 α      in ANC's #30, #38, #23, ...

........................................................................
.............................. CYCLE   22 ..............................
........................................................................

 iter      E             dE          RMSdq      gap      omega  full diag
   1   -107.4533567 -0.107453E+03  0.887E-02    0.20       0.0  T
   2   -102.8016924  0.465166E+01  0.401E+00    0.07       1.0  T
   3   -107.3459917 -0.454430E+01  0.639E-01    0.19       1.0  T
   4   -107.3664957 -0.205040E-01  0.574E-01    0.21       1.0  T
   5   -107.4111036 -0.446079E-01  0.433E-01    0.20       1.0  T
   6   -107.2406067  0.170497E+00  0.902E-01    0.19       1.0  T
   7   -107.4539810 -0.213374E+00  0.699E-02    0.20       1.0  T
   8   -107.4549005 -0.919496E-03  0.376E-02    0.20       1.0  T
   9   -107.4549498 -0.493567E-04  0.341E-02    0.20       1.0  T
  10   -107.4551138 -0.163916E-03  0.242E-02    0.20       1.0  T
  11   -107.4551524 -0.386458E-04  0.202E-02    0.20       1.0  T
  12   -107.4552116 -0.592395E-04  0.123E-02    0.20       1.0  T
  13   -107.4552360 -0.243379E-04  0.730E-03    0.20       1.7  T
  14   -107.4552406 -0.465448E-05  0.575E-03    0.20       2.2  T
  15   -107.4552472 -0.659189E-05  0.253E-03    0.20       4.9  T
  16   -107.4552488 -0.155908E-05  0.546E-04    0.20      22.9  T
  17   -107.4552488 -0.463389E-07  0.347E-04    0.20      36.0  T
  18   -107.4552489 -0.256538E-07  0.157E-04    0.20      79.8  T
  19   -107.4552489 -0.613069E-08  0.380E-05    0.20     329.4  T
     SCC iter.                  ...        0 min,  1.959 sec
     gradient                   ...        0 min,  0.065 sec
 * total energy  :  -106.6844664 Eh     change       -0.5471082E-03 Eh
   gradient norm :     0.0068970 Eh/α   predicted    -0.3710522E-03 ( -32.18%)
   displ. norm   :     0.4532112 α      lambda       -0.1275389E-02
   maximum displ.:     0.1371284 α      in ANC's #30, #27, #38, ...

........................................................................
.............................. CYCLE   23 ..............................
........................................................................

 iter      E             dE          RMSdq      gap      omega  full diag
   1   -107.4332871 -0.107433E+03  0.317E-01    0.20       0.0  T
   2    -75.9768401  0.314564E+02  0.102E+01    0.14       1.0  T
   3   -106.9312717 -0.309544E+02  0.154E+00    0.16       1.0  T
   4   -106.1384426  0.792829E+00  0.221E+00    0.19       1.0  T
   5   -107.1761275 -0.103768E+01  0.103E+00    0.15       1.0  T
   6   -107.1373340  0.387935E-01  0.109E+00    0.18       1.0  T
   7   -107.1372832  0.507773E-04  0.106E+00    0.19       1.0  T
   8   -107.4565017 -0.319218E+00  0.825E-02    0.19       1.0  T
   9   -107.4569704 -0.468697E-03  0.700E-02    0.20       1.0  T
  10   -107.4578893 -0.918925E-03  0.350E-02    0.20       1.0  T
  11   -107.4577003  0.189010E-03  0.429E-02    0.19       1.0  T
  12   -107.4580224 -0.322090E-03  0.249E-02    0.19       1.0  T
  13   -107.4581441 -0.121724E-03  0.121E-02    0.19       1.0  T
  14   -107.4581735 -0.293971E-04  0.597E-03    0.19       2.1  T
  15   -107.4581779 -0.433647E-05  0.435E-03    0.19       2.9  T
  16   -107.4581813 -0.342606E-05  0.239E-03    0.19       5.2  T
  17   -107.4581820 -0.733023E-06  0.163E-03    0.19       7.7  T
  18   -107.4581824 -0.419967E-06  0.922E-04    0.19      13.6  T
  19   -107.4581826 -0.171545E-06  0.276E-04    0.19      45.3  T
  20   -107.4581826 -0.143377E-07  0.140E-04    0.19      89.0  T
  21   -107.4581826 -0.370932E-08  0.673E-05    0.19     185.6  T
     SCC iter.                  ...        0 min,  2.103 sec
     gradient                   ...        0 min,  0.063 sec
 * total energy  :  -106.6850758 Eh     change       -0.6094166E-03 Eh
   gradient norm :     0.0116974 Eh/α   predicted    -0.7686776E-03 (  26.13%)
   displ. norm   :     0.3945253 α      lambda       -0.9406859E-03
   maximum displ.:     0.1188807 α      in ANC's #27, #29, #13, ...

........................................................................
.............................. CYCLE   24 ..............................
........................................................................

 iter      E             dE          RMSdq      gap      omega  full diag
   1   -107.4471632 -0.107447E+03  0.190E-01    0.18       0.0  T
   2    -94.0579657  0.133892E+02  0.655E+00    0.07       1.0  T
   3   -106.0920977 -0.120341E+02  0.226E+00    0.20       1.0  T
   4   -107.3638835 -0.127179E+01  0.576E-01    0.19       1.0  T
   5   -107.3650692 -0.118575E-02  0.593E-01    0.18       1.0  T
   6   -107.3743731 -0.930391E-02  0.555E-01    0.17       1.0  T
   7   -107.4071483 -0.327752E-01  0.467E-01    0.18       1.0  T
   8   -107.4546346 -0.474863E-01  0.726E-02    0.19       1.0  T
   9   -107.4552508 -0.616170E-03  0.589E-02    0.18       1.0  T
  10   -107.4544580  0.792768E-03  0.804E-02    0.18       1.0  T
  11   -107.4554664 -0.100844E-02  0.477E-02    0.18       1.0  T
  12   -107.4557361 -0.269643E-03  0.337E-02    0.18       1.0  T
  13   -107.4560260 -0.289953E-03  0.433E-03    0.18       2.9  T
  14   -107.4560286 -0.253458E-05  0.297E-03    0.18       4.2  T
  15   -107.4560298 -0.123124E-05  0.201E-03    0.18       6.2  T
  16   -107.4560303 -0.464540E-06  0.145E-03    0.18       8.6  T
  17   -107.4560306 -0.311317E-06  0.956E-04    0.18      13.1  T
  18   -107.4560307 -0.138948E-06  0.609E-04    0.18      20.5  T
  19   -107.4560308 -0.944882E-07  0.967E-05    0.18     129.3  T
  20   -107.4560308 -0.207730E-08  0.218E-05    0.18     574.2  T
     SCC iter.                  ...        0 min,  2.039 sec
     gradient                   ...        0 min,  0.074 sec
 * total energy  :  -106.6857383 Eh     change       -0.6624525E-03 Eh
   gradient norm :     0.0154971 Eh/α   predicted    -0.5435588E-03 ( -17.95%)
   displ. norm   :     0.3584075 α      lambda       -0.9357234E-03
   maximum displ.:     0.1197400 α      in ANC's #13, #23, #27, ...

........................................................................
.............................. CYCLE   25 ..............................
........................................................................

 iter      E             dE          RMSdq      gap      omega  full diag
   1   -107.4451167 -0.107445E+03  0.208E-01    0.17       0.0  T
   2    -94.1291410  0.133160E+02  0.657E+00    0.06       1.0  T
   3   -105.5387527 -0.114096E+02  0.267E+00    0.22       1.0  T
   4   -107.3104782 -0.177173E+01  0.723E-01    0.17       1.0  T
   5   -106.8310467  0.479431E+00  0.154E+00    0.18       1.0  T
   6   -107.4440385 -0.612992E+00  0.209E-01    0.17       1.0  T
   7   -107.4328065  0.112320E-01  0.323E-01    0.17       1.0  T
   8   -107.4536607 -0.208542E-01  0.824E-02    0.18       1.0  T
   9   -107.4544000 -0.739333E-03  0.688E-02    0.18       1.0  T
  10   -107.4536920  0.708018E-03  0.853E-02    0.17       1.0  T
  11   -107.4547851 -0.109303E-02  0.525E-02    0.17       1.0  T
  12   -107.4551906 -0.405579E-03  0.310E-02    0.17       1.0  T
  13   -107.4554236 -0.232984E-03  0.478E-03    0.17       2.6  T
  14   -107.4554258 -0.221166E-05  0.377E-03    0.17       3.3  T
  15   -107.4554282 -0.241652E-05  0.214E-03    0.17       5.8  T
  16   -107.4554285 -0.207315E-06  0.191E-03    0.17       6.5  T
  17   -107.4554289 -0.456606E-06  0.138E-03    0.17       9.1  T
  18   -107.4554292 -0.337331E-06  0.775E-04    0.17      16.1  T
  19   -107.4554294 -0.155107E-06  0.127E-04    0.17      98.5  T
  20   -107.4554294 -0.333857E-08  0.209E-05    0.17     597.6  T
     SCC iter.                  ...        0 min,  2.075 sec
     gradient                   ...        0 min,  0.069 sec
 * total energy  :  -106.6863765 Eh     change       -0.6382308E-03 Eh
   gradient norm :     0.0107524 Eh/α   predicted    -0.5279614E-03 ( -17.28%)
   displ. norm   :     0.4379201 α      lambda       -0.8381722E-03
   maximum displ.:     0.1516370 α      in ANC's #13, #17, #27, ...

........................................................................
.............................. CYCLE   26 ..............................
........................................................................

 iter      E             dE          RMSdq      gap      omega  full diag
   1   -107.4503082 -0.107450E+03  0.126E-01    0.18       0.0  T
   2    -98.7762151  0.867409E+01  0.551E+00    0.13       1.0  T
   3   -107.0696210 -0.829341E+01  0.116E+00    0.16       1.0  T
   4   -107.3893575 -0.319737E+00  0.499E-01    0.17       1.0  T
   5   -107.3372385  0.521190E-01  0.678E-01    0.16       1.0  T
   6   -107.0838495  0.253389E+00  0.118E+00    0.18       1.0  T
   7   -107.4503997 -0.366550E+00  0.120E-01    0.18       1.0  T
   8   -107.4537924 -0.339264E-02  0.391E-02    0.17       1.0  T
   9   -107.4538174 -0.250680E-04  0.356E-02    0.18       1.0  T
  10   -107.4541461 -0.328625E-03  0.984E-03    0.18       1.3  T
  11   -107.4541461 -0.698420E-07  0.931E-03    0.18       1.3  T
  12   -107.4541608 -0.147100E-04  0.554E-03    0.18       2.3  T
  13   -107.4541675 -0.670235E-05  0.228E-03    0.18       5.5  T
  14   -107.4541680 -0.490104E-06  0.183E-03    0.18       6.8  T
  15   -107.4541686 -0.520761E-06  0.122E-03    0.18      10.2  T
  16   -107.4541689 -0.376409E-06  0.371E-04    0.18      33.7  T
  17   -107.4541690 -0.315326E-07  0.161E-04    0.18      77.6  T
  18   -107.4541690 -0.411409E-08  0.104E-04    0.18     120.1  T
     SCC iter.                  ...        0 min,  1.823 sec
     gradient                   ...        0 min,  0.066 sec
 * total energy  :  -106.6869782 Eh     change       -0.6017338E-03 Eh
   gradient norm :     0.0112082 Eh/α   predicted    -0.4994568E-03 ( -17.00%)
   displ. norm   :     0.3928277 α      lambda       -0.7802453E-03
   maximum displ.:     0.1471773 α      in ANC's #13, #21, #17, ...

........................................................................
.............................. CYCLE   27 ..............................
........................................................................

 iter      E             dE          RMSdq      gap      omega  full diag
   1   -107.4563254 -0.107456E+03  0.103E-01    0.18       0.0  T
   2   -101.1863021  0.627002E+01  0.464E+00    0.08       1.0  T
   3   -107.2566609 -0.607036E+01  0.883E-01    0.19       1.0  T
   4   -107.3660903 -0.109429E+00  0.606E-01    0.17       1.0  T
   5   -107.3936705 -0.275801E-01  0.507E-01    0.17       1.0  T
   6   -107.1744038  0.219267E+00  0.101E+00    0.17       1.0  T
   7   -107.4581825 -0.283779E+00  0.587E-02    0.17       1.0  T
   8   -107.4572560  0.926505E-03  0.768E-02    0.18       1.0  T
   9   -107.4585763 -0.132031E-02  0.350E-02    0.18       1.0  T
  10   -107.4588924 -0.316079E-03  0.112E-02    0.18       1.1  T
  11   -107.4588852  0.723722E-05  0.119E-02    0.18       1.1  T
  12   -107.4589185 -0.333085E-04  0.361E-03    0.18       3.5  T
  13   -107.4589208 -0.234108E-05  0.155E-03    0.18       8.0  T
  14   -107.4589207  0.115104E-06  0.165E-03    0.18       7.6  T
  15   -107.4589211 -0.405374E-06  0.108E-03    0.18      11.5  T
  16   -107.4589213 -0.167456E-06  0.717E-04    0.18      17.4  T
  17   -107.4589214 -0.123720E-06  0.176E-04    0.18      71.1  T
  18   -107.4589214 -0.692808E-08  0.618E-05    0.18     202.4  T
     SCC iter.                  ...        0 min,  1.835 sec
     gradient                   ...        0 min,  0.065 sec
 * total energy  :  -106.6874526 Eh     change       -0.4743976E-03 Eh
   gradient norm :     0.0104939 Eh/α   predicted    -0.4503246E-03 (  -5.07%)
   displ. norm   :     0.6582288 α      lambda       -0.9268721E-03
   maximum displ.:     0.2418158 α      in ANC's #13, #21, #27, ...

........................................................................
.............................. CYCLE   28 ..............................
........................................................................

 iter      E             dE          RMSdq      gap      omega  full diag
   1   -107.4477186 -0.107448E+03  0.150E-01    0.17       0.0  T
   2    -94.0624223  0.133853E+02  0.660E+00    0.10       1.0  T
   3   -107.3660725 -0.133037E+02  0.576E-01    0.18       1.0  T
   4   -107.2342495  0.131823E+00  0.911E-01    0.17       1.0  T
   5   -107.3065507 -0.723012E-01  0.776E-01    0.14       1.0  T
   6   -106.6161185  0.690432E+00  0.173E+00    0.17       1.0  T
   7   -107.4504929 -0.834374E+00  0.107E-01    0.17       1.0  T
   8   -107.4524939 -0.200098E-02  0.572E-02    0.17       1.0  T
   9   -107.4528644 -0.370491E-03  0.431E-02    0.18       1.0  T
  10   -107.4532781 -0.413722E-03  0.205E-02    0.17       1.0  T
  11   -107.4532311  0.470270E-04  0.228E-02    0.17       1.0  T
  12   -107.4533432 -0.112090E-03  0.105E-02    0.17       1.2  T
  13   -107.4533620 -0.188190E-04  0.472E-03    0.17       2.6  T
  14   -107.4533644 -0.240146E-05  0.342E-03    0.17       3.7  T
  15   -107.4533653 -0.866126E-06  0.270E-03    0.17       4.6  T
  16   -107.4533665 -0.118165E-05  0.156E-03    0.17       8.0  T
  17   -107.4533670 -0.508786E-06  0.583E-04    0.17      21.4  T
  18   -107.4533671 -0.770341E-07  0.198E-04    0.17      63.1  T
  19   -107.4533671 -0.763885E-08  0.972E-05    0.17     128.6  T
     SCC iter.                  ...        0 min,  2.000 sec
     gradient                   ...        0 min,  0.067 sec
 * total energy  :  -106.6878893 Eh     change       -0.4366712E-03 Eh
   gradient norm :     0.0160614 Eh/α   predicted    -0.6642273E-03 (  52.11%)
   displ. norm   :     0.1511000 α      lambda       -0.5804604E-03
   maximum displ.:     0.0624223 α      in ANC's #13, #21, #5, ...

........................................................................
.............................. CYCLE   29 ..............................
........................................................................

 iter      E             dE          RMSdq      gap      omega  full diag
   1   -107.4592920 -0.107459E+03  0.352E-02    0.17       0.0  T
   2   -107.3401779  0.119114E+00  0.685E-01    0.16       1.0  T
   3   -107.4325403 -0.923624E-01  0.327E-01    0.17       1.0  T
   4   -107.4469342 -0.143939E-01  0.220E-01    0.17       1.0  T
   5   -107.4505618 -0.362758E-02  0.178E-01    0.17       1.0  T
   6   -107.4554930 -0.493126E-02  0.120E-01    0.17       1.0  T
   7   -107.4568712 -0.137820E-02  0.985E-02    0.18       1.0  T
   8   -107.4593095 -0.243824E-02  0.234E-02    0.17       1.0  T
   9   -107.4593830 -0.735038E-04  0.148E-02    0.17       1.0  T
  10   -107.4594301 -0.471451E-04  0.527E-03    0.17       2.4  T
  11   -107.4594374 -0.726448E-05  0.103E-03    0.17      12.1  T
  12   -107.4594373  0.107671E-06  0.111E-03    0.17      11.2  T
  13   -107.4594376 -0.292882E-06  0.430E-04    0.17      29.1  T
  14   -107.4594376 -0.332969E-07  0.235E-04    0.17      53.3  T
  15   -107.4594376 -0.924669E-08  0.145E-04    0.17      86.1  T
  16   -107.4594376 -0.529953E-08  0.462E-05    0.17     270.8  T
     SCC iter.                  ...        0 min,  1.621 sec
     gradient                   ...        0 min,  0.068 sec
 * total energy  :  -106.6882967 Eh     change       -0.4073773E-03 Eh
   gradient norm :     0.0066288 Eh/α   predicted    -0.2968615E-03 ( -27.13%)
   displ. norm   :     0.5097956 α      lambda       -0.5257438E-03
   maximum displ.:     0.2232086 α      in ANC's #13, #17, #21, ...

........................................................................
.............................. CYCLE   30 ..............................
........................................................................

 iter      E             dE          RMSdq      gap      omega  full diag
   1   -107.4578580 -0.107458E+03  0.102E-01    0.17       0.0  T
   2   -102.3129668  0.514489E+01  0.418E+00    0.02       1.0  T
   3   -107.2216017 -0.490863E+01  0.985E-01    0.19       1.0  T
   4   -107.3019950 -0.803933E-01  0.756E-01    0.16       1.0  T
   5   -107.4451170 -0.143122E+00  0.250E-01    0.15       1.0  T
   6   -107.1757471  0.269370E+00  0.105E+00    0.18       1.0  T
   7   -107.4567183 -0.280971E+00  0.119E-01    0.17       1.0  T
   8   -107.4595115 -0.279320E-02  0.587E-02    0.17       1.0  T
   9   -107.4601714 -0.659944E-03  0.320E-02    0.17       1.0  T
  10   -107.4603655 -0.194042E-03  0.194E-02    0.17       1.0  T
  11   -107.4603325  0.329819E-04  0.220E-02    0.17       1.0  T
  12   -107.4603925 -0.599856E-04  0.152E-02    0.17       1.0  T
  13   -107.4604467 -0.542227E-04  0.433E-03    0.17       2.9  T
  14   -107.4604512 -0.445213E-05  0.148E-03    0.17       8.4  T
  15   -107.4604515 -0.305648E-06  0.991E-04    0.17      12.6  T
  16   -107.4604516 -0.164701E-06  0.591E-04    0.17      21.2  T
  17   -107.4604517 -0.809566E-07  0.230E-04    0.17      54.3  T
  18   -107.4604517 -0.687265E-08  0.154E-04    0.17      81.1  T
  19   -107.4604517 -0.516373E-08  0.555E-05    0.17     225.1  T
     SCC iter.                  ...        0 min,  1.929 sec
     gradient                   ...        0 min,  0.063 sec
 * total energy  :  -106.6886563 Eh     change       -0.3596492E-03 Eh
   gradient norm :     0.0065459 Eh/α   predicted    -0.3311905E-03 (  -7.91%)
   displ. norm   :     0.4840077 α      lambda       -0.4373359E-03
   maximum displ.:     0.1931752 α      in ANC's #13, #17, #5, ...

........................................................................
.............................. CYCLE   31 ..............................
........................................................................

 iter      E             dE          RMSdq      gap      omega  full diag
   1   -107.4614821 -0.107461E+03  0.931E-02    0.15       0.0  T
   2   -105.5484510  0.191303E+01  0.263E+00    0.15       1.0  T
   3   -107.3595911 -0.181114E+01  0.665E-01    0.16       1.0  T
   4   -107.3609913 -0.140025E-02  0.620E-01    0.16       1.0  T
   5   -107.4514131 -0.904218E-01  0.216E-01    0.14       1.0  T
   6   -107.3391867  0.112226E+00  0.682E-01    0.17       1.0  T
   7   -107.4587044 -0.119518E+00  0.129E-01    0.16       1.0  T
   8   -107.4623464 -0.364197E-02  0.646E-02    0.15       1.0  T
   9   -107.4632976 -0.951200E-03  0.264E-02    0.16       1.0  T
  10   -107.4629235  0.374094E-03  0.473E-02    0.16       1.0  T
  11   -107.4629881 -0.645776E-04  0.441E-02    0.16       1.0  T
  12   -107.4633729 -0.384797E-03  0.202E-02    0.16       1.0  T
  13   -107.4633893 -0.164537E-04  0.195E-02    0.16       1.0  T
  14   -107.4634371 -0.477557E-04  0.136E-02    0.16       1.0  T
  15   -107.4634829 -0.457824E-04  0.318E-03    0.16       3.9  T
  16   -107.4634855 -0.262967E-05  0.352E-04    0.16      35.5  T
  17   -107.4634855  0.412170E-08  0.383E-04    0.16      32.6  T
  18   -107.4634855 -0.317286E-07  0.153E-04    0.16      81.9  T
  19   -107.4634855 -0.569332E-08  0.251E-05    0.16     497.1  T
     SCC iter.                  ...        0 min,  1.925 sec
     gradient                   ...        0 min,  0.076 sec
 * total energy  :  -106.6889212 Eh     change       -0.2648484E-03 Eh
   gradient norm :     0.0058415 Eh/α   predicted    -0.2698947E-03 (   1.91%)
   displ. norm   :     0.4542574 α      lambda       -0.2949347E-03
   maximum displ.:     0.1858542 α      in ANC's #13, #17, #5, ...

........................................................................
.............................. CYCLE   32 ..............................
........................................................................

 iter      E             dE          RMSdq      gap      omega  full diag
   1   -107.4596974 -0.107460E+03  0.989E-02    0.13       0.0  T
   2   -105.2637433  0.219595E+01  0.283E+00    0.11       1.0  T
   3   -107.3284305 -0.206469E+01  0.750E-01    0.17       1.0  T
   4   -107.3403436 -0.119131E-01  0.665E-01    0.16       1.0  T
   5   -107.4542082 -0.113865E+00  0.181E-01    0.15       1.0  T
   6   -107.3695105  0.846977E-01  0.587E-01    0.11       1.0  T
   7   -107.4520563 -0.825457E-01  0.198E-01    0.12       1.0  T
   8   -107.4598651 -0.780885E-02  0.876E-02    0.15       1.0  T
   9   -107.4614383 -0.157317E-02  0.465E-02    0.15       1.0  T
  10   -107.4617563 -0.318076E-03  0.354E-02    0.15       1.0  T
  11   -107.4618236 -0.672854E-04  0.309E-02    0.15       1.0  T
  12   -107.4619906 -0.166994E-03  0.158E-02    0.14       1.0  T
  13   -107.4620270 -0.363900E-04  0.108E-02    0.14       1.2  T
  14   -107.4620312 -0.417308E-05  0.992E-03    0.14       1.3  T
  15   -107.4620558 -0.246355E-04  0.200E-03    0.14       6.3  T
  16   -107.4620569 -0.103854E-05  0.414E-04    0.14      30.2  T
  17   -107.4620568  0.524471E-07  0.600E-04    0.14      20.8  T
  18   -107.4620569 -0.938849E-07  0.987E-05    0.14     126.6  T
  19   -107.4620569 -0.209694E-08  0.350E-05    0.14     357.6  T
     SCC iter.                  ...        0 min,  1.917 sec
     gradient                   ...        0 min,  0.060 sec
 * total energy  :  -106.6891388 Eh     change       -0.2176547E-03 Eh
   gradient norm :     0.0050459 Eh/α   predicted    -0.1778991E-03 ( -18.27%)
   displ. norm   :     0.4669152 α      lambda       -0.4292455E-03
   maximum displ.:     0.1992776 α      in ANC's #17, #5, #13, ...

........................................................................
.............................. CYCLE   33 ..............................
........................................................................

 iter      E             dE          RMSdq      gap      omega  full diag
   1   -107.4617878 -0.107462E+03  0.143E-01    0.11       0.0  T
   2   -105.0479385  0.241385E+01  0.305E+00    0.20       1.0  T
   3   -107.0990199 -0.205108E+01  0.122E+00    0.15       1.0  T
   4   -107.1771800 -0.781601E-01  0.101E+00    0.14       1.0  T
   5   -107.4509709 -0.273791E+00  0.253E-01    0.16       1.0  T
   6   -107.3722699  0.787009E-01  0.590E-01    0.10       1.0  T
   7   -107.4368052 -0.645352E-01  0.335E-01    0.11       1.0  T
   8   -107.4617574 -0.249522E-01  0.126E-01    0.14       1.0  T
   9   -107.4654006 -0.364324E-02  0.594E-02    0.14       1.0  T
  10   -107.4653995  0.116021E-05  0.636E-02    0.13       1.0  T
  11   -107.4656460 -0.246495E-03  0.536E-02    0.13       1.0  T
  12   -107.4663124 -0.666490E-03  0.169E-02    0.13       1.0  T
  13   -107.4662610  0.514034E-04  0.217E-02    0.13       1.0  T
  14   -107.4663227 -0.616546E-04  0.152E-02    0.13       1.0  T
  15   -107.4663709 -0.481687E-04  0.732E-03    0.13       1.7  T
  16   -107.4663849 -0.140559E-04  0.127E-03    0.13       9.9  T
  17   -107.4663852 -0.274630E-06  0.683E-04    0.13      18.3  T
  18   -107.4663853 -0.608145E-07  0.432E-04    0.13      28.9  T
  19   -107.4663853 -0.107853E-07  0.383E-04    0.13      32.7  T
  20   -107.4663853 -0.319366E-07  0.158E-04    0.13      79.1  T
  21   -107.4663853 -0.612579E-08  0.374E-05    0.13     334.3  T
     SCC iter.                  ...        0 min,  2.122 sec
     gradient                   ...        0 min,  0.061 sec
 * total energy  :  -106.6894379 Eh     change       -0.2990547E-03 Eh
   gradient norm :     0.0091506 Eh/α   predicted    -0.2614163E-03 ( -12.59%)
   displ. norm   :     0.5961030 α      lambda       -0.5520604E-03
   maximum displ.:     0.2606456 α      in ANC's #17, #5, #13, ...

........................................................................
.............................. CYCLE   34 ..............................
........................................................................

 iter      E             dE          RMSdq      gap      omega  full diag
   1   -107.4553744 -0.107455E+03  0.217E-01    0.08       0.0  T
   2   -104.7790329  0.267634E+01  0.331E+00    0.09       1.0  T
   3   -106.3520137 -0.157298E+01  0.207E+00    0.15       1.0  T
   4   -107.2957582 -0.943745E+00  0.781E-01    0.13       1.0  T
   5   -107.3798204 -0.840622E-01  0.581E-01    0.16       1.0  T
   6   -107.3595279  0.202926E-01  0.616E-01    0.10       1.0  T
   7   -107.3775889 -0.180610E-01  0.581E-01    0.11       1.0  T
   8   -107.4545278 -0.769388E-01  0.196E-01    0.12       1.0  T
   9   -107.4649734 -0.104457E-01  0.433E-02    0.11       1.0  T
  10   -107.4604247  0.454873E-02  0.140E-01    0.12       1.0  T
  11   -107.4600562  0.368460E-03  0.144E-01    0.11       1.0  T
  12   -107.4653745 -0.531827E-02  0.156E-02    0.11       1.0  T
  13   -107.4650203  0.354205E-03  0.397E-02    0.11       1.0  T
  14   -107.4651381 -0.117755E-03  0.337E-02    0.11       1.0  T
  15   -107.4654142 -0.276117E-03  0.960E-03    0.11       1.3  T
  16   -107.4654293 -0.151164E-04  0.618E-03    0.11       2.0  T
  17   -107.4654379 -0.856281E-05  0.182E-03    0.11       6.9  T
  18   -107.4654386 -0.773744E-06  0.531E-04    0.11      23.5  T
  19   -107.4654387 -0.246189E-07  0.424E-04    0.11      29.5  T
  20   -107.4654387 -0.445221E-07  0.845E-05    0.11     148.0  T
  21   -107.4654387 -0.171340E-08  0.236E-05    0.11     530.7  T
     SCC iter.                  ...        0 min,  2.116 sec
     gradient                   ...        0 min,  0.071 sec
 * total energy  :  -106.6899421 Eh     change       -0.5042192E-03 Eh
   gradient norm :     0.0110265 Eh/α   predicted    -0.3741189E-03 ( -25.80%)
   displ. norm   :     0.6865171 α      lambda       -0.1284039E-02
   maximum displ.:     0.2753252 α      in ANC's #17, #5, #8, ...

........................................................................
.............................. CYCLE   35 ..............................
........................................................................

 iter      E             dE          RMSdq      gap      omega  full diag
   1   -107.4318600 -0.107432E+03  0.411E-01    0.04       0.0  T
   2    -95.5987934  0.118331E+02  0.666E+00    0.20       1.0  T
   3   -103.7211303 -0.812234E+01  0.392E+00    0.16       1.0  T
   4   -101.3152042  0.240593E+01  0.455E+00    0.07       1.0  T
   5   -107.3308437 -0.601564E+01  0.726E-01    0.09       1.0  T
   6   -105.1396557  0.219119E+01  0.293E+00    0.13       1.0  T
   7   -107.3079150 -0.216826E+01  0.779E-01    0.09       1.0  T
   8   -107.3873333 -0.794183E-01  0.550E-01    0.07       1.0  T
   9   -107.4665053 -0.791720E-01  0.118E-01    0.11       1.0  T
  10   -107.4690791 -0.257374E-02  0.553E-02    0.09       1.0  T
  11   -107.4596992  0.937989E-02  0.194E-01    0.09       1.0  T
  12   -107.4630705 -0.337130E-02  0.157E-01    0.09       1.0  T
  13   -107.4684556 -0.538514E-02  0.674E-02    0.08       1.0  T
  14   -107.4672218  0.123385E-02  0.962E-02    0.08       1.0  T
  15   -107.4683406 -0.111878E-02  0.696E-02    0.09       1.0  T
  16   -107.4692121 -0.871518E-03  0.372E-02    0.08       1.0  T
  17   -107.4695183 -0.306186E-03  0.134E-02    0.08       1.0  T
  18   -107.4695385 -0.202513E-04  0.990E-03    0.08       1.3  T
  19   -107.4695355  0.298402E-05  0.109E-02    0.08       1.1  T
  20   -107.4695628 -0.272503E-04  0.346E-03    0.08       3.6  T
  21   -107.4695655 -0.274556E-05  0.104E-03    0.08      12.1  T
  22   -107.4695658 -0.240198E-06  0.294E-04    0.08      42.5  T
  23   -107.4695658 -0.188417E-07  0.107E-04    0.08     117.4  T
  24   -107.4695658 -0.203892E-08  0.592E-05    0.08     211.1  T
     SCC iter.                  ...        0 min,  2.457 sec
     gradient                   ...        0 min,  0.071 sec
 * total energy  :  -106.6908714 Eh     change       -0.9292779E-03 Eh
   gradient norm :     0.0177284 Eh/α   predicted    -0.9446080E-03 (   1.65%)
   displ. norm   :     0.7136918 α      lambda       -0.1382678E-02
   maximum displ.:     0.3102157 α      in ANC's #17, #5, #7, ...

........................................................................
.............................. CYCLE   36 ..............................
........................................................................

 iter      E             dE          RMSdq      gap      omega  full diag
   1   -107.3812477 -0.107381E+03  0.590E-01    0.02       0.0  T
   2    -90.9685195  0.164127E+02  0.757E+00    0.16       1.0  T
   3    -97.1870960 -0.621858E+01  0.646E+00    0.09       1.0  T
   4    -99.2821202 -0.209502E+01  0.529E+00    0.13       1.0  T
   5   -107.0353404 -0.775322E+01  0.126E+00    0.06       1.0  T
   6   -106.8995205  0.135820E+00  0.140E+00    0.04       1.0  T
   7   -106.7702561  0.129264E+00  0.163E+00    0.07       1.0  T
   8   -107.3798853 -0.609629E+00  0.536E-01    0.06       1.0  T
   9   -107.4025641 -0.226788E-01  0.489E-01    0.05       1.0  T
  10   -107.3648729  0.376911E-01  0.626E-01    0.11       1.0  T
  11   -107.3808001 -0.159271E-01  0.568E-01    0.11       1.0  T
  12   -107.4552533 -0.744532E-01  0.185E-01    0.04       1.0  T
  13   -107.4599880 -0.473475E-02  0.140E-01    0.09       1.0  T
  14   -107.4644045 -0.441651E-02  0.376E-02    0.07       1.0  T
  15   -107.4640211  0.383421E-03  0.529E-02    0.07       1.0  T
  16   -107.4629852  0.103587E-02  0.837E-02    0.06       1.0  T
  17   -107.4641651 -0.117986E-02  0.490E-02    0.07       1.0  T
  18   -107.4645980 -0.432864E-03  0.261E-02    0.07       1.0  T
  19   -107.4647576 -0.159634E-03  0.757E-03    0.07       1.7  T
  20   -107.4647699 -0.122855E-04  0.306E-03    0.07       4.1  T
  21   -107.4647718 -0.195287E-05  0.127E-03    0.07       9.8  T
  22   -107.4647722 -0.347757E-06  0.422E-04    0.07      29.6  T
  23   -107.4647722 -0.407469E-07  0.109E-04    0.07     114.3  T
  24   -107.4647722 -0.256665E-08  0.309E-05    0.07     405.1  T
     SCC iter.                  ...        0 min,  2.723 sec
     gradient                   ...        0 min,  0.074 sec
 * total energy  :  -106.6921480 Eh     change       -0.1276621E-02 Eh
   gradient norm :     0.0215450 Eh/α   predicted    -0.1043479E-02 ( -18.26%)
   displ. norm   :     0.6957353 α      lambda       -0.3688931E-02
   maximum displ.:     0.1911772 α      in ANC's #3, #15, #53, ...

........................................................................
.............................. CYCLE   37 ..............................
........................................................................

 iter      E             dE          RMSdq      gap      omega  full diag
   1   -107.1521270 -0.107152E+03  0.111E+00    0.04       0.0  T
   2    -48.5367785  0.586153E+02  0.131E+01    0.25       1.0  T
   3    -96.6671308 -0.481304E+02  0.725E+00    0.06       1.0  T
   4   -105.7700580 -0.910293E+01  0.271E+00    0.32       1.0  T
   5    -94.0870107  0.116830E+02  0.677E+00    0.26       1.0  T
   6   -106.3778376 -0.122908E+02  0.194E+00    0.10       1.0  T
   7   -105.8772747  0.500563E+00  0.242E+00    0.20       1.0  T
   8   -107.4375317 -0.156026E+01  0.360E-01    0.11       1.0  T
   9   -107.4474332 -0.990150E-02  0.286E-01    0.07       1.0  T
  10   -107.2474334  0.200000E+00  0.948E-01    0.16       1.0  T
  11   -107.2149419  0.324915E-01  0.100E+00    0.16       1.0  T
  12   -107.4438448 -0.228903E+00  0.291E-01    0.04       1.0  T
  13   -107.4166148  0.272299E-01  0.442E-01    0.15       1.0  T
  14   -107.4605709 -0.439561E-01  0.149E-01    0.08       1.0  T
  15   -107.4631088 -0.253787E-02  0.110E-01    0.07       1.0  T
  16   -107.4636122 -0.503429E-03  0.103E-01    0.09       1.0  T
  17   -107.4632750  0.337175E-03  0.109E-01    0.06       1.0  T
  18   -107.4659968 -0.272176E-02  0.343E-02    0.08       1.0  T
  19   -107.4662174 -0.220599E-03  0.179E-02    0.08       1.0  T
  20   -107.4662679 -0.505185E-04  0.109E-02    0.08       1.2  T
  21   -107.4661755  0.923893E-04  0.215E-02    0.07       1.0  T
  22   -107.4662526 -0.771189E-04  0.123E-02    0.08       1.0  T
  23   -107.4662751 -0.224863E-04  0.772E-03    0.08       1.6  T
  24   -107.4662871 -0.120219E-04  0.331E-03    0.08       3.8  T
  25   -107.4662894 -0.228184E-05  0.143E-03    0.08       8.8  T
  26   -107.4662899 -0.476052E-06  0.436E-04    0.08      28.7  T
  27   -107.4662899 -0.279704E-07  0.288E-04    0.08      43.4  T
  28   -107.4662899 -0.207436E-07  0.274E-05    0.08     457.0  T
  29   -107.4662899 -0.106652E-09  0.151E-05    0.08     828.6  T
     SCC iter.                  ...        0 min,  2.865 sec
     gradient                   ...        0 min,  0.063 sec
 * total energy  :  -106.6934007 Eh     change       -0.1252642E-02 Eh
   gradient norm :     0.0334053 Eh/α   predicted    -0.2737272E-02 ( 118.52%)
   displ. norm   :     0.4486142 α      lambda       -0.3061529E-02
   maximum displ.:     0.1852244 α      in ANC's #17, #5, #20, ...

........................................................................
.............................. CYCLE   38 ..............................
........................................................................

 iter      E             dE          RMSdq      gap      omega  full diag
   1   -107.4284436 -0.107428E+03  0.383E-01    0.05       0.0  T
   2    -90.0143126  0.174141E+02  0.773E+00    0.33       1.0  T
   3   -103.9170193 -0.139027E+02  0.383E+00    0.17       1.0  T
   4   -104.6646336 -0.747614E+00  0.313E+00    0.13       1.0  T
   5   -107.4401213 -0.277549E+01  0.309E-01    0.15       1.0  T
   6   -106.5556341  0.884487E+00  0.183E+00    0.01       1.0  T
   7   -107.3547283 -0.799094E+00  0.633E-01    0.04       1.0  T
   8   -107.4446805 -0.899522E-01  0.271E-01    0.15       1.0  T
   9   -107.4475522 -0.287168E-02  0.248E-01    0.13       1.0  T
  10   -107.4439866  0.356559E-02  0.269E-01    0.11       1.0  T
  11   -107.4481180 -0.413140E-02  0.235E-01    0.09       1.0  T
  12   -107.4560614 -0.794341E-02  0.158E-01    0.10       1.0  T
  13   -107.4619227 -0.586132E-02  0.496E-02    0.08       1.0  T
  14   -107.4618859  0.367886E-04  0.501E-02    0.08       1.0  T
  15   -107.4618515  0.344448E-04  0.507E-02    0.08       1.0  T
  16   -107.4621620 -0.310496E-03  0.372E-02    0.08       1.0  T
  17   -107.4622988 -0.136879E-03  0.291E-02    0.08       1.0  T
  18   -107.4625185 -0.219691E-03  0.374E-03    0.08       3.3  T
  19   -107.4625215 -0.297743E-05  0.181E-03    0.08       6.9  T
  20   -107.4625220 -0.459108E-06  0.117E-03    0.08      10.7  T
  21   -107.4625223 -0.285633E-06  0.530E-04    0.08      23.6  T
  22   -107.4625223 -0.591426E-07  0.210E-04    0.08      59.4  T
  23   -107.4625223 -0.759269E-08  0.120E-04    0.08     103.8  T
  24   -107.4625223 -0.375412E-08  0.175E-05    0.08     714.0  T
     SCC iter.                  ...        0 min,  2.386 sec
     gradient                   ...        0 min,  0.061 sec
 * total energy  :  -106.6954182 Eh     change       -0.2017570E-02 Eh
   gradient norm :     0.0221679 Eh/α   predicted    -0.1838842E-02 (  -8.86%)
   displ. norm   :     0.3769636 α      lambda       -0.3385159E-02
   maximum displ.:     0.1339590 α      in ANC's #18, #27, #17, ...

........................................................................
.............................. CYCLE   39 ..............................
........................................................................

 iter      E             dE          RMSdq      gap      omega  full diag
   1   -107.4191981 -0.107419E+03  0.468E-01    0.02       0.0  T
   2    -88.7764670  0.186427E+02  0.788E+00    0.30       1.0  T
   3   -101.5298984 -0.127534E+02  0.470E+00    0.09       1.0  T
   4   -105.8737298 -0.434383E+01  0.249E+00    0.14       1.0  T
   5   -107.3394556 -0.146573E+01  0.755E-01    0.10       1.0  T
   6   -103.2763675  0.406309E+01  0.386E+00    0.28       1.0  T
   7   -107.4693301 -0.419296E+01  0.202E-01    0.14       1.0  T
   8   -107.4321544  0.371757E-01  0.414E-01    0.09       1.0  T
   9   -107.4188931  0.132614E-01  0.458E-01    0.06       1.0  T
  10   -107.4282831 -0.939008E-02  0.429E-01    0.15       1.0  T
  11   -107.4532532 -0.249701E-01  0.293E-01    0.12       1.0  T
  12   -107.4389039  0.143493E-01  0.385E-01    0.02       1.0  T
  13   -107.4721563 -0.332524E-01  0.135E-01    0.09       1.0  T
  14   -107.4760973 -0.394099E-02  0.568E-02    0.08       1.0  T
  15   -107.4763073 -0.210017E-03  0.489E-02    0.07       1.0  T
  16   -107.4769403 -0.632964E-03  0.529E-03    0.07       2.4  T
  17   -107.4769067  0.335649E-04  0.125E-02    0.07       1.0  T
  18   -107.4769294 -0.227063E-04  0.824E-03    0.07       1.5  T
  19   -107.4769447 -0.152481E-04  0.316E-03    0.07       4.0  T
  20   -107.4769467 -0.203334E-05  0.158E-03    0.07       7.9  T
  21   -107.4769471 -0.410381E-06  0.106E-03    0.07      11.8  T
  22   -107.4769473 -0.193097E-06  0.560E-04    0.07      22.3  T
  23   -107.4769474 -0.667980E-07  0.186E-04    0.07      67.1  T
  24   -107.4769474 -0.377588E-08  0.138E-04    0.07      90.5  T
     SCC iter.                  ...        0 min,  2.411 sec
     gradient                   ...        0 min,  0.068 sec
 * total energy  :  -106.6966924 Eh     change       -0.1274197E-02 Eh
   gradient norm :     0.0183087 Eh/α   predicted    -0.1933098E-02 (  51.71%)
   displ. norm   :     0.6367093 α      lambda       -0.3209502E-02
   maximum displ.:     0.1609352 α      in ANC's #53, #5, #72, ...

........................................................................
.............................. CYCLE   40 ..............................
........................................................................

 iter      E             dE          RMSdq      gap      omega  full diag
   1   -107.3313523 -0.107331E+03  0.758E-01    0.01       0.0  T
   2    -87.4780031  0.198533E+02  0.816E+00    0.31       1.0  T
   3    -95.1103593 -0.763236E+01  0.674E+00    0.09       1.0  T
   4   -103.6048432 -0.849448E+01  0.393E+00    0.15       1.0  T
   5   -107.2779983 -0.367316E+01  0.900E-01    0.19       1.0  T
   6    -97.1432568  0.101347E+02  0.589E+00    0.22       1.0  T
   7   -107.4243607 -0.102811E+02  0.446E-01    0.18       1.0  T
   8   -107.4185016  0.585915E-02  0.502E-01    0.18       1.0  T
   9   -107.3576847  0.608168E-01  0.669E-01    0.06       1.0  T
  10   -107.2817598  0.759250E-01  0.858E-01    0.19       1.0  T
  11   -107.3526425 -0.708828E-01  0.677E-01    0.19       1.0  T
  12   -107.4598129 -0.107170E+00  0.263E-01    0.05       1.0  T
  13   -107.4622939 -0.248100E-02  0.233E-01    0.08       1.0  T
  14   -107.4716557 -0.936181E-02  0.119E-01    0.09       1.0  T
  15   -107.4715758  0.799254E-04  0.121E-01    0.07       1.0  T
  16   -107.4719295 -0.353727E-03  0.113E-01    0.10       1.0  T
  17   -107.4746594 -0.272992E-02  0.490E-02    0.08       1.0  T
  18   -107.4745913  0.681696E-04  0.512E-02    0.08       1.0  T
  19   -107.4747617 -0.170404E-03  0.441E-02    0.08       1.0  T
  20   -107.4748913 -0.129646E-03  0.375E-02    0.08       1.0  T
  21   -107.4751949 -0.303550E-03  0.150E-02    0.07       1.0  T
  22   -107.4752214 -0.265069E-04  0.112E-02    0.08       1.1  T
  23   -107.4752470 -0.255878E-04  0.473E-03    0.08       2.6  T
  24   -107.4752512 -0.423491E-05  0.230E-03    0.08       5.4  T
  25   -107.4752525 -0.124639E-05  0.586E-04    0.08      21.3  T
  26   -107.4752525 -0.808865E-07  0.156E-04    0.08      80.2  T
  27   -107.4752525 -0.332300E-08  0.106E-04    0.08     117.8  T
     SCC iter.                  ...        0 min,  2.685 sec
     gradient                   ...        0 min,  0.067 sec
 * total energy  :  -106.6971057 Eh     change       -0.4132974E-03 Eh
   gradient norm :     0.0182631 Eh/α   predicted    -0.2255315E-02 ( 445.69%)
   displ. norm   :     0.5063002 α      lambda       -0.2793348E-02
   maximum displ.:     0.1694120 α      in ANC's #32, #18, #34, ...

........................................................................
.............................. CYCLE   41 ..............................
........................................................................

 iter      E             dE          RMSdq      gap      omega  full diag
   1   -107.3484162 -0.107348E+03  0.703E-01    0.01       0.0  T
   2    -94.6478869  0.127005E+02  0.664E+00    0.16       1.0  T
   3    -85.9395942  0.870829E+01  0.858E+00    0.07       1.0  T
   4   -104.7329769 -0.187934E+02  0.356E+00    0.11       1.0  T
   5   -107.0147117 -0.228173E+01  0.130E+00    0.16       1.0  T
   6   -105.6808337  0.133388E+01  0.257E+00    0.21       1.0  T
   7   -107.3034352 -0.162260E+01  0.794E-01    0.18       1.0  T
   8   -107.3560690 -0.526338E-01  0.733E-01    0.23       1.0  T
   9   -107.2838358  0.722332E-01  0.881E-01    0.17       1.0  T
  10   -107.2969478 -0.131119E-01  0.825E-01    0.14       1.0  T
  11   -107.2088471  0.881007E-01  0.103E+00    0.02       1.0  T
  12   -107.4671471 -0.258300E+00  0.212E-01    0.18       1.0  T
  13   -107.4651388  0.200834E-02  0.230E-01    0.11       1.0  T
  14   -107.4043958  0.607431E-01  0.534E-01    0.02       1.0  T
  15   -107.4698006 -0.654048E-01  0.188E-01    0.11       1.0  T
  16   -107.4757014 -0.590084E-02  0.105E-01    0.10       1.0  T
  17   -107.4777296 -0.202824E-02  0.560E-02    0.08       1.0  T
  18   -107.4784933 -0.763691E-03  0.912E-03    0.07       1.4  T
  19   -107.4783789  0.114402E-03  0.233E-02    0.08       1.0  T
  20   -107.4785086 -0.129643E-03  0.356E-03    0.07       3.5  T
  21   -107.4785082  0.348810E-06  0.350E-03    0.07       3.6  T
  22   -107.4785102 -0.197455E-05  0.218E-03    0.07       5.7  T
  23   -107.4785113 -0.112303E-05  0.501E-04    0.07      24.9  T
  24   -107.4785114 -0.566980E-07  0.695E-05    0.07     179.8  T
  25   -107.4785114 -0.191704E-10  0.619E-05    0.07     201.8  T
     SCC iter.                  ...        0 min,  2.476 sec
     gradient                   ...        0 min,  0.064 sec
 * total energy  :  -106.6991059 Eh     change       -0.2000150E-02 Eh
   gradient norm :     0.0224758 Eh/α   predicted    -0.1754700E-02 ( -12.27%)
   displ. norm   :     0.6693220 α      lambda       -0.3975978E-02
   maximum displ.:     0.2855270 α      in ANC's #34, #18, #32, ...

........................................................................
.............................. CYCLE   42 ..............................
........................................................................

 iter      E             dE          RMSdq      gap      omega  full diag
   1   -107.2725282 -0.107273E+03  0.899E-01    0.05       0.0  T
   2    -76.9651259  0.303074E+02  0.988E+00    0.19       1.0  T
   3    -92.6889170 -0.157238E+02  0.748E+00    0.04       1.0  T
   4   -103.3929025 -0.107040E+02  0.402E+00    0.07       1.0  T
   5   -106.9903783 -0.359748E+01  0.141E+00    0.11       1.0  T
   6    -99.6512920  0.733909E+01  0.521E+00    0.30       1.0  T
   7   -107.2919137 -0.764062E+01  0.844E-01    0.15       1.0  T
   8   -107.3926616 -0.100748E+00  0.654E-01    0.24       1.0  T
   9   -107.3686604  0.240013E-01  0.696E-01    0.24       1.0  T
  10   -107.3501628  0.184976E-01  0.716E-01    0.10       1.0  T
  11   -107.3866962 -0.365334E-01  0.586E-01    0.03       1.0  T
  12   -107.3641225  0.225737E-01  0.688E-01    0.24       1.0  T
  13   -107.4150979 -0.509754E-01  0.515E-01    0.23       1.0  T
  14   -107.4654351 -0.503373E-01  0.257E-01    0.08       1.0  T
  15   -107.4727993 -0.736414E-02  0.191E-01    0.07       1.0  T
  16   -107.4789922 -0.619294E-02  0.111E-01    0.07       1.0  T
  17   -107.4815555 -0.256329E-02  0.561E-02    0.07       1.0  T
  18   -107.4821002 -0.544695E-03  0.310E-02    0.06       1.0  T
  19   -107.4823272 -0.226952E-03  0.101E-02    0.07       1.2  T
  20   -107.4823377 -0.104901E-04  0.723E-03    0.06       1.7  T
  21   -107.4823474 -0.976638E-05  0.355E-03    0.06       3.5  T
  22   -107.4823488 -0.142368E-05  0.260E-03    0.06       4.8  T
  23   -107.4823491 -0.214721E-06  0.244E-03    0.06       5.1  T
  24   -107.4823502 -0.111585E-05  0.116E-03    0.06      10.7  T
  25   -107.4823504 -0.226481E-06  0.701E-04    0.06      17.8  T
  26   -107.4823505 -0.686226E-07  0.480E-04    0.06      26.0  T
  27   -107.4823505 -0.419242E-07  0.249E-04    0.06      50.1  T
  28   -107.4823505 -0.159227E-07  0.236E-05    0.06     529.1  T
  29   -107.4823505 -0.122554E-09  0.921E-06    0.06    1357.8  T
     SCC iter.                  ...        0 min,  2.902 sec
     gradient                   ...        0 min,  0.068 sec
 * total energy  :  -106.7018135 Eh     change       -0.2707607E-02 Eh
   gradient norm :     0.0240389 Eh/α   predicted    -0.2878590E-02 (   6.31%)
   displ. norm   :     0.4706179 α      lambda       -0.3511511E-02
   maximum displ.:     0.2427292 α      in ANC's #34, #18, #21, ...
 * RMSD in coord.:     0.8927625 α      energy gain  -0.1848297E-01 Eh

generating ANC from model Hessian ...
Using Lindh-Hessian (1995)
 Shifting diagonal of input Hessian by    1.5085143842203648E-002
 Lowest  eigenvalues of input Hessian
    0.010000    0.014367    0.014459    0.014734    0.014839    0.015057
    0.015067    0.000000    0.000000    0.000000    0.000000    0.000000
    0.000000    0.015106    0.015126    0.015159    0.015182    0.015220
 Highest eigenvalues
    1.214143    1.546072    1.834703    1.903103    1.947746    2.080469


........................................................................
.............................. CYCLE   43 ..............................
........................................................................

 iter      E             dE          RMSdq      gap      omega  full diag
   1   -107.3572647 -0.107357E+03  0.710E-01    0.02       0.0  T
   2    -73.7869284  0.335703E+02  0.101E+01    0.34       1.0  T
   3   -106.2317136 -0.324448E+02  0.250E+00    0.15       1.0  T
   4   -107.1058597 -0.874146E+00  0.119E+00    0.16       1.0  T
   5   -101.3540443  0.575182E+01  0.458E+00    0.07       1.0  T
   6   -107.1237978 -0.576975E+01  0.117E+00    0.24       1.0  T
   7   -107.3545763 -0.230779E+00  0.722E-01    0.16       1.0  T
   8   -107.4539977 -0.994214E-01  0.367E-01    0.13       1.0  T
   9   -107.4619638 -0.796611E-02  0.300E-01    0.00       1.0  T
  10   -107.4541294  0.783444E-02  0.361E-01    0.14       1.0  T
  11   -107.4717610 -0.176316E-01  0.244E-01    0.13       1.0  T
  12   -107.4862262 -0.144652E-01  0.631E-02    0.07       1.0  T
  13   -107.4854028  0.823470E-03  0.829E-02    0.04       1.0  T
  14   -107.4868697 -0.146690E-02  0.325E-02    0.06       1.0  T
  15   -107.4869840 -0.114340E-03  0.248E-02    0.06       1.0  T
  16   -107.4870581 -0.740662E-04  0.176E-02    0.05       1.0  T
  17   -107.4870931 -0.350340E-04  0.131E-02    0.06       1.0  T
  18   -107.4871100 -0.169025E-04  0.965E-03    0.06       1.3  T
  19   -107.4871273 -0.172476E-04  0.463E-03    0.06       2.7  T
  20   -107.4871315 -0.423765E-05  0.216E-03    0.06       5.8  T
  21   -107.4871325 -0.995390E-06  0.877E-04    0.06      14.3  T
  22   -107.4871327 -0.176765E-06  0.284E-04    0.06      44.1  T
  23   -107.4871327 -0.201171E-07  0.474E-05    0.06     263.6  T
  24   -107.4871327 -0.503377E-09  0.164E-05    0.06     760.9  T
     SCC iter.                  ...        0 min,  2.379 sec
     gradient                   ...        0 min,  0.065 sec
 * total energy  :  -106.7031519 Eh     change       -0.1338440E-02 Eh
   gradient norm :     0.0220146 Eh/α   predicted     0.0000000E+00 (-100.00%)
   displ. norm   :     0.2692771 α      lambda       -0.3098765E-02
   maximum displ.:     0.1649445 α      in ANC's #1, #42, #30, ...

........................................................................
.............................. CYCLE   44 ..............................
........................................................................

 iter      E             dE          RMSdq      gap      omega  full diag
   1   -107.3966084 -0.107397E+03  0.561E-01    0.00       0.0  T
   2    -85.5472703  0.218493E+02  0.857E+00    0.11       1.0  T
   3    -94.7330590 -0.918579E+01  0.678E+00    0.30       1.0  T
   4   -106.0921419 -0.113591E+02  0.255E+00    0.13       1.0  T
   5   -107.1488371 -0.105670E+01  0.115E+00    0.23       1.0  T
   6   -101.3218153  0.582702E+01  0.465E+00    0.07       1.0  T
   7   -107.4678206 -0.614601E+01  0.267E-01    0.18       1.0  T
   8   -107.4125979  0.552228E-01  0.515E-01    0.00       1.0  T
   9   -107.4009072  0.116907E-01  0.555E-01    0.15       1.0  T
  10   -107.4232625 -0.223553E-01  0.470E-01    0.10       1.0  T
  11   -107.4509146 -0.276521E-01  0.364E-01    0.01       1.0  T
  12   -107.4773877 -0.264731E-01  0.156E-01    0.10       1.0  T
  13   -107.4813812 -0.399352E-02  0.988E-02    0.07       1.0  T
  14   -107.4817172 -0.335914E-03  0.899E-02    0.07       1.0  T
  15   -107.4831798 -0.146262E-02  0.496E-02    0.06       1.0  T
  16   -107.4832660 -0.862407E-04  0.447E-02    0.05       1.0  T
  17   -107.4831622  0.103785E-03  0.492E-02    0.06       1.0  T
  18   -107.4837446 -0.582389E-03  0.110E-02    0.06       1.1  T
  19   -107.4837611 -0.164539E-04  0.766E-03    0.06       1.6  T
  20   -107.4837706 -0.952887E-05  0.433E-03    0.06       2.9  T
  21   -107.4837750 -0.444542E-05  0.117E-03    0.06      10.7  T
  22   -107.4837753 -0.300561E-06  0.396E-04    0.06      31.6  T
  23   -107.4837754 -0.371018E-07  0.106E-04    0.06     117.7  T
  24   -107.4837754 -0.260262E-08  0.340E-05    0.06     368.0  T
     SCC iter.                  ...        0 min,  2.397 sec
     gradient                   ...        0 min,  0.069 sec
 * total energy  :  -106.7046303 Eh     change       -0.1478416E-02 Eh
   gradient norm :     0.0089107 Eh/α   predicted    -0.1661753E-02 (  12.40%)
   displ. norm   :     0.2554162 α      lambda       -0.1342312E-02
   maximum displ.:     0.1053166 α      in ANC's #30, #21, #1, ...

........................................................................
.............................. CYCLE   45 ..............................
........................................................................

 iter      E             dE          RMSdq      gap      omega  full diag
   1   -107.4532800 -0.107453E+03  0.350E-01    0.10       0.0  T
   2    -83.7789072  0.236744E+02  0.861E+00    0.14       1.0  T
   3   -105.2397519 -0.214608E+02  0.281E+00    0.08       1.0  T
   4   -107.1705746 -0.193082E+01  0.107E+00    0.11       1.0  T
   5   -107.3042182 -0.133644E+00  0.831E-01    0.17       1.0  T
   6   -107.4599972 -0.155779E+00  0.294E-01    0.06       1.0  T
   7   -107.1943309  0.265666E+00  0.102E+00    0.02       1.0  T
   8   -107.4701825 -0.275852E+00  0.218E-01    0.12       1.0  T
   9   -107.4803106 -0.101280E-01  0.871E-02    0.07       1.0  T
  10   -107.4809761 -0.665556E-03  0.698E-02    0.07       1.0  T
  11   -107.4817165 -0.740351E-03  0.466E-02    0.07       1.0  T
  12   -107.4820737 -0.357209E-03  0.282E-02    0.06       1.0  T
  13   -107.4821982 -0.124514E-03  0.180E-02    0.06       1.0  T
  14   -107.4822487 -0.504377E-04  0.117E-02    0.06       1.1  T
  15   -107.4822618 -0.131171E-04  0.926E-03    0.06       1.3  T
  16   -107.4822810 -0.192704E-04  0.346E-03    0.06       3.6  T
  17   -107.4822839 -0.289811E-05  0.837E-04    0.06      14.9  T
  18   -107.4822841 -0.139218E-06  0.415E-04    0.06      30.1  T
  19   -107.4822841 -0.410495E-07  0.142E-04    0.06      88.2  T
  20   -107.4822841 -0.399800E-08  0.707E-05    0.06     176.9  T
     SCC iter.                  ...        0 min,  2.018 sec
     gradient                   ...        0 min,  0.069 sec
 * total energy  :  -106.7053296 Eh     change       -0.6993035E-03 Eh
   gradient norm :     0.0072439 Eh/α   predicted    -0.7150016E-03 (   2.24%)
   displ. norm   :     0.1801307 α      lambda       -0.5379189E-03
   maximum displ.:     0.0739488 α      in ANC's #30, #21, #1, ...

........................................................................
.............................. CYCLE   46 ..............................
........................................................................

 iter      E             dE          RMSdq      gap      omega  full diag
   1   -107.4723242 -0.107472E+03  0.195E-01    0.04       0.0  T
   2   -103.5035539  0.396877E+01  0.383E+00    0.27       1.0  T
   3   -106.8685816 -0.336503E+01  0.154E+00    0.19       1.0  T
   4   -107.3187229 -0.450141E+00  0.794E-01    0.19       1.0  T
   5   -107.4723366 -0.153614E+00  0.209E-01    0.12       1.0  T
   6   -107.4324262  0.399104E-01  0.430E-01    0.05       1.0  T
   7   -107.4538702 -0.214440E-01  0.326E-01    0.02       1.0  T
   8   -107.4769163 -0.230461E-01  0.147E-01    0.08       1.0  T
   9   -107.4783837 -0.146747E-02  0.126E-01    0.07       1.0  T
  10   -107.4801180 -0.173426E-02  0.971E-02    0.06       1.0  T
  11   -107.4822478 -0.212984E-02  0.414E-02    0.05       1.0  T
  12   -107.4826646 -0.416777E-03  0.103E-02    0.06       1.2  T
  13   -107.4826065  0.581374E-04  0.178E-02    0.06       1.0  T
  14   -107.4826820 -0.755669E-04  0.543E-03    0.06       2.3  T
  15   -107.4826789  0.312269E-05  0.663E-03    0.06       1.9  T
  16   -107.4826885 -0.956401E-05  0.245E-03    0.06       5.1  T
  17   -107.4826900 -0.147502E-05  0.584E-04    0.06      21.4  T
  18   -107.4826900 -0.734988E-07  0.245E-04    0.06      51.0  T
  19   -107.4826900 -0.108899E-07  0.137E-04    0.06      91.3  T
  20   -107.4826901 -0.451659E-08  0.413E-05    0.06     302.9  T
     SCC iter.                  ...        0 min,  2.018 sec
     gradient                   ...        0 min,  0.067 sec
 * total energy  :  -106.7057590 Eh     change       -0.4293804E-03 Eh
   gradient norm :     0.0055110 Eh/α   predicted    -0.2776908E-03 ( -35.33%)
   displ. norm   :     0.3833661 α      lambda       -0.7931666E-03
   maximum displ.:     0.1696101 α      in ANC's #1, #21, #30, ...

........................................................................
.............................. CYCLE   47 ..............................
........................................................................

 iter      E             dE          RMSdq      gap      omega  full diag
   1   -107.3980869 -0.107398E+03  0.559E-01    0.02       0.0  T
   2    -88.6273879  0.187707E+02  0.795E+00    0.23       1.0  T
   3    -96.1757745 -0.754839E+01  0.630E+00    0.05       1.0  T
   4   -105.8070538 -0.963128E+01  0.270E+00    0.21       1.0  T
   5   -107.0079207 -0.120087E+01  0.136E+00    0.10       1.0  T
   6   -105.0384680  0.196945E+01  0.298E+00    0.25       1.0  T
   7   -107.4680454 -0.242958E+01  0.273E-01    0.16       1.0  T
   8   -107.4420353  0.260101E-01  0.406E-01    0.11       1.0  T
   9   -107.4576698 -0.156346E-01  0.317E-01    0.03       1.0  T
  10   -107.4435681  0.141017E-01  0.386E-01    0.18       1.0  T
  11   -107.4650684 -0.215002E-01  0.258E-01    0.12       1.0  T
  12   -107.4511116  0.139567E-01  0.352E-01    0.01       1.0  T
  13   -107.4809771 -0.298654E-01  0.102E-01    0.09       1.0  T
  14   -107.4816780 -0.700947E-03  0.881E-02    0.08       1.0  T
  15   -107.4827674 -0.108935E-02  0.599E-02    0.07       1.0  T
  16   -107.4835161 -0.748748E-03  0.282E-02    0.06       1.0  T
  17   -107.4837236 -0.207481E-03  0.488E-03    0.05       2.6  T
  18   -107.4837251 -0.152197E-05  0.411E-03    0.05       3.0  T
  19   -107.4837258 -0.704945E-06  0.370E-03    0.05       3.4  T
  20   -107.4837278 -0.197302E-05  0.246E-03    0.05       5.1  T
  21   -107.4837291 -0.134839E-05  0.936E-04    0.05      13.4  T
  22   -107.4837293 -0.193888E-06  0.365E-04    0.05      34.3  T
  23   -107.4837294 -0.318519E-07  0.673E-05    0.05     185.7  T
  24   -107.4837294 -0.703920E-09  0.378E-05    0.05     330.5  T
     SCC iter.                  ...        0 min,  2.375 sec
     gradient                   ...        0 min,  0.071 sec
 * total energy  :  -106.7062086 Eh     change       -0.4495905E-03 Eh
   gradient norm :     0.0059536 Eh/α   predicted    -0.4548737E-03 (   1.18%)
   displ. norm   :     0.1777455 α      lambda       -0.2999967E-03
   maximum displ.:     0.0756463 α      in ANC's #21, #23, #17, ...

........................................................................
.............................. CYCLE   48 ..............................
........................................................................

 iter      E             dE          RMSdq      gap      omega  full diag
   1   -107.4837535 -0.107484E+03  0.468E-02    0.04       0.0  T
   2   -106.8700591  0.613694E+00  0.151E+00    0.21       1.0  T
   3   -107.4646675 -0.594608E+00  0.266E-01    0.13       1.0  T
   4   -107.4643580  0.309428E-03  0.277E-01    0.05       1.0  T
   5   -107.4759411 -0.115831E-01  0.180E-01    0.04       1.0  T
   6   -107.4813554 -0.541428E-02  0.103E-01    0.05       1.0  T
   7   -107.4751528  0.620261E-02  0.182E-01    0.04       1.0  T
   8   -107.4841257 -0.897288E-02  0.248E-02    0.06       1.0  T
   9   -107.4842055 -0.798197E-04  0.160E-02    0.06       1.0  T
  10   -107.4842645 -0.589758E-04  0.620E-03    0.05       2.0  T
  11   -107.4842677 -0.322930E-05  0.487E-03    0.05       2.6  T
  12   -107.4842712 -0.345999E-05  0.311E-03    0.05       4.0  T
  13   -107.4842736 -0.245595E-05  0.720E-04    0.05      17.4  T
  14   -107.4842737 -0.111341E-06  0.340E-04    0.05      36.8  T
  15   -107.4842737 -0.192065E-07  0.196E-04    0.05      63.7  T
  16   -107.4842738 -0.669600E-08  0.115E-04    0.05     109.1  T
     SCC iter.                  ...        0 min,  1.604 sec
     gradient                   ...        0 min,  0.068 sec
 * total energy  :  -106.7064381 Eh     change       -0.2295288E-03 Eh
   gradient norm :     0.0043291 Eh/α   predicted    -0.1547382E-03 ( -32.58%)
   displ. norm   :     0.3348340 α      lambda       -0.4095645E-03
   maximum displ.:     0.1416519 α      in ANC's #21, #23, #17, ...

........................................................................
.............................. CYCLE   49 ..............................
........................................................................

 iter      E             dE          RMSdq      gap      omega  full diag
   1   -107.4730180 -0.107473E+03  0.206E-01    0.01       0.0  T
   2   -103.7187679  0.375425E+01  0.375E+00    0.34       1.0  T
   3   -106.6026798 -0.288391E+01  0.181E+00    0.12       1.0  T
   4   -107.1316951 -0.529015E+00  0.115E+00    0.17       1.0  T
   5   -107.4405834 -0.308888E+00  0.477E-01    0.13       1.0  T
   6   -107.2053744  0.235209E+00  0.102E+00    0.13       1.0  T
   7   -107.4782866 -0.272912E+00  0.162E-01    0.10       1.0  T
   8   -107.4797963 -0.150970E-02  0.132E-01    0.03       1.0  T
   9   -107.4828539 -0.305757E-02  0.794E-02    0.05       1.0  T
  10   -107.4837721 -0.918154E-03  0.527E-02    0.05       1.0  T
  11   -107.4845073 -0.735269E-03  0.104E-02    0.05       1.2  T
  12   -107.4844334  0.738944E-04  0.199E-02    0.05       1.0  T
  13   -107.4844856 -0.521693E-04  0.142E-02    0.05       1.0  T
  14   -107.4845347 -0.490698E-04  0.374E-03    0.05       3.3  T
  15   -107.4845369 -0.218011E-05  0.255E-03    0.05       4.9  T
  16   -107.4845367  0.185369E-06  0.265E-03    0.05       4.7  T
  17   -107.4845383 -0.158399E-05  0.948E-04    0.05      13.2  T
  18   -107.4845384 -0.145033E-06  0.595E-04    0.05      21.0  T
  19   -107.4845385 -0.904570E-07  0.125E-04    0.05     100.3  T
  20   -107.4845385 -0.285925E-08  0.698E-05    0.05     179.2  T
     SCC iter.                  ...        0 min,  1.973 sec
     gradient                   ...        0 min,  0.071 sec
 * total energy  :  -106.7067377 Eh     change       -0.2995851E-03 Eh
   gradient norm :     0.0040344 Eh/α   predicted    -0.2277417E-03 ( -23.98%)
   displ. norm   :     0.3577251 α      lambda       -0.3320604E-03
   maximum displ.:     0.1475806 α      in ANC's #21, #23, #17, ...

........................................................................
.............................. CYCLE   50 ..............................
........................................................................

 iter      E             dE          RMSdq      gap      omega  full diag
   1   -107.4715212 -0.107472E+03  0.215E-01    0.01       0.0  T
   2   -104.0558862  0.341563E+01  0.358E+00    0.34       1.0  T
   3   -106.7073481 -0.265146E+01  0.171E+00    0.11       1.0  T
   4   -107.0416033 -0.334255E+00  0.128E+00    0.18       1.0  T
   5   -107.4171550 -0.375552E+00  0.577E-01    0.12       1.0  T
   6   -107.3665962  0.505588E-01  0.669E-01    0.13       1.0  T
   7   -107.4710407 -0.104444E+00  0.224E-01    0.12       1.0  T
   8   -107.4793841 -0.834341E-02  0.133E-01    0.05       1.0  T
   9   -107.4819181 -0.253395E-02  0.909E-02    0.04       1.0  T
  10   -107.4829853 -0.106720E-02  0.624E-02    0.06       1.0  T
  11   -107.4839957 -0.101048E-02  0.136E-02    0.05       1.0  T
  12   -107.4839251  0.706118E-04  0.215E-02    0.05       1.0  T
  13   -107.4839269 -0.172278E-05  0.212E-02    0.05       1.0  T
  14   -107.4840383 -0.111443E-03  0.572E-03    0.05       2.2  T
  15   -107.4840458 -0.751301E-05  0.203E-03    0.05       6.2  T
  16   -107.4840446  0.116664E-05  0.291E-03    0.05       4.3  T
  17   -107.4840466 -0.197640E-05  0.905E-04    0.05      13.8  T
  18   -107.4840467 -0.469580E-07  0.802E-04    0.05      15.6  T
  19   -107.4840468 -0.167563E-06  0.116E-04    0.05     108.2  T
  20   -107.4840468 -0.145987E-08  0.873E-05    0.05     143.1  T
     SCC iter.                  ...        0 min,  1.964 sec
     gradient                   ...        0 min,  0.061 sec
 * total energy  :  -106.7069937 Eh     change       -0.2559791E-03 Eh
   gradient norm :     0.0048913 Eh/α   predicted    -0.1872793E-03 ( -26.84%)
   displ. norm   :     0.4184323 α      lambda       -0.3559541E-03
   maximum displ.:     0.1637705 α      in ANC's #21, #23, #14, ...

........................................................................
.............................. CYCLE   51 ..............................
........................................................................

 iter      E             dE          RMSdq      gap      omega  full diag
   1   -107.4668074 -0.107467E+03  0.249E-01    0.01       0.0  T
   2   -103.0700751  0.439673E+01  0.403E+00    0.32       1.0  T
   3   -106.2626108 -0.319254E+01  0.215E+00    0.12       1.0  T
   4   -106.9248930 -0.662282E+00  0.144E+00    0.16       1.0  T
   5   -107.3978941 -0.473001E+00  0.651E-01    0.12       1.0  T
   6   -106.8506869  0.547207E+00  0.153E+00    0.19       1.0  T
   7   -107.4668219 -0.616135E+00  0.255E-01    0.15       1.0  T
   8   -107.4763879 -0.956596E-02  0.165E-01    0.06       1.0  T
   9   -107.4799999 -0.361208E-02  0.118E-01    0.03       1.0  T
  10   -107.4814961 -0.149616E-02  0.859E-02    0.06       1.0  T
  11   -107.4832499 -0.175379E-02  0.298E-02    0.04       1.0  T
  12   -107.4833748 -0.124947E-03  0.211E-02    0.05       1.0  T
  13   -107.4833238  0.510744E-04  0.250E-02    0.05       1.0  T
  14   -107.4834651 -0.141293E-03  0.951E-03    0.05       1.3  T
  15   -107.4834861 -0.210076E-04  0.340E-03    0.05       3.7  T
  16   -107.4834851  0.956496E-06  0.389E-03    0.05       3.2  T
  17   -107.4834864 -0.131672E-05  0.317E-03    0.05       3.9  T
  18   -107.4834887 -0.231236E-05  0.106E-03    0.05      11.8  T
  19   -107.4834889 -0.140936E-06  0.746E-04    0.05      16.8  T
  20   -107.4834890 -0.117726E-06  0.316E-04    0.05      39.6  T
  21   -107.4834890 -0.180558E-07  0.181E-04    0.05      68.9  T
  22   -107.4834890 -0.777237E-08  0.631E-05    0.05     198.1  T
     SCC iter.                  ...        0 min,  2.156 sec
     gradient                   ...        0 min,  0.059 sec
 * total energy  :  -106.7072672 Eh     change       -0.2735154E-03 Eh
   gradient norm :     0.0051947 Eh/α   predicted    -0.2091387E-03 ( -23.54%)
   displ. norm   :     0.4162118 α      lambda       -0.3320507E-03
   maximum displ.:     0.1526611 α      in ANC's #21, #23, #14, ...

........................................................................
.............................. CYCLE   52 ..............................
........................................................................

 iter      E             dE          RMSdq      gap      omega  full diag
   1   -107.4742873 -0.107474E+03  0.184E-01    0.02       0.0  T
   2   -104.2131997  0.326109E+01  0.347E+00    0.37       1.0  T
   3   -106.9815090 -0.276831E+01  0.140E+00    0.15       1.0  T
   4   -107.0670663 -0.855573E-01  0.124E+00    0.15       1.0  T
   5   -107.3774005 -0.310334E+00  0.679E-01    0.15       1.0  T
   6   -107.4725855 -0.951850E-01  0.205E-01    0.11       1.0  T
   7   -107.4080034  0.645821E-01  0.529E-01    0.06       1.0  T
   8   -107.4771371 -0.691336E-01  0.152E-01    0.03       1.0  T
   9   -107.4826110 -0.547396E-02  0.600E-02    0.04       1.0  T
  10   -107.4830566 -0.445606E-03  0.383E-02    0.05       1.0  T
  11   -107.4833907 -0.334044E-03  0.134E-02    0.05       1.0  T
  12   -107.4833764  0.142281E-04  0.150E-02    0.04       1.0  T
  13   -107.4833848 -0.833669E-05  0.138E-02    0.05       1.0  T
  14   -107.4834302 -0.454133E-04  0.460E-03    0.05       2.7  T
  15   -107.4834344 -0.419970E-05  0.231E-03    0.05       5.4  T
  16   -107.4834355 -0.114174E-05  0.110E-03    0.05      11.3  T
  17   -107.4834358 -0.232424E-06  0.561E-04    0.05      22.3  T
  18   -107.4834358 -0.626277E-07  0.270E-04    0.05      46.3  T
  19   -107.4834358 -0.126917E-07  0.154E-04    0.05      81.3  T
  20   -107.4834358 -0.494195E-08  0.683E-05    0.05     183.1  T
     SCC iter.                  ...        0 min,  1.971 sec
     gradient                   ...        0 min,  0.063 sec
 * total energy  :  -106.7075154 Eh     change       -0.2481415E-03 Eh
   gradient norm :     0.0043606 Eh/α   predicted    -0.1947930E-03 ( -21.50%)
   displ. norm   :     0.3611433 α      lambda       -0.2481814E-03
   maximum displ.:     0.1240015 α      in ANC's #23, #21, #14, ...

........................................................................
.............................. CYCLE   53 ..............................
........................................................................

 iter      E             dE          RMSdq      gap      omega  full diag
   1   -107.4802107 -0.107480E+03  0.116E-01    0.02       0.0  T
   2   -105.9690079  0.151120E+01  0.238E+00    0.32       1.0  T
   3   -107.3198238 -0.135082E+01  0.799E-01    0.15       1.0  T
   4   -107.3244924 -0.466867E-02  0.774E-01    0.15       1.0  T
   5   -107.3985707 -0.740782E-01  0.581E-01    0.11       1.0  T
   6   -107.4792588 -0.806882E-01  0.134E-01    0.07       1.0  T
   7   -107.4595964  0.196624E-01  0.299E-01    0.05       1.0  T
   8   -107.4829401 -0.233437E-01  0.616E-02    0.03       1.0  T
   9   -107.4838239 -0.883748E-03  0.222E-02    0.04       1.0  T
  10   -107.4838872 -0.633426E-04  0.128E-02    0.05       1.0  T
  11   -107.4839198 -0.325530E-04  0.523E-03    0.05       2.4  T
  12   -107.4839164  0.331790E-05  0.615E-03    0.05       2.0  T
  13   -107.4839219 -0.549530E-05  0.404E-03    0.05       3.1  T
  14   -107.4839250 -0.303514E-05  0.221E-03    0.05       5.7  T
  15   -107.4839261 -0.111442E-05  0.824E-04    0.05      15.2  T
  16   -107.4839263 -0.182241E-06  0.798E-05    0.05     156.7  T
  17   -107.4839263  0.819725E-09  0.959E-05    0.05     130.4  T
     SCC iter.                  ...        0 min,  1.694 sec
     gradient                   ...        0 min,  0.060 sec
 * total energy  :  -106.7076951 Eh     change       -0.1797104E-03 Eh
   gradient norm :     0.0035987 Eh/α   predicted    -0.1402755E-03 ( -21.94%)
   displ. norm   :     0.3016150 α      lambda       -0.1852465E-03
   maximum displ.:     0.1026014 α      in ANC's #23, #14, #13, ...

........................................................................
.............................. CYCLE   54 ..............................
........................................................................

 iter      E             dE          RMSdq      gap      omega  full diag
   1   -107.4836855 -0.107484E+03  0.641E-02    0.03       0.0  T
   2   -107.0166063  0.467079E+00  0.133E+00    0.26       1.0  T
   3   -107.4182335 -0.401627E+00  0.499E-01    0.15       1.0  T
   4   -107.4673308 -0.490973E-01  0.266E-01    0.08       1.0  T
   5   -107.4445428  0.227880E-01  0.391E-01    0.07       1.0  T
   6   -107.4846600 -0.401172E-01  0.243E-02    0.05       1.0  T
   7   -107.4847019 -0.418520E-04  0.210E-02    0.05       1.0  T
   8   -107.4813910  0.331083E-02  0.112E-01    0.04       1.0  T
   9   -107.4848019 -0.341087E-02  0.616E-03    0.05       2.0  T
  10   -107.4848037 -0.174631E-05  0.457E-03    0.05       2.7  T
  11   -107.4848071 -0.341163E-05  0.240E-03    0.05       5.2  T
  12   -107.4848084 -0.128423E-05  0.835E-04    0.05      15.0  T
  13   -107.4848083  0.753397E-07  0.962E-04    0.05      13.0  T
  14   -107.4848085 -0.200947E-06  0.405E-04    0.05      30.9  T
  15   -107.4848085 -0.299338E-07  0.217E-04    0.05      57.7  T
  16   -107.4848085 -0.118639E-07  0.601E-05    0.05     208.0  T
  17   -107.4848085 -0.451138E-09  0.434E-05    0.05     288.0  T
     SCC iter.                  ...        0 min,  1.693 sec
     gradient                   ...        0 min,  0.069 sec
 * total energy  :  -106.7078378 Eh     change       -0.1427753E-03 Eh
   gradient norm :     0.0037109 Eh/α   predicted    -0.1010560E-03 ( -29.22%)
   displ. norm   :     0.3465044 α      lambda       -0.2267642E-03
   maximum displ.:     0.1200568 α      in ANC's #13, #14, #23, ...

........................................................................
.............................. CYCLE   55 ..............................
........................................................................

 iter      E             dE          RMSdq      gap      omega  full diag
   1   -107.4851665 -0.107485E+03  0.571E-02    0.03       0.0  T
   2   -107.2020842  0.283082E+00  0.104E+00    0.26       1.0  T
   3   -107.4184614 -0.216377E+00  0.498E-01    0.14       1.0  T
   4   -107.4819242 -0.634628E-01  0.141E-01    0.07       1.0  T
   5   -107.4691580  0.127662E-01  0.252E-01    0.05       1.0  T
   6   -107.4851417 -0.159837E-01  0.575E-02    0.04       1.0  T
   7   -107.4841015  0.104025E-02  0.840E-02    0.05       1.0  T
   8   -107.4855006 -0.139910E-02  0.435E-02    0.05       1.0  T
   9   -107.4859676 -0.467009E-03  0.132E-02    0.05       1.0  T
  10   -107.4859919 -0.243678E-04  0.912E-03    0.05       1.4  T
  11   -107.4860079 -0.159679E-04  0.476E-03    0.05       2.6  T
  12   -107.4860131 -0.515117E-05  0.179E-03    0.05       7.0  T
  13   -107.4860138 -0.760705E-06  0.579E-04    0.05      21.6  T
  14   -107.4860139 -0.470479E-07  0.410E-04    0.05      30.5  T
  15   -107.4860139 -0.420936E-07  0.102E-04    0.05     122.1  T
  16   -107.4860139 -0.232843E-08  0.371E-05    0.05     337.0  T
     SCC iter.                  ...        0 min,  1.612 sec
     gradient                   ...        0 min,  0.063 sec
 * total energy  :  -106.7080169 Eh     change       -0.1790865E-03 Eh
   gradient norm :     0.0042473 Eh/α   predicted    -0.1269993E-03 ( -29.08%)
   displ. norm   :     0.4316312 α      lambda       -0.2834861E-03
   maximum displ.:     0.1535123 α      in ANC's #13, #27, #14, ...

........................................................................
.............................. CYCLE   56 ..............................
........................................................................

 iter      E             dE          RMSdq      gap      omega  full diag
   1   -107.4847086 -0.107485E+03  0.763E-02    0.03       0.0  T
   2   -107.0545782  0.430130E+00  0.129E+00    0.25       1.0  T
   3   -107.3735254 -0.318947E+00  0.636E-01    0.15       1.0  T
   4   -107.4732514 -0.997260E-01  0.243E-01    0.08       1.0  T
   5   -107.4406379  0.326136E-01  0.413E-01    0.07       1.0  T
   6   -107.4848659 -0.442280E-01  0.723E-02    0.05       1.0  T
   7   -107.4590908  0.257751E-01  0.319E-01    0.05       1.0  T
   8   -107.4853490 -0.262581E-01  0.585E-02    0.05       1.0  T
   9   -107.4858898 -0.540845E-03  0.357E-02    0.04       1.0  T
  10   -107.4861055 -0.215680E-03  0.218E-02    0.04       1.0  T
  11   -107.4862003 -0.947609E-04  0.113E-02    0.05       1.1  T
  12   -107.4862317 -0.313993E-04  0.366E-03    0.05       3.4  T
  13   -107.4862326 -0.944892E-06  0.318E-03    0.04       3.9  T
  14   -107.4862349 -0.234155E-05  0.115E-03    0.05      10.8  T
  15   -107.4862353 -0.358742E-06  0.177E-04    0.05      70.7  T
  16   -107.4862353  0.479565E-08  0.223E-04    0.05      56.0  T
  17   -107.4862353 -0.129694E-07  0.275E-05    0.05     454.2  T
     SCC iter.                  ...        0 min,  1.685 sec
     gradient                   ...        0 min,  0.071 sec
 * total energy  :  -106.7082438 Eh     change       -0.2268551E-03 Eh
   gradient norm :     0.0043255 Eh/α   predicted    -0.1681514E-03 ( -25.88%)
   displ. norm   :     0.4826830 α      lambda       -0.3215181E-03
   maximum displ.:     0.1851383 α      in ANC's #27, #3, #13, ...

........................................................................
.............................. CYCLE   57 ..............................
........................................................................

 iter      E             dE          RMSdq      gap      omega  full diag
   1   -107.4841116 -0.107484E+03  0.109E-01    0.03       0.0  T
   2   -103.9487021  0.353541E+01  0.352E+00    0.07       1.0  T
   3   -107.2322385 -0.328354E+01  0.991E-01    0.26       1.0  T
   4   -107.4151417 -0.182903E+00  0.510E-01    0.13       1.0  T
   5   -107.4787697 -0.636279E-01  0.192E-01    0.04       1.0  T
   6   -107.4299854  0.487843E-01  0.465E-01    0.03       1.0  T
   7   -107.4672364 -0.372510E-01  0.275E-01    0.03       1.0  T
   8   -107.4832499 -0.160135E-01  0.125E-01    0.06       1.0  T
   9   -107.4861199 -0.286999E-02  0.688E-02    0.05       1.0  T
  10   -107.4870546 -0.934729E-03  0.347E-02    0.04       1.0  T
  11   -107.4872668 -0.212122E-03  0.208E-02    0.04       1.0  T
  12   -107.4873289 -0.621758E-04  0.145E-02    0.04       1.0  T
  13   -107.4873566 -0.276142E-04  0.103E-02    0.04       1.2  T
  14   -107.4873737 -0.171879E-04  0.602E-03    0.04       2.1  T
  15   -107.4873815 -0.776230E-05  0.238E-03    0.04       5.2  T
  16   -107.4873828 -0.131057E-05  0.668E-04    0.04      18.7  T
  17   -107.4873829 -0.106851E-06  0.162E-04    0.04      77.1  T
  18   -107.4873829 -0.640337E-08  0.368E-05    0.04     339.8  T
     SCC iter.                  ...        0 min,  1.848 sec
     gradient                   ...        0 min,  0.067 sec
 * total energy  :  -106.7084877 Eh     change       -0.2439159E-03 Eh
   gradient norm :     0.0045409 Eh/α   predicted    -0.1982241E-03 ( -18.73%)
   displ. norm   :     0.5774191 α      lambda       -0.3093815E-03
   maximum displ.:     0.2159175 α      in ANC's #13, #3, #27, ...

........................................................................
.............................. CYCLE   58 ..............................
........................................................................

 iter      E             dE          RMSdq      gap      omega  full diag
   1   -107.4655709 -0.107466E+03  0.236E-01    0.03       0.0  T
   2   -105.4851947  0.198038E+01  0.283E+00    0.38       1.0  T
   3   -106.9130409 -0.142785E+01  0.148E+00    0.10       1.0  T
   4   -107.2031628 -0.290122E+00  0.104E+00    0.21       1.0  T
   5   -106.0258895  0.117727E+01  0.230E+00    0.09       1.0  T
   6   -107.4560726 -0.143018E+01  0.312E-01    0.17       1.0  T
   7   -107.3152721  0.140801E+00  0.785E-01    0.11       1.0  T
   8   -107.4738070 -0.158535E+00  0.159E-01    0.05       1.0  T
   9   -107.4732407  0.566292E-03  0.166E-01    0.02       1.0  T
  10   -107.4779099 -0.466918E-02  0.967E-02    0.06       1.0  T
  11   -107.4801900 -0.228019E-02  0.295E-02    0.04       1.0  T
  12   -107.4802590 -0.689396E-04  0.254E-02    0.04       1.0  T
  13   -107.4803091 -0.501449E-04  0.212E-02    0.04       1.0  T
  14   -107.4803249 -0.158067E-04  0.196E-02    0.04       1.0  T
  15   -107.4804163 -0.913578E-04  0.658E-03    0.04       1.9  T
  16   -107.4804208 -0.449827E-05  0.501E-03    0.04       2.5  T
  17   -107.4804269 -0.615027E-05  0.945E-04    0.04      13.2  T
  18   -107.4804272 -0.216634E-06  0.276E-04    0.04      45.2  T
  19   -107.4804272 -0.101668E-07  0.188E-04    0.04      66.4  T
  20   -107.4804272 -0.902428E-08  0.485E-05    0.04     257.9  T
     SCC iter.                  ...        0 min,  1.952 sec
     gradient                   ...        0 min,  0.060 sec
 * total energy  :  -106.7086408 Eh     change       -0.1530536E-03 Eh
   gradient norm :     0.0059550 Eh/α   predicted    -0.2062679E-03 (  34.77%)
   displ. norm   :     0.3990331 α      lambda       -0.3817463E-03
   maximum displ.:     0.2160403 α      in ANC's #3, #27, #5, ...

........................................................................
.............................. CYCLE   59 ..............................
........................................................................

 iter      E             dE          RMSdq      gap      omega  full diag
   1   -107.4770078 -0.107477E+03  0.177E-01    0.05       0.0  T
   2    -91.1995246  0.162775E+02  0.712E+00    0.27       1.0  T
   3   -107.1733559 -0.159738E+02  0.108E+00    0.11       1.0  T
   4   -107.4487362 -0.275380E+00  0.374E-01    0.02       1.0  T
   5   -107.4541643 -0.542814E-02  0.374E-01    0.03       1.0  T
   6   -107.4496564  0.450798E-02  0.361E-01    0.14       1.0  T
   7   -107.4100790  0.395774E-01  0.535E-01    0.08       1.0  T
   8   -107.4845111 -0.744321E-01  0.728E-02    0.05       1.0  T
   9   -107.4843234  0.187655E-03  0.759E-02    0.05       1.0  T
  10   -107.4851742 -0.850767E-03  0.500E-02    0.04       1.0  T
  11   -107.4857050 -0.530878E-03  0.228E-02    0.04       1.0  T
  12   -107.4858423 -0.137289E-03  0.334E-03    0.04       3.7  T
  13   -107.4858318  0.105585E-04  0.709E-03    0.04       1.8  T
  14   -107.4858358 -0.406837E-05  0.577E-03    0.04       2.2  T
  15   -107.4858431 -0.729791E-05  0.229E-03    0.04       5.5  T
  16   -107.4858442 -0.108717E-05  0.858E-04    0.04      14.6  T
  17   -107.4858442 -0.120152E-07  0.822E-04    0.04      15.2  T
  18   -107.4858443 -0.917925E-07  0.576E-04    0.04      21.7  T
  19   -107.4858444 -0.826970E-07  0.107E-04    0.04     116.9  T
  20   -107.4858444 -0.282509E-08  0.239E-05    0.04     524.1  T
     SCC iter.                  ...        0 min,  1.982 sec
     gradient                   ...        0 min,  0.066 sec
 * total energy  :  -106.7088138 Eh     change       -0.1730687E-03 Eh
   gradient norm :     0.0056239 Eh/α   predicted    -0.2212678E-03 (  27.85%)
   displ. norm   :     0.2462020 α      lambda       -0.1819597E-03
   maximum displ.:     0.0989948 α      in ANC's #13, #5, #3, ...

........................................................................
.............................. CYCLE   60 ..............................
........................................................................

 iter      E             dE          RMSdq      gap      omega  full diag
   1   -107.4830485 -0.107483E+03  0.924E-02    0.03       0.0  T
   2   -106.9154962  0.567552E+00  0.148E+00    0.29       1.0  T
   3   -107.3508728 -0.435377E+00  0.712E-01    0.14       1.0  T
   4   -107.4420518 -0.911790E-01  0.422E-01    0.13       1.0  T
   5   -107.3203995  0.121652E+00  0.788E-01    0.08       1.0  T
   6   -107.4837796 -0.163380E+00  0.771E-02    0.06       1.0  T
   7   -107.4387660  0.450136E-01  0.412E-01    0.05       1.0  T
   8   -107.4847396 -0.459736E-01  0.490E-02    0.03       1.0  T
   9   -107.4852237 -0.484076E-03  0.246E-02    0.04       1.0  T
  10   -107.4853321 -0.108437E-03  0.113E-02    0.04       1.1  T
  11   -107.4853584 -0.263080E-04  0.455E-03    0.04       2.7  T
  12   -107.4853602 -0.176795E-05  0.364E-03    0.04       3.4  T
  13   -107.4853620 -0.177028E-05  0.227E-03    0.04       5.5  T
  14   -107.4853632 -0.117926E-05  0.953E-04    0.04      13.1  T
  15   -107.4853633 -0.171166E-06  0.501E-04    0.04      25.0  T
  16   -107.4853634 -0.581637E-07  0.172E-04    0.04      72.6  T
  17   -107.4853634 -0.500157E-08  0.103E-04    0.04     121.1  T
     SCC iter.                  ...        0 min,  1.779 sec
     gradient                   ...        0 min,  0.071 sec
 * total energy  :  -106.7089564 Eh     change       -0.1425920E-03 Eh
   gradient norm :     0.0042574 Eh/α   predicted    -0.9649480E-04 ( -32.33%)
   displ. norm   :     0.3917801 α      lambda       -0.3822170E-03
   maximum displ.:     0.1616284 α      in ANC's #5, #13, #3, ...

........................................................................
.............................. CYCLE   61 ..............................
........................................................................

 iter      E             dE          RMSdq      gap      omega  full diag
   1   -107.4771047 -0.107477E+03  0.175E-01    0.03       0.0  T
   2   -104.1619230  0.331518E+01  0.353E+00    0.41       1.0  T
   3   -107.1989256 -0.303700E+01  0.108E+00    0.15       1.0  T
   4   -107.3238087 -0.124883E+00  0.792E-01    0.14       1.0  T
   5   -106.9536308  0.370178E+00  0.142E+00    0.17       1.0  T
   6   -107.4608209 -0.507190E+00  0.299E-01    0.09       1.0  T
   7   -107.4563791  0.444174E-02  0.331E-01    0.09       1.0  T
   8   -107.4813499 -0.249708E-01  0.124E-01    0.03       1.0  T
   9   -107.4851097 -0.375979E-02  0.369E-02    0.04       1.0  T
  10   -107.4852128 -0.103149E-03  0.237E-02    0.04       1.0  T
  11   -107.4852915 -0.786341E-04  0.133E-02    0.04       1.0  T
  12   -107.4852679  0.235523E-04  0.158E-02    0.04       1.0  T
  13   -107.4853264 -0.584555E-04  0.524E-03    0.04       2.4  T
  14   -107.4853277 -0.133001E-05  0.465E-03    0.04       2.7  T
  15   -107.4853320 -0.429025E-05  0.226E-03    0.04       5.5  T
  16   -107.4853332 -0.123709E-05  0.609E-04    0.04      20.5  T
  17   -107.4853333 -0.755677E-07  0.273E-04    0.04      45.8  T
  18   -107.4853333 -0.145401E-07  0.127E-04    0.04      98.4  T
  19   -107.4853333 -0.376073E-08  0.300E-05    0.04     416.6  T
     SCC iter.                  ...        0 min,  1.885 sec
     gradient                   ...        0 min,  0.066 sec
 * total energy  :  -106.7092107 Eh     change       -0.2543061E-03 Eh
   gradient norm :     0.0041215 Eh/α   predicted    -0.2204469E-03 ( -13.31%)
   displ. norm   :     0.4624425 α      lambda       -0.2278120E-03
   maximum displ.:     0.1939715 α      in ANC's #3, #5, #13, ...

........................................................................
.............................. CYCLE   62 ..............................
........................................................................

 iter      E             dE          RMSdq      gap      omega  full diag
   1   -107.4806983 -0.107481E+03  0.108E-01    0.03       0.0  T
   2   -106.5283497  0.952349E+00  0.192E+00    0.34       1.0  T
   3   -107.3423916 -0.814042E+00  0.730E-01    0.13       1.0  T
   4   -107.4315756 -0.891840E-01  0.460E-01    0.15       1.0  T
   5   -107.2866483  0.144927E+00  0.850E-01    0.06       1.0  T
   6   -107.4818174 -0.195169E+00  0.885E-02    0.06       1.0  T
   7   -107.4740083  0.780906E-02  0.193E-01    0.03       1.0  T
   8   -107.4820029 -0.799459E-02  0.831E-02    0.03       1.0  T
   9   -107.4837252 -0.172231E-02  0.251E-02    0.04       1.0  T
  10   -107.4837956 -0.703136E-04  0.163E-02    0.04       1.0  T
  11   -107.4838447 -0.491761E-04  0.739E-03    0.04       1.7  T
  12   -107.4838494 -0.465571E-05  0.587E-03    0.04       2.1  T
  13   -107.4838548 -0.539646E-05  0.366E-03    0.04       3.4  T
  14   -107.4838566 -0.182000E-05  0.254E-03    0.04       4.9  T
  15   -107.4838583 -0.172275E-05  0.431E-04    0.04      29.0  T
  16   -107.4838584 -0.319604E-07  0.264E-04    0.04      47.4  T
  17   -107.4838584 -0.906563E-08  0.191E-04    0.04      65.5  T
  18   -107.4838584 -0.845125E-08  0.679E-05    0.04     184.1  T
     SCC iter.                  ...        0 min,  1.817 sec
     gradient                   ...        0 min,  0.064 sec
 * total energy  :  -106.7093845 Eh     change       -0.1737530E-03 Eh
   gradient norm :     0.0054676 Eh/α   predicted    -0.1382666E-03 ( -20.42%)
   displ. norm   :     0.4132015 α      lambda       -0.2648913E-03
   maximum displ.:     0.1718748 α      in ANC's #5, #13, #3, ...

........................................................................
.............................. CYCLE   63 ..............................
........................................................................

 iter      E             dE          RMSdq      gap      omega  full diag
   1   -107.4850046 -0.107485E+03  0.489E-02    0.04       0.0  T
   2   -106.9359420  0.549063E+00  0.144E+00    0.15       1.0  T
   3   -107.4784441 -0.542502E+00  0.163E-01    0.06       1.0  T
   4   -107.4763864  0.205771E-02  0.182E-01    0.03       1.0  T
   5   -107.4593701  0.170162E-01  0.310E-01    0.02       1.0  T
   6   -107.4851608 -0.257907E-01  0.417E-02    0.05       1.0  T
   7   -107.4770174  0.814341E-02  0.180E-01    0.04       1.0  T
   8   -107.4854333 -0.841590E-02  0.294E-02    0.04       1.0  T
   9   -107.4854836 -0.503777E-04  0.211E-02    0.04       1.0  T
  10   -107.4855812 -0.975419E-04  0.928E-03    0.04       1.3  T
  11   -107.4856000 -0.188427E-04  0.392E-03    0.04       3.2  T
  12   -107.4856023 -0.230509E-05  0.249E-03    0.04       5.0  T
  13   -107.4856022  0.168786E-06  0.258E-03    0.04       4.8  T
  14   -107.4856036 -0.148221E-05  0.110E-03    0.04      11.4  T
  15   -107.4856040 -0.304033E-06  0.292E-04    0.04      42.7  T
  16   -107.4856040 -0.201142E-07  0.117E-04    0.04     106.7  T
  17   -107.4856040 -0.320269E-08  0.401E-05    0.04     311.4  T
     SCC iter.                  ...        0 min,  1.679 sec
     gradient                   ...        0 min,  0.066 sec
 * total energy  :  -106.7095651 Eh     change       -0.1806551E-03 Eh
   gradient norm :     0.0039458 Eh/α   predicted    -0.1550624E-03 ( -14.17%)
   displ. norm   :     0.4964490 α      lambda       -0.2167950E-03
   maximum displ.:     0.2192875 α      in ANC's #13, #5, #3, ...

........................................................................
.............................. CYCLE   64 ..............................
........................................................................

 iter      E             dE          RMSdq      gap      omega  full diag
   1   -107.4821905 -0.107482E+03  0.749E-02    0.03       0.0  T
   2   -106.6796520  0.802539E+00  0.175E+00    0.32       1.0  T
   3   -107.4092081 -0.729556E+00  0.524E-01    0.13       1.0  T
   4   -107.4770559 -0.678478E-01  0.172E-01    0.07       1.0  T
   5   -107.4583102  0.187457E-01  0.305E-01    0.04       1.0  T
   6   -107.4821174 -0.238072E-01  0.761E-02    0.04       1.0  T
   7   -107.4736175  0.849994E-02  0.193E-01    0.04       1.0  T
   8   -107.4832194 -0.960187E-02  0.425E-02    0.05       1.0  T
   9   -107.4835973 -0.377969E-03  0.188E-02    0.04       1.0  T
  10   -107.4836750 -0.776115E-04  0.752E-03    0.04       1.7  T
  11   -107.4836778 -0.282589E-05  0.689E-03    0.04       1.8  T
  12   -107.4836835 -0.574479E-05  0.499E-03    0.04       2.5  T
  13   -107.4836899 -0.640599E-05  0.848E-04    0.04      14.7  T
  14   -107.4836900 -0.538165E-07  0.683E-04    0.04      18.3  T
  15   -107.4836901 -0.111252E-06  0.221E-04    0.04      56.6  T
  16   -107.4836901 -0.981184E-08  0.739E-05    0.04     169.1  T
  17   -107.4836901 -0.946244E-09  0.365E-05    0.04     342.7  T
     SCC iter.                  ...        0 min,  1.688 sec
     gradient                   ...        0 min,  0.063 sec
 * total energy  :  -106.7097215 Eh     change       -0.1563963E-03 Eh
   gradient norm :     0.0045039 Eh/α   predicted    -0.1351189E-03 ( -13.60%)
   displ. norm   :     0.3622980 α      lambda       -0.2268400E-03
   maximum displ.:     0.1634068 α      in ANC's #13, #6, #8, ...

........................................................................
.............................. CYCLE   65 ..............................
........................................................................

 iter      E             dE          RMSdq      gap      omega  full diag
   1   -107.4848113 -0.107485E+03  0.672E-02    0.05       0.0  T
   2   -105.6633612  0.182145E+01  0.254E+00    0.12       1.0  T
   3   -107.4333027 -0.176994E+01  0.444E-01    0.04       1.0  T
   4   -107.4678012 -0.344984E-01  0.263E-01    0.03       1.0  T
   5   -107.4591789  0.862230E-02  0.309E-01    0.09       1.0  T
   6   -107.4836947 -0.245158E-01  0.106E-01    0.05       1.0  T
   7   -107.4346955  0.489992E-01  0.438E-01    0.03       1.0  T
   8   -107.4859189 -0.512234E-01  0.161E-02    0.04       1.0  T
   9   -107.4859096  0.929899E-05  0.167E-02    0.04       1.0  T
  10   -107.4859652 -0.556130E-04  0.754E-03    0.04       1.7  T
  11   -107.4859777 -0.124843E-04  0.283E-03    0.04       4.4  T
  12   -107.4859790 -0.131859E-05  0.145E-03    0.04       8.6  T
  13   -107.4859795 -0.487431E-06  0.515E-04    0.04      24.3  T
  14   -107.4859795 -0.554173E-07  0.219E-04    0.04      57.0  T
  15   -107.4859795  0.933881E-09  0.221E-04    0.04      56.5  T
  16   -107.4859796 -0.771149E-08  0.138E-04    0.04      90.3  T
  17   -107.4859796 -0.377401E-08  0.679E-05    0.04     184.1  T
     SCC iter.                  ...        0 min,  1.678 sec
     gradient                   ...        0 min,  0.059 sec
 * total energy  :  -106.7098778 Eh     change       -0.1562571E-03 Eh
   gradient norm :     0.0039756 Eh/α   predicted    -0.1283093E-03 ( -17.89%)
   displ. norm   :     0.4738291 α      lambda       -0.1807426E-03
   maximum displ.:     0.2226851 α      in ANC's #13, #6, #5, ...

........................................................................
.............................. CYCLE   66 ..............................
........................................................................

 iter      E             dE          RMSdq      gap      omega  full diag
   1   -107.4850912 -0.107485E+03  0.326E-02    0.04       0.0  T
   2   -107.1500377  0.335054E+00  0.111E+00    0.12       1.0  T
   3   -107.4814490 -0.331411E+00  0.123E-01    0.06       1.0  T
   4   -107.4749483  0.650067E-02  0.199E-01    0.03       1.0  T
   5   -107.4804385 -0.549018E-02  0.133E-01    0.03       1.0  T
   6   -107.4848746 -0.443612E-02  0.465E-02    0.04       1.0  T
   7   -107.4843619  0.512759E-03  0.604E-02    0.04       1.0  T
   8   -107.4853429 -0.981079E-03  0.841E-03    0.04       1.5  T
   9   -107.4853024  0.405302E-04  0.144E-02    0.04       1.0  T
  10   -107.4853395 -0.370587E-04  0.811E-03    0.04       1.5  T
  11   -107.4853513 -0.118683E-04  0.443E-03    0.04       2.8  T
  12   -107.4853564 -0.508852E-05  0.549E-04    0.04      22.8  T
  13   -107.4853565 -0.350316E-07  0.379E-04    0.04      32.9  T
  14   -107.4853565 -0.307724E-07  0.165E-04    0.04      75.9  T
  15   -107.4853565 -0.548521E-08  0.763E-05    0.04     163.9  T
     SCC iter.                  ...        0 min,  1.478 sec
     gradient                   ...        0 min,  0.063 sec
 * total energy  :  -106.7100218 Eh     change       -0.1440239E-03 Eh
   gradient norm :     0.0046409 Eh/α   predicted    -0.1106659E-03 ( -23.16%)
   displ. norm   :     0.4586475 α      lambda       -0.2379373E-03
   maximum displ.:     0.2154592 α      in ANC's #13, #6, #8, ...
 * RMSD in coord.:     0.8431900 α      energy gain  -0.8208329E-02 Eh

generating ANC from model Hessian ...
Using Lindh-Hessian (1995)
 Shifting diagonal of input Hessian by    1.0716587581054348E-002
 Lowest  eigenvalues of input Hessian
    0.010000    0.010181    0.010599    0.010657    0.010676    0.010716
    0.000000    0.000000    0.000000    0.000000    0.000000    0.000000
    0.010719    0.010739    0.010786    0.010814    0.010869    0.010929
 Highest eigenvalues
    1.201303    1.516835    1.773057    1.830502    1.882547    2.010505


........................................................................
.............................. CYCLE   67 ..............................
........................................................................

 iter      E             dE          RMSdq      gap      omega  full diag
   1   -107.4866222 -0.107487E+03  0.465E-02    0.04       0.0  T
   2   -107.0479236  0.438699E+00  0.127E+00    0.11       1.0  T
   3   -107.4416097 -0.393686E+00  0.408E-01    0.03       1.0  T
   4   -107.4841831 -0.425734E-01  0.102E-01    0.06       1.0  T
   5   -107.4593682  0.248149E-01  0.321E-01    0.03       1.0  T
   6   -107.4864569 -0.270887E-01  0.544E-02    0.04       1.0  T
   7   -107.4855765  0.880434E-03  0.749E-02    0.04       1.0  T
   8   -107.4862614 -0.684958E-03  0.575E-02    0.04       1.0  T
   9   -107.4870750 -0.813577E-03  0.125E-02    0.04       1.0  T
  10   -107.4871062 -0.311654E-04  0.660E-03    0.04       1.9  T
  11   -107.4871066 -0.411205E-06  0.621E-03    0.04       2.0  T
  12   -107.4871160 -0.940281E-05  0.145E-03    0.04       8.6  T
  13   -107.4871163 -0.312794E-06  0.920E-04    0.04      13.6  T
  14   -107.4871164 -0.856686E-07  0.714E-04    0.04      17.5  T
  15   -107.4871165 -0.109140E-06  0.302E-04    0.04      41.4  T
  16   -107.4871165 -0.183183E-07  0.145E-04    0.04      86.2  T
  17   -107.4871165 -0.484422E-08  0.500E-05    0.04     250.2  T
     SCC iter.                  ...        0 min,  1.701 sec
     gradient                   ...        0 min,  0.062 sec
 * total energy  :  -106.7101916 Eh     change       -0.1697393E-03 Eh
   gradient norm :     0.0038714 Eh/α   predicted     0.0000000E+00 (-100.00%)
   displ. norm   :     0.0603347 α      lambda       -0.8313664E-04
   maximum displ.:     0.0181586 α      in ANC's #23, #8, #16, ...

........................................................................
.............................. CYCLE   68 ..............................
........................................................................

 iter      E             dE          RMSdq      gap      omega  full diag
   1   -107.4864506 -0.107486E+03  0.177E-02    0.04       0.0  T
   2   -107.4201756  0.662750E-01  0.493E-01    0.04       1.0  T
   3   -107.4837859 -0.636103E-01  0.995E-02    0.06       1.0  T
   4   -107.4852290 -0.144311E-02  0.699E-02    0.03       1.0  T
   5   -107.4845351  0.693918E-03  0.863E-02    0.04       1.0  T
   6   -107.4862440 -0.170889E-02  0.335E-02    0.04       1.0  T
   7   -107.4863362 -0.922722E-04  0.260E-02    0.04       1.0  T
   8   -107.4863236  0.126653E-04  0.265E-02    0.04       1.0  T
   9   -107.4865097 -0.186114E-03  0.515E-03    0.04       2.4  T
  10   -107.4865158 -0.607531E-05  0.166E-03    0.04       7.5  T
  11   -107.4865162 -0.466734E-06  0.696E-04    0.04      18.0  T
  12   -107.4865163 -0.363505E-07  0.490E-04    0.04      25.5  T
  13   -107.4865163 -0.556258E-07  0.165E-04    0.04      75.5  T
  14   -107.4865163 -0.701557E-08  0.361E-05    0.04     346.2  T
     SCC iter.                  ...        0 min,  1.405 sec
     gradient                   ...        0 min,  0.068 sec
 * total energy  :  -106.7102559 Eh     change       -0.6435208E-04 Eh
   gradient norm :     0.0015733 Eh/α   predicted    -0.4188354E-04 ( -34.92%)
   displ. norm   :     0.2002699 α      lambda       -0.9593646E-04
   maximum displ.:     0.0695061 α      in ANC's #23, #4, #16, ...

........................................................................
.............................. CYCLE   69 ..............................
........................................................................

 iter      E             dE          RMSdq      gap      omega  full diag
   1   -107.4848535 -0.107485E+03  0.486E-02    0.03       0.0  T
   2   -107.2558118  0.229042E+00  0.920E-01    0.13       1.0  T
   3   -107.4307192 -0.174907E+00  0.443E-01    0.12       1.0  T
   4   -107.4802100 -0.494908E-01  0.151E-01    0.03       1.0  T
   5   -107.4574282  0.227818E-01  0.322E-01    0.05       1.0  T
   6   -107.4852441 -0.278159E-01  0.280E-02    0.04       1.0  T
   7   -107.4806900  0.455409E-02  0.132E-01    0.04       1.0  T
   8   -107.4852159 -0.452585E-02  0.246E-02    0.04       1.0  T
   9   -107.4853373 -0.121398E-03  0.119E-02    0.04       1.1  T
  10   -107.4853647 -0.273887E-04  0.531E-03    0.04       2.4  T
  11   -107.4853700 -0.528645E-05  0.147E-03    0.04       8.5  T
  12   -107.4853699  0.216609E-07  0.126E-03    0.04       9.9  T
  13   -107.4853703 -0.364705E-06  0.412E-04    0.04      30.4  T
  14   -107.4853703  0.563075E-08  0.440E-04    0.04      28.4  T
  15   -107.4853703 -0.383810E-07  0.221E-04    0.04      56.5  T
  16   -107.4853704 -0.121840E-07  0.550E-05    0.04     227.2  T
  17   -107.4853704 -0.719524E-09  0.199E-05    0.04     629.1  T
     SCC iter.                  ...        0 min,  1.689 sec
     gradient                   ...        0 min,  0.062 sec
 * total energy  :  -106.7103233 Eh     change       -0.6738430E-04 Eh
   gradient norm :     0.0036278 Eh/α   predicted    -0.4882359E-04 ( -27.54%)
   displ. norm   :     0.0629103 α      lambda       -0.3844964E-04
   maximum displ.:     0.0234458 α      in ANC's #4, #23, #16, ...

........................................................................
.............................. CYCLE   70 ..............................
........................................................................

 iter      E             dE          RMSdq      gap      omega  full diag
   1   -107.4856767 -0.107486E+03  0.174E-02    0.04       0.0  T
   2   -107.3619421  0.123735E+00  0.673E-01    0.04       1.0  T
   3   -107.4854377 -0.123496E+00  0.349E-02    0.04       1.0  T
   4   -107.4822983  0.313942E-02  0.112E-01    0.05       1.0  T
   5   -107.4850126 -0.271439E-02  0.541E-02    0.04       1.0  T
   6   -107.4852744 -0.261797E-03  0.417E-02    0.03       1.0  T
   7   -107.4850313  0.243113E-03  0.520E-02    0.04       1.0  T
   8   -107.4857314 -0.700116E-03  0.922E-03    0.04       1.4  T
   9   -107.4857488 -0.173633E-04  0.403E-03    0.04       3.1  T
  10   -107.4857522 -0.339120E-05  0.182E-03    0.04       6.9  T
  11   -107.4857524 -0.238226E-06  0.151E-03    0.04       8.3  T
  12   -107.4857530 -0.576485E-06  0.182E-04    0.04      68.8  T
  13   -107.4857530 -0.259143E-08  0.147E-04    0.04      85.3  T
     SCC iter.                  ...        0 min,  1.361 sec
     gradient                   ...        0 min,  0.069 sec
 * total energy  :  -106.7103581 Eh     change       -0.3484322E-04 Eh
   gradient norm :     0.0027549 Eh/α   predicted    -0.1930147E-04 ( -44.60%)
   displ. norm   :     0.3618502 α      lambda       -0.1846620E-03
   maximum displ.:     0.1359258 α      in ANC's #4, #23, #16, ...

   *** GEOMETRY OPTIMIZATION CONVERGED AFTER 70 ITERATIONS ***

------------------------------------------------------------------------
 total energy gain   :        -0.1013614 Eh      -63.6052 kcal/mol
 total RMSD          :         1.8290058 a0        0.9679 Å
 total power (kW/mol):        -3.8017759 (step)   -1.6952 (real)
------------------------------------------------------------------------

 ANCopt (total)                0 d,  0 h,  2 min, 36.990 sec
 optimizer setup                ...        0 min,  0.000 sec (  0.000%)
 model hessian                  ...        0 min,  0.079 sec (  0.050%)
 ANC generation                 ...        0 min,  0.094 sec (  0.060%)
 coordinate transformation      ...        0 min,  0.011 sec (  0.007%)
 single point calculation       ...        2 min, 36.606 sec ( 99.756%)
 optimization log               ...        0 min,  0.023 sec (  0.015%)
 hessian update                 ...        0 min,  0.029 sec (  0.018%)
 rational function              ...        0 min,  0.044 sec (  0.028%)

================
 final structure:
================
64
 xtb: 6.6.1 (unknown)
C           54.33766356690115       14.90869508847543       52.37979573399912
C           53.81514130727012       15.77348482981434       51.23602686086078
S           53.64976102526506       14.90353349296789       49.63926749267263
H           54.30815936653119       15.44807664345775       53.33474881033847
H           53.72951704442669       13.99953340864229       52.46978054638791
H           55.37227510276697       14.60658017574888       52.18836254093305
H           52.82844833289855       16.17408482705500       51.52215921770691
H           54.48224647467619       16.63911362279834       51.10502786961167
C           47.57965183193237        9.54063711228760       49.58973822832683
C           48.89009933824072       10.00509235488269       50.22280670181814
S           49.88898028782319       10.79065693646010       48.91367373391026
H           46.91527358660813        9.06047313225826       50.31596366027890
H           47.06015752007642       10.39589792000732       49.15093258008654
H           47.79255702265915        8.83180988918857       48.78555381076746
H           48.66055625287532       10.71287886311328       51.03470018347846
H           49.39437257185663        9.13732851989195       50.67237085165145
C           57.03379174318124        7.65947585792366       47.60617868580118
C           55.72483411031808        7.48925417952279       46.83354641694443
S           55.00109808750766        9.08869528094977       46.34038988969068
H           57.49053900280276        6.69238064103553       47.84994132801575
H           57.74391920927508        8.23639594327074       47.00655285129935
H           56.85128864024383        8.20621481049369       48.53753887452459
H           55.93161322655486        6.92325418503988       45.91246572512303
H           55.02523525420000        6.88702299525169       47.43448595523532
C           57.86076935524498        9.98135045657276       51.85077612255530
C           56.88463094646037        8.84152102903706       52.14575957545009
S           55.24938587361729        9.44671505967907       52.67915324191539
H           57.94458688834501       10.63194069057538       52.72721981239705
H           58.86012251976558        9.60314911738902       51.60022643670391
H           57.49361591405319       10.58677938104701       51.00816640567588
H           56.82390273099266        8.18239885476443       51.26379547672617
H           57.29192589499839        8.23444959422450       52.96981157250062
C           57.48835665618708       16.11237445222991       47.63507886677592
C           56.11707948784906       15.67077970372886       47.12538174659948
S           56.27953965337129       14.04391000412147       46.30429911576781
H           57.85384902975276       15.41281019665341       48.39227761749713
H           58.20180423046260       16.11017187698128       46.80707937851376
H           57.46486624023534       17.11882292524503       48.07001722247811
H           55.39363529884056       15.68398490169595       47.96265857160524
H           55.77110611903324       16.40272920841340       46.37535182766919
C           49.70814883284179       17.30906801145661       51.59980510501442
C           49.31894859633017       17.45342626286543       50.11910825901332
C           49.53685158815892       16.19574476587450       49.34578986785386
N           48.66906776104288       15.09659639581215       49.46966248030886
C           49.17632917632678       14.11764253905508       48.61144902831850
N           50.33039222550602       14.51049658820943       48.09323923056750
C           50.56553920303603       15.76913118895872       48.53917317918594
H           49.11948086531542       16.51856530240999       52.06895174159159
H           50.76812134352920       17.06106346245457       51.69555450155048
H           49.52012754026737       18.24286480078976       52.13075740603964
H           48.26521102525609       17.75249368944970       50.06750730137419
H           49.91068727507658       18.26053073468622       49.67229766778696
H           47.69094315217743       15.21062651008123       49.65954604989075
H           48.77790224681455       13.11045779583345       48.56008044598450
H           51.46413311575706       16.30779970573941       48.26669984232800
Fe          52.13922680452530       10.75302832230148       49.44892041476373
Fe          53.84248819375794       12.64379539884514       49.81326760575332
Fe          54.33120977062040       10.15258560412017       48.27070500612634
Fe          54.21219177239264       10.33082713447553       50.78546520693455
S           55.72010855548695       11.41825267414118       49.50989213537560
S           53.21008668723330        8.84361917589325       49.55006723883438
S           52.64710070762907       11.74794368356228       51.34987806899652
S           53.10206523721444       11.95164561447607       47.79282777261424
Ni          55.24297145748277       12.54124072545107       47.67514991359420

 Bond Distances (Angstroems)
 ---------------------------
C1-C2=1.5261         C1-H4=1.0972         C1-H5=1.0975         C1-H6=1.0947         C2-C1=1.5261         C2-S3=1.8259         
C2-H7=1.1027         C2-H8=1.1007         S3-C2=1.8259         S3-Fe57=2.2746       H4-C1=1.0972         H5-C1=1.0975         
H6-C1=1.0947         H7-C2=1.1027         H8-C2=1.1007         C9-C10=1.5277        C9-H12=1.0952        C9-H13=1.0927        
C9-H14=1.0929        C10-C9=1.5277        C10-S11=1.8245       C10-H15=1.1013       C10-H16=1.0997       S11-C10=1.8245       
S11-Fe56=2.3133      H12-C9=1.0952        H13-C9=1.0927        H14-C9=1.0929        H15-C10=1.1013       H16-C10=1.0997       
C17-C18=1.5295       C17-H20=1.0970       C17-H21=1.0939       C17-H22=1.0953       C18-C17=1.5295       C18-S19=1.8235       
C18-H23=1.1007       C18-H24=1.1015       S19-C18=1.8235       S19-Fe58=2.3036      H20-C17=1.0970       H21-C17=1.0939       
H22-C17=1.0953       H23-C18=1.1007       H24-C18=1.1015       C25-C26=1.5294       C25-H28=1.0947       C25-H29=1.0975       
C25-H30=1.1006       C26-C25=1.5294       C26-S27=1.8234       C26-H31=1.1027       C26-H32=1.1016       S27-C26=1.8234       
S27-Fe59=2.3331      H28-C25=1.0947       H29-C25=1.0975       H30-C25=1.1006       H31-C26=1.1027       H32-C26=1.1016       
C33-C34=1.5281       C33-H36=1.0938       C33-H37=1.0930       C33-H38=1.0967       C34-C33=1.5281       C34-S35=1.8296       
C34-H39=1.1066       C34-H40=1.1036       S35-C34=1.8296       S35-Ni64=2.2829      H36-C33=1.0938       H37-C33=1.0930       
H38-C33=1.0967       H39-C34=1.1066       H40-C34=1.1036       C41-C42=1.5378       C41-H48=1.0916       C41-H49=1.0928       
C41-H50=1.0905       C42-C41=1.5378       C42-C43=1.4924       C42-H51=1.0966       C42-H52=1.0960       C43-C42=1.4924       
C43-N44=1.4059       C43-C47=1.3751       N44-C43=1.4059       N44-C45=1.3972       N44-H53=1.0029       C45-N44=1.3972       
C45-N46=1.3247       C45-H54=1.0843       N46-C45=1.3247       N46-C47=1.3558       C47-C43=1.3751       C47-N46=1.3558       
C47-H55=1.0825       H48-C41=1.0916       H49-C41=1.0928       H50-C41=1.0905       H51-C42=1.0966       H52-C42=1.0960       
H53-N44=1.0029       H54-C45=1.0843       H55-C47=1.0825       Fe56-S11=2.3133      Fe56-Fe57=2.5708     Fe56-Fe58=2.5600     
Fe56-Fe59=2.5024     Fe56-S61=2.1915      Fe56-S62=2.2049      Fe56-S63=2.2597      Fe57-S3=2.2746       Fe57-Fe56=2.5708     
Fe57-Fe58=2.9706     Fe57-Fe59=2.5361     Fe57-S60=2.2626      Fe57-S62=2.1431      Fe57-S63=2.2604      Fe57-Ni64=2.5580     
Fe58-S19=2.3036      Fe58-Fe56=2.5600     Fe58-Fe57=2.9706     Fe58-Fe59=2.5239     Fe58-S60=2.2509      Fe58-S61=2.1464      
Fe58-S63=2.2306      Fe58-Ni64=2.6252     Fe59-S27=2.3331      Fe59-Fe56=2.5024     Fe59-Fe57=2.5361     Fe59-Fe58=2.5239     
Fe59-S60=2.2546      Fe59-S61=2.1777      Fe59-S62=2.1855      S60-Fe57=2.2626      S60-Fe58=2.2509      S60-Fe59=2.2546      
S60-Ni64=2.2034      S61-Fe56=2.1915      S61-Fe58=2.1464      S61-Fe59=2.1777      S62-Fe56=2.2049      S62-Fe57=2.1431      
S62-Fe59=2.1855      S63-Fe56=2.2597      S63-Fe57=2.2604      S63-Fe58=2.2306      S63-Ni64=2.2237      Ni64-S35=2.2829      
Ni64-Fe57=2.5580     Ni64-Fe58=2.6252     Ni64-S60=2.2034      Ni64-S63=2.2237      
 C  H  Rav=1.0965 sigma=0.0052  Rmin=1.0825  Rmax=1.1066    32
 C  C  Rav=1.5058 sigma=0.0510  Rmin=1.3751  Rmax=1.5378     8
 N  H  Rav=1.0029 sigma=0.0000  Rmin=1.0029  Rmax=1.0029     1
 N  C  Rav=1.3709 sigma=0.0327  Rmin=1.3247  Rmax=1.4059     4
 S  C  Rav=1.8254 sigma=0.0023  Rmin=1.8234  Rmax=1.8296     5
 Fe S  Rav=2.2370 sigma=0.0556  Rmin=2.1431  Rmax=2.3331    16
 Fe Fe Rav=2.6106 sigma=0.1626  Rmin=2.5024  Rmax=2.9706     6
 Ni S  Rav=2.2367 sigma=0.0337  Rmin=2.2034  Rmax=2.2829     3
 Ni Fe Rav=2.5916 sigma=0.0336  Rmin=2.5580  Rmax=2.6252     2

 selected bond angles (degree)
 --------------------
H4-C1-C2=111.38                H5-C1-C2=109.95                H5-C1-H4=108.72                H6-C1-C2=110.42                
H6-C1-H4=108.26                H6-C1-H5=108.02                S3-C2-C1=114.61                H7-C2-C1=108.53                
H7-C2-S3=108.60                H8-C2-C1=109.11                H8-C2-S3=109.00                H8-C2-H7=106.71                
Fe57-S3-C2=113.50              H12-C9-C10=112.27              H13-C9-C10=109.65              H13-C9-H12=108.73              
H14-C9-C10=109.57              H14-C9-H12=108.77              H14-C9-H13=107.74              S11-C10-C9=107.65              
H15-C10-C9=108.79              H15-C10-S11=111.49             H16-C10-C9=108.84              H16-C10-S11=112.46             
H16-C10-H15=107.54             

 selected dihedral angles (degree)
 ---------------------------------
S3-C2-C1-H4=186.49            S3-C2-C1-H5=307.08            S3-C2-C1-H6= 66.18            H7-C2-C1-H4=308.06            
H7-C2-C1-H5= 68.65            H7-C2-C1-H6=187.75            H8-C2-C1-H4= 63.97            H8-C2-C1-H5=184.56            
H8-C2-C1-H6=303.66            Fe57-S3-C2-C1= 12.06          Fe57-S3-C2-H7=250.53          Fe57-S3-C2-H8=134.64          
S11-C10-C9-H12=180.38         S11-C10-C9-H13=301.35         S11-C10-C9-H14= 59.41         H15-C10-C9-H12=301.33         
H15-C10-C9-H13= 62.30         H15-C10-C9-H14=180.36         H16-C10-C9-H12= 58.23         H16-C10-C9-H13=179.20         
H16-C10-C9-H14=297.26         
           -------------------------------------------------
          |                Final Singlepoint                |
           -------------------------------------------------

          ...................................................
          :                      SETUP                      :
          :.................................................:
          :  # basis functions                 274          :
          :  # atomic orbitals                 260          :
          :  # shells                          142          :
          :  # electrons                       203          :
          :  # halogen bonds                     0          :
          :  max. iterations                   250          :
          :  Hamiltonian                  GFN1-xTB          :
          :  restarted?                      false          :
          :  GBSA solvation                   true          :
          :  PC potential                    false          :
          :  electronic temp.          300.0000000     K    :
          :  accuracy                    1.0000000          :
          :  -> integral cutoff          0.2500000E+02      :
          :  -> integral neglect         0.1000000E-07      :
          :  -> SCF convergence          0.1000000E-05 Eh   :
          :  -> wf. convergence          0.2000000E-04 e    :
          :  Broyden damping             0.4000000          :
          ...................................................

 iter      E             dE          RMSdq      gap      omega  full diag
   1   -107.4857530 -0.107486E+03  0.954E-05    0.04       0.0  T
   2   -107.4857496  0.346102E-05  0.352E-03    0.04       3.5  T
   3   -107.4857530 -0.345802E-05  0.142E-04    0.04      88.0  T
   4   -107.4857530 -0.319000E-08  0.928E-05    0.04     134.6  T
   5   -107.4857530 -0.641762E-10  0.901E-05    0.04     138.7  T

   *** convergence criteria satisfied after 5 iterations ***

         #    Occupation            Energy/Eh            Energy/eV
      -------------------------------------------------------------
         1        2.0000           -0.7266670             -19.7736
       ...           ...                  ...                  ...
        96        2.0000           -0.1981600              -5.3922
        97        2.0000           -0.1970966              -5.3633
        98        2.0000           -0.1945568              -5.2942
        99        2.0000           -0.1943759              -5.2892
       100        1.9990           -0.1908109              -5.1922
       101        1.9904           -0.1886906              -5.1345
       102        0.6888           -0.1797838              -4.8922 (HOMO)
       103        0.3171           -0.1783304              -4.8526 (LUMO)
       104        0.0048           -0.1739996              -4.7348
       105        0.0000           -0.1686052              -4.5880
       106        0.0000           -0.1638642              -4.4590
       107                         -0.1615617              -4.3963
       ...                                ...                  ...
       260                         14.1804109             385.8686
      -------------------------------------------------------------
                  HL-Gap            0.0014535 Eh            0.0396 eV
             Fermi-level           -0.1816744 Eh           -4.9436 eV

 SCC (total)                   0 d,  0 h,  0 min,  0.709 sec
 SCC setup                      ...        0 min,  0.002 sec (  0.264%)
 Dispersion                     ...        0 min,  0.001 sec (  0.096%)
 classical contributions        ...        0 min,  0.000 sec (  0.019%)
 integral evaluation            ...        0 min,  0.029 sec (  4.107%)
 iterations                     ...        0 min,  0.503 sec ( 70.919%)
 molecular gradient             ...        0 min,  0.074 sec ( 10.427%)
 printout                       ...        0 min,  0.100 sec ( 14.159%)

         :::::::::::::::::::::::::::::::::::::::::::::::::::::
         ::                     SUMMARY                     ::
         :::::::::::::::::::::::::::::::::::::::::::::::::::::
         :: total energy            -106.710358133622 Eh    ::
         :: total w/o Gsasa/hb      -106.705771306601 Eh    ::
         :: gradient norm              0.002754929883 Eh/a0 ::
         :: HOMO-LUMO gap              0.039550625987 eV    ::
         ::.................................................::
         :: SCC energy              -107.485753016350 Eh    ::
         :: -> electrostatic           0.967841838450 Eh    ::
         :: -> Gsolv                  -0.646701266327 Eh    ::
         ::    -> Gelec               -0.642114439307 Eh    ::
         ::    -> Gsasa               -0.006929197626 Eh    ::
         ::    -> Ghb                 -0.001903236066 Eh    ::
         ::    -> Gshift               0.004245606671 Eh    ::
         :: repulsion energy           0.833634078801 Eh    ::
         :: dispersion energy         -0.058239196074 Eh    ::
         :: halogen bond corr.         0.000000000000 Eh    ::
         :: add. restraining           0.000000000000 Eh    ::
         :: total charge              -4.000000000000 e     ::
         :::::::::::::::::::::::::::::::::::::::::::::::::::::

           -------------------------------------------------
          |                Property Printout                |
           -------------------------------------------------

    * Orbital Energies and Occupations

         #    Occupation            Energy/Eh            Energy/eV
      -------------------------------------------------------------
         1        2.0000           -0.7266670             -19.7736
       ...           ...                  ...                  ...
        90        2.0000           -0.2061458              -5.6095
        91        2.0000           -0.2049001              -5.5756
        92        2.0000           -0.2016461              -5.4871
        93        2.0000           -0.2010947              -5.4721
        94        2.0000           -0.2004371              -5.4542
        95        2.0000           -0.1990001              -5.4151
        96        2.0000           -0.1981600              -5.3922
        97        2.0000           -0.1970966              -5.3633
        98        2.0000           -0.1945568              -5.2942
        99        2.0000           -0.1943759              -5.2892
       100        1.9990           -0.1908109              -5.1922
       101        1.9904           -0.1886906              -5.1345
       102        0.6888           -0.1797838              -4.8922 (HOMO)
       103        0.3171           -0.1783304              -4.8526 (LUMO)
       104        0.0048           -0.1739996              -4.7348
       105        0.0000           -0.1686052              -4.5880
       106        0.0000           -0.1638642              -4.4590
       107                         -0.1615617              -4.3963
       108                         -0.1601787              -4.3587
       109                         -0.1475806              -4.0159
       110                         -0.1442376              -3.9249
       111                         -0.1378362              -3.7507
       112                         -0.1325728              -3.6075
       113                         -0.1012388              -2.7548
       ...                                ...                  ...
       260                         14.1804109             385.8686
      -------------------------------------------------------------
                  HL-Gap            0.0014535 Eh            0.0396 eV
             Fermi-level           -0.1816744 Eh           -4.9436 eV

  Mulliken/CM5 charges         n(s)   n(p)   n(d)
     1C    -0.04842 -0.19664   1.001  3.047  0.000
     2C     0.01080 -0.08263   1.026  2.963  0.000
     3S    -0.29611 -0.38420   1.904  4.401 -0.008
     4H    -0.02770  0.02265   1.028  0.000  0.000
     5H    -0.00587  0.04783   1.006  0.000  0.000
     6H    -0.00984  0.04178   1.010  0.000  0.000
     7H    -0.04693  0.00785   1.047  0.000  0.000
     8H    -0.04892  0.00561   1.049  0.000  0.000
     9C    -0.06470 -0.21255   1.004  3.061  0.000
    10C     0.01881 -0.07470   1.023  2.958  0.000
    11S    -0.36448 -0.44342   1.906  4.469 -0.010
    12H    -0.01757  0.03292   1.018  0.000  0.000
    13H    -0.01512  0.03728   1.015  0.000  0.000
    14H    -0.01627  0.03607   1.016  0.000  0.000
    15H    -0.04173  0.01250   1.042  0.000  0.000
    16H    -0.03236  0.02199   1.032  0.000  0.000
    17C    -0.05281 -0.20078   1.002  3.051  0.000
    18C     0.01964 -0.07387   1.023  2.957  0.000
    19S    -0.37566 -0.45404   1.906  4.479 -0.010
    20H    -0.02469  0.02561   1.025  0.000  0.000
    21H    -0.01931  0.03266   1.019  0.000  0.000
    22H     0.00644  0.05868   0.994  0.000  0.000
    23H    -0.05644 -0.00164   1.056  0.000  0.000
    24H    -0.03723  0.01717   1.037  0.000  0.000
    25C    -0.05574 -0.20266   1.002  3.054  0.000
    26C     0.02626 -0.06697   1.022  2.952  0.000
    27S    -0.41072 -0.48410   1.906  4.516 -0.011
    28H    -0.02565  0.02629   1.026  0.000  0.000
    29H    -0.02822  0.02207   1.028  0.000  0.000
    30H    -0.01394  0.04107   1.014  0.000  0.000
    31H    -0.03455  0.01954   1.035  0.000  0.000
    32H    -0.05936 -0.00463   1.059  0.000  0.000
    33C    -0.05629 -0.20390   1.001  3.055  0.000
    34C     0.02497 -0.06761   1.026  2.949  0.000
    35S    -0.37905 -0.44971   1.883  4.507 -0.011
    36H    -0.01152  0.04044   1.012  0.000  0.000
    37H    -0.02760  0.02476   1.028  0.000  0.000
    38H    -0.02283  0.02749   1.023  0.000  0.000
    39H    -0.03466  0.02191   1.035  0.000  0.000
    40H    -0.06159 -0.00727   1.062  0.000  0.000
    41C    -0.06421 -0.21348   1.004  3.061  0.000
    42C    -0.03445 -0.13530   1.020  3.015  0.000
    43C     0.00821  0.06387   1.041  2.950  0.000
    44N    -0.34668 -0.69064   1.443  3.904  0.000
    45C     0.17991  0.27014   0.976  2.844  0.000
    46N    -0.44893 -0.63225   1.564  3.885  0.000
    47C     0.07250  0.10282   1.005  2.923  0.000
    48H     0.01193  0.06500   0.988  0.000  0.000
    49H     0.01660  0.06875   0.983  0.000  0.000
    50H     0.00936  0.06059   0.991  0.000  0.000
    51H     0.00379  0.06056   0.996  0.000  0.000
    52H     0.00812  0.06357   0.992  0.000  0.000
    53H     0.20498  0.40134   0.795  0.000  0.000
    54H    -0.04002  0.03317   1.040  0.000  0.000
    55H    -0.03734  0.02843   1.037  0.000  0.000
    56Fe   -0.03881  0.21522   0.149  0.945  6.945
    57Fe   -0.01574  0.24363   0.127  0.929  6.960
    58Fe   -0.02558  0.23475   0.136  0.943  6.946
    59Fe   -0.03815  0.22035   0.152  0.959  6.927
    60S    -0.01698 -0.26127   1.859  4.175 -0.017
    61S    -0.19011 -0.41397   1.867  4.341 -0.018
    62S    -0.17686 -0.39937   1.867  4.328 -0.018
    63S     0.00424 -0.23499   1.853  4.160 -0.018
    64Ni   -0.32883 -0.16374   0.576  0.676  9.076

Wiberg/Mayer (AO) data.
largest (>0.10) Wiberg bond orders for each atom

 ---------------------------------------------------------------------------
     #   Z sym  total        # sym  WBO       # sym  WBO       # sym  WBO
 ---------------------------------------------------------------------------
     1   6 C    3.989 --     2 C    1.016     6 H    0.986     4 H    0.984
                             5 H    0.972
     2   6 C    3.977 --     1 C    1.016     8 H    0.987     7 H    0.979
                             3 S    0.949
     3  16 S    2.004 --     2 C    0.949    57 Fe   0.638
     4   1 H    1.010 --     1 C    0.984
     5   1 H    1.063 --     1 C    0.972
     6   1 H    1.022 --     1 C    0.986
     7   1 H    1.035 --     2 C    0.979
     8   1 H    1.034 --     2 C    0.987
     9   6 C    3.990 --    10 C    1.016    14 H    0.988    13 H    0.988
                            12 H    0.985
    10   6 C    3.979 --     9 C    1.016    15 H    0.987    16 H    0.986
                            11 S    0.961
    11  16 S    1.889 --    10 C    0.961    56 Fe   0.594
    12   1 H    1.010 --     9 C    0.985
    13   1 H    1.036 --     9 C    0.988
    14   1 H    1.040 --     9 C    0.988
    15   1 H    1.030 --    10 C    0.987
    16   1 H    1.025 --    10 C    0.986
    17   6 C    3.992 --    18 C    1.014    21 H    0.988    20 H    0.986
                            22 H    0.979
    18   6 C    3.981 --    17 C    1.014    23 H    0.987    24 H    0.985
                            19 S    0.964
    19  16 S    1.878 --    18 C    0.964    58 Fe   0.638
    20   1 H    1.011 --    17 C    0.986
    21   1 H    1.034 --    17 C    0.988
    22   1 H    1.032 --    17 C    0.979
    23   1 H    1.037 --    18 C    0.987
    24   1 H    1.030 --    18 C    0.985
    25   6 C    3.988 --    26 C    1.015    28 H    0.988    29 H    0.985
                            30 H    0.968
    26   6 C    3.982 --    25 C    1.015    32 H    0.986    31 H    0.983
                            27 S    0.970
    27  16 S    1.825 --    26 C    0.970    59 Fe   0.612
    28   1 H    1.035 --    25 C    0.988
    29   1 H    1.011 --    25 C    0.985
    30   1 H    1.074 --    25 C    0.968
    31   1 H    1.025 --    26 C    0.983
    32   1 H    1.037 --    26 C    0.986
    33   6 C    3.990 --    34 C    1.015    37 H    0.988    36 H    0.987
                            38 H    0.985
    34   6 C    3.983 --    33 C    1.015    40 H    0.988    35 S    0.971
                            39 H    0.968
    35  16 S    1.842 --    34 C    0.971    64 Ni   0.684
    36   1 H    1.034 --    33 C    0.987
    37   1 H    1.041 --    33 C    0.988
    38   1 H    1.012 --    33 C    0.985
    39   1 H    1.077 --    34 C    0.968
    40   1 H    1.038 --    34 C    0.988
    41   6 C    3.991 --    42 C    0.996    48 H    0.989    50 H    0.989
                            49 H    0.983
    42   6 C    3.996 --    43 C    1.016    41 C    0.996    52 H    0.979
                            51 H    0.976
    43   6 C    3.783 --    47 C    1.522    44 N    1.073    42 C    1.016
    44   7 N    3.241 --    45 C    1.106    43 C    1.073    53 H    0.924
    45   6 C    3.707 --    46 N    1.468    44 N    1.106    54 H    0.962
    46   7 N    2.935 --    45 C    1.468    47 C    1.298
    47   6 C    3.941 --    43 C    1.522    46 N    1.298    55 H    0.976
    48   1 H    1.011 --    41 C    0.989
    49   1 H    1.020 --    41 C    0.983
    50   1 H    1.007 --    41 C    0.989
    51   1 H    1.009 --    42 C    0.976
    52   1 H    1.011 --    42 C    0.979
    53   1 H    0.962 --    44 N    0.924
    54   1 H    1.086 --    45 C    0.962
    55   1 H    1.053 --    47 C    0.976
    56  26 Fe   5.657 --    59 Fe   0.936    61 S    0.795    62 S    0.780
                            58 Fe   0.735    57 Fe   0.687    63 S    0.686
                            11 S    0.594    64 Ni   0.248
    57  26 Fe   5.255 --    62 S    0.877    59 Fe   0.780    56 Fe   0.687
                             3 S    0.638    63 S    0.633    60 S    0.628
                            58 Fe   0.482    64 Ni   0.334
    58  26 Fe   5.335 --    61 S    0.854    59 Fe   0.779    56 Fe   0.735
                            63 S    0.677    60 S    0.643    19 S    0.638
                            57 Fe   0.482    64 Ni   0.348
    59  26 Fe   5.798 --    56 Fe   0.936    61 S    0.818    62 S    0.788
                            57 Fe   0.780    58 Fe   0.779    60 S    0.644
                            27 S    0.612    64 Ni   0.231
    60  16 S    2.750 --    64 Ni   0.652    59 Fe   0.644    58 Fe   0.643
                            57 Fe   0.628
    61  16 S    2.605 --    58 Fe   0.854    59 Fe   0.818    56 Fe   0.795
    62  16 S    2.616 --    57 Fe   0.877    59 Fe   0.788    56 Fe   0.780
    63  16 S    2.769 --    56 Fe   0.686    58 Fe   0.677    64 Ni   0.647
                            57 Fe   0.633
    64  28 Ni   3.335 --    35 S    0.684    60 S    0.652    63 S    0.647
                            58 Fe   0.348    57 Fe   0.334    56 Fe   0.248
                            59 Fe   0.231
 ---------------------------------------------------------------------------

Topologies differ in total number of bonds
Writing topology from bond orders to xtbtopo.mol

 dipole moment from electron density (au)
     X       Y       Z   
-406.5389 -89.4421-369.7357  total (Debye): 1415.135

           -------------------------------------------------
          |                Geometry Summary                 |
           -------------------------------------------------

      molecular mass/u    :      812.0935012
   center of mass at/Å    :       53.5230990      11.9065216      49.2810603
  moments of inertia/u·Å² :        0.5946180E+04   0.8335499E+04   0.9941304E+04
rotational constants/cm⁻¹ :        0.2835036E-02   0.2022390E-02   0.1695716E-02

 * 62 selected distances

     #   Z          #   Z                                           value/Å
     1   6 C        2   6 C                                       1.5261384
     1   6 C        4   1 H                                       1.0971502
     1   6 C        5   1 H                                       1.0975038
     1   6 C        6   1 H                                       1.0946878
     2   6 C        7   1 H                                       1.1026855
     2   6 C        8   1 H                                       1.1006832
     9   6 C       10   6 C                                       1.5276673
     9   6 C       12   1 H                                       1.0951527
     9   6 C       13   1 H                                       1.0926555
     9   6 C       14   1 H                                       1.0929215
    10   6 C       15   1 H                                       1.1012824
    10   6 C       16   1 H                                       1.0997335
    17   6 C       18   6 C                                       1.5294792
    17   6 C       20   1 H                                       1.0969556
    17   6 C       21   1 H                                       1.0939237
    17   6 C       22   1 H                                       1.0952912
    18   6 C       23   1 H                                       1.1006832
    18   6 C       24   1 H                                       1.1014761
    25   6 C       26   6 C                                       1.5294028
    25   6 C       28   1 H                                       1.0947359
    25   6 C       29   1 H                                       1.0975055
    25   6 C       30   1 H                                       1.1006076
    26   6 C       31   1 H                                       1.1027198
    26   6 C       32   1 H                                       1.1015838
    33   6 C       34   6 C                                       1.5281357
    33   6 C       36   1 H                                       1.0937664
    33   6 C       37   1 H                                       1.0929756
    33   6 C       38   1 H                                       1.0966594
    34   6 C       39   1 H                                       1.1066068
    34   6 C       40   1 H                                       1.1036271
    41   6 C       42   6 C                                       1.5377840
Note: The following floating-point exceptions are signalling: IEEE_UNDERFLOW_FLAG IEEE_DENORMAL
normal termination of xtb
    42   6 C       43   6 C                                       1.4924028
    43   6 C       44   7 N                                       1.4058879
    44   7 N       45   6 C                                       1.3972099
    45   6 C       46   7 N                                       1.3246651
    43   6 C       47   6 C                                       1.3750739
    46   7 N       47   6 C                                       1.3558439
    41   6 C       48   1 H                                       1.0915692
    41   6 C       49   1 H                                       1.0928020
    41   6 C       50   1 H                                       1.0905224
    42   6 C       51   1 H                                       1.0965706
    42   6 C       52   1 H                                       1.0959983
    44   7 N       53   1 H                                       1.0028891 (min)
    45   6 C       54   1 H                                       1.0843450
    47   6 C       55   1 H                                       1.0825326
    56  26 Fe      59  26 Fe                                      2.5023570
    57  26 Fe      59  26 Fe                                      2.5360742 (max)
    58  26 Fe      59  26 Fe                                      2.5238771
    57  26 Fe      60  16 S                                       2.2626203
    58  26 Fe      60  16 S                                       2.2508973
    59  26 Fe      60  16 S                                       2.2546385
    56  26 Fe      61  16 S                                       2.1915327
    58  26 Fe      61  16 S                                       2.1464106
    59  26 Fe      61  16 S                                       2.1776619
    56  26 Fe      62  16 S                                       2.2048658
    57  26 Fe      62  16 S                                       2.1430525
    59  26 Fe      62  16 S                                       2.1854730
    56  26 Fe      63  16 S                                       2.2597312
    57  26 Fe      63  16 S                                       2.2604149
    58  26 Fe      63  16 S                                       2.2306458
    60  16 S       64  28 Ni                                      2.2034160
    63  16 S       64  28 Ni                                      2.2237245

 * 7 distinct bonds (by element types)

   Z      Z             #   av. dist./Å        max./Å        min./Å
   1 H    6 C          32     1.0964973     1.1066068     1.0825326
   6 C    6 C           8     1.5057605     1.5377840     1.3750739
   1 H    7 N           1     1.0028891     1.0028891     1.0028891
   6 C    7 N           4     1.3709017     1.4058879     1.3246651
  16 S   26 Fe         12     2.2139954     2.2626203     2.1430525
  26 Fe  26 Fe          3     2.5207694     2.5360742     2.5023570
  16 S   28 Ni          2     2.2135703     2.2237245     2.2034160


optimized geometry written to: xtbopt.xyz


           -------------------------------------------------
          | TOTAL ENERGY             -106.710358133622 Eh   |
          | GRADIENT NORM               0.002754929883 Eh/α |
          | HOMO-LUMO GAP               0.039550625987 eV   |
           -------------------------------------------------

------------------------------------------------------------------------
 * finished run on 2026/09/11 at 19:58:41.788     
------------------------------------------------------------------------
 total:
 * wall-time:     0 d,  0 h,  2 min, 44.661 sec
 *  cpu-time:     0 d,  0 h,  3 min, 31.957 sec
 * ratio c/w:     1.287 speedup
 SCF:
 * wall-time:     0 d,  0 h,  0 min,  6.912 sec
 *  cpu-time:     0 d,  0 h,  0 min,  7.598 sec
 * ratio c/w:     1.099 speedup
 ANC optimizer:
 * wall-time:     0 d,  0 h,  2 min, 37.703 sec
 *  cpu-time:     0 d,  0 h,  3 min, 24.105 sec
 * ratio c/w:     1.294 speedup

