64
 energy: -106.710358133622 gnorm: 0.002754929883 xtb: 6.6.1 (unknown)
C           54.33766356690115       14.90869508847543       52.37979573399912
C           53.81514130727012       15.77348482981434       51.23602686086078
S           53.64976102526506       14.90353349296789       49.63926749267263
H           54.30815936653119       15.44807664345775       53.33474881033847
H           53.72951704442669       13.99953340864229       52.46978054638791
H           55.37227510276697       14.60658017574888       52.18836254093305
H           52.82844833289855       16.17408482705500       51.52215921770691
H           54.48224647467619       16.63911362279834       51.10502786961167
C           47.57965183193237        9.54063711228760       49.58973822832683
C           48.89009933824072       10.00509235488269       50.22280670181814
S           49.88898028782319       10.79065693646010       48.91367373391026
H           46.91527358660813        9.06047313225826       50.31596366027890
H           47.06015752007642       10.39589792000732       49.15093258008654
H           47.79255702265915        8.83180988918857       48.78555381076746
H           48.66055625287532       10.71287886311328       51.03470018347846
H           49.39437257185663        9.13732851989195       50.67237085165145
C           57.03379174318124        7.65947585792366       47.60617868580118
C           55.72483411031808        7.48925417952279       46.83354641694443
S           55.00109808750766        9.08869528094977       46.34038988969068
H           57.49053900280276        6.69238064103553       47.84994132801575
H           57.74391920927508        8.23639594327074       47.00655285129935
H           56.85128864024383        8.20621481049369       48.53753887452459
H           55.93161322655486        6.92325418503988       45.91246572512303
H           55.02523525420000        6.88702299525169       47.43448595523532
C           57.86076935524498        9.98135045657276       51.85077612255530
C           56.88463094646037        8.84152102903706       52.14575957545009
S           55.24938587361729        9.44671505967907       52.67915324191539
H           57.94458688834501       10.63194069057538       52.72721981239705
H           58.86012251976558        9.60314911738902       51.60022643670391
H           57.49361591405319       10.58677938104701       51.00816640567588
H           56.82390273099266        8.18239885476443       51.26379547672617
H           57.29192589499839        8.23444959422450       52.96981157250062
C           57.48835665618708       16.11237445222991       47.63507886677592
C           56.11707948784906       15.67077970372886       47.12538174659948
S           56.27953965337129       14.04391000412147       46.30429911576781
H           57.85384902975276       15.41281019665341       48.39227761749713
H           58.20180423046260       16.11017187698128       46.80707937851376
H           57.46486624023534       17.11882292524503       48.07001722247811
H           55.39363529884056       15.68398490169595       47.96265857160524
H           55.77110611903324       16.40272920841340       46.37535182766919
C           49.70814883284179       17.30906801145661       51.59980510501442
C           49.31894859633017       17.45342626286543       50.11910825901332
C           49.53685158815892       16.19574476587450       49.34578986785386
N           48.66906776104288       15.09659639581215       49.46966248030886
C           49.17632917632678       14.11764253905508       48.61144902831850
N           50.33039222550602       14.51049658820943       48.09323923056750
C           50.56553920303603       15.76913118895872       48.53917317918594
H           49.11948086531542       16.51856530240999       52.06895174159159
H           50.76812134352920       17.06106346245457       51.69555450155048
H           49.52012754026737       18.24286480078976       52.13075740603964
H           48.26521102525609       17.75249368944970       50.06750730137419
H           49.91068727507658       18.26053073468622       49.67229766778696
H           47.69094315217743       15.21062651008123       49.65954604989075
H           48.77790224681455       13.11045779583345       48.56008044598450
H           51.46413311575706       16.30779970573941       48.26669984232800
Fe          52.13922680452530       10.75302832230148       49.44892041476373
Fe          53.84248819375794       12.64379539884514       49.81326760575332
Fe          54.33120977062040       10.15258560412017       48.27070500612634
Fe          54.21219177239264       10.33082713447553       50.78546520693455
S           55.72010855548695       11.41825267414118       49.50989213537560
S           53.21008668723330        8.84361917589325       49.55006723883438
S           52.64710070762907       11.74794368356228       51.34987806899652
S           53.10206523721444       11.95164561447607       47.79282777261424
Ni          55.24297145748277       12.54124072545107       47.67514991359420
