      -----------------------------------------------------------      
     |                   =====================                   |     
     |                           x T B                           |     
     |                   =====================                   |     
     |                         S. Grimme                         |     
     |          Mulliken Center for Theoretical Chemistry        |     
     |                    University of Bonn                     |     
      -----------------------------------------------------------      

   * xtb version 6.6.1 (unknown) compiled by 'builduser@buildhost' on 2023-08-07

   xtb is free software: you can redistribute it and/or modify it under
   the terms of the GNU Lesser General Public License as published by
   the Free Software Foundation, either version 3 of the License, or
   (at your option) any later version.
   
   xtb is distributed in the hope that it will be useful,
   but WITHOUT ANY WARRANTY; without even the implied warranty of
   MERCHANTABILITY or FITNESS FOR A PARTICULAR PURPOSE.  See the
   GNU Lesser General Public License for more details.
   
   Cite this work as:
   * C. Bannwarth, E. Caldeweyher, S. Ehlert, A. Hansen, P. Pracht,
     J. Seibert, S. Spicher, S. Grimme, WIREs Comput. Mol. Sci., 2020, 11,
     e01493. DOI: 10.1002/wcms.1493
   
   for GFN2-xTB:
   * C. Bannwarth, S. Ehlert and S. Grimme., J. Chem. Theory Comput., 2019,
     15, 1652-1671. DOI: 10.1021/acs.jctc.8b01176
   for GFN1-xTB:
   * S. Grimme, C. Bannwarth, P. Shushkov, J. Chem. Theory Comput., 2017,
     13, 1989-2009. DOI: 10.1021/acs.jctc.7b00118
   for GFN0-xTB:
   * P. Pracht, E. Caldeweyher, S. Ehlert, S. Grimme, ChemRxiv, 2019, preprint.
     DOI: 10.26434/chemrxiv.8326202.v1
   for GFN-FF:
   * S. Spicher and S. Grimme, Angew. Chem. Int. Ed., 2020, 59, 15665-15673.
     DOI: 10.1002/anie.202004239
   
   for ALPB and GBSA implicit solvation:
   * S. Ehlert, M. Stahn, S. Spicher, S. Grimme, J. Chem. Theory Comput.,
     2021, 17, 4250-4261. DOI: 10.1021/acs.jctc.1c00471
   
   for DFT-D4:
   * E. Caldeweyher, C. Bannwarth and S. Grimme, J. Chem. Phys., 2017,
     147, 034112. DOI: 10.1063/1.4993215
   * E. Caldeweyher, S. Ehlert, A. Hansen, H. Neugebauer, S. Spicher,
     C. Bannwarth and S. Grimme, J. Chem. Phys., 2019, 150, 154122.
     DOI: 10.1063/1.5090222
   * E. Caldeweyher, J.-M. Mewes, S. Ehlert and S. Grimme, Phys. Chem. Chem. Phys.
     2020, 22, 8499-8512. DOI: 10.1039/D0CP00502A
   
   for sTDA-xTB:
   * S. Grimme and C. Bannwarth, J. Chem. Phys., 2016, 145, 054103.
     DOI: 10.1063/1.4959605
   
   in the mass-spec context:
   * V. Asgeirsson, C. Bauer and S. Grimme, Chem. Sci., 2017, 8, 4879.
     DOI: 10.1039/c7sc00601b
   * J. Koopman and S. Grimme, ACS Omega 2019, 4, 12, 15120-15133.
     DOI: 10.1021/acsomega.9b02011
   
   for metadynamics refer to:
   * S. Grimme, J. Chem. Theory Comput., 2019, 155, 2847-2862
     DOI: 10.1021/acs.jctc.9b00143
   
   for SPH calculations refer to:
   * S. Spicher and S. Grimme, J. Chem. Theory Comput., 2021, 17, 1701-1714
     DOI: 10.1021/acs.jctc.0c01306
   
   with help from (in alphabetical order)
   P. Atkinson, C. Bannwarth, F. Bohle, G. Brandenburg, E. Caldeweyher
   M. Checinski, S. Dohm, S. Ehlert, S. Ehrlich, I. Gerasimov, C. Hölzer
   A. Katbashev, J. Koopman, C. Lavigne, S. Lehtola, F. März, M. Müller,
   F. Musil, H. Neugebauer, J. Pisarek, C. Plett, P. Pracht, F. Pultar,
   J. Seibert, P. Shushkov, S. Spicher, M. Stahn, M. Steiner, T. Strunk,
   J. Stückrath, T. Rose, and J. Unsleber
   
 * started run on 2026/09/12 at 20:21:57.478     

           -------------------------------------------------
          |                Calculation Setup                |
           -------------------------------------------------

          program call               : xtb structure.xyz --gfn 1 --chrg -3 --uhf 0 --alpb water
          coordinate file            : structure.xyz
          omp threads                :                     8

   ID    Z sym.   atoms
    1    6 C      1, 2, 9, 10, 17, 18, 25, 26, 33, 34, 41-43, 45, 47
    2   16 S      3, 11, 19, 27, 35, 60-63
    3    1 H      4-8, 12-16, 20-24, 28-32, 36-40, 48-55
    4    7 N      44, 46
    5   26 Fe     56-59, 64

           -------------------------------------------------
          |                 G F N 1 - x T B                 |
           -------------------------------------------------

        Reference                      10.1021/acs.jctc.7b00118
      * Hamiltonian:
        H0-scaling (s, p, d)           1.850000    2.250000    2.000000
        zeta-weighting                 0.000000
      * Dispersion:
        s8                             2.400000
        a1                             0.630000
        a2                             5.000000
        s9                             0.000000
      * Repulsion:
        kExp                           1.500000
        rExp                           1.000000
      * Coulomb:
        alpha                          2.000000
        third order                    atomic
        anisotropic                    false
      * Halogen bond correction:
        rad-scale                      1.300000
        damping                        0.440000

      * Solvation model:               ALPB
        Solvent                        water
        Parameter file                 internal GFN1-xTB/ALPB
        Dielectric constant                8.0200E+01
        Reference state                gsolv [1 M gas/solution]
        Free energy shift                  4.2456E-03 Eh       2.6642E+00 kcal/mol
        Temperature                        2.9815E+02 K
        Density                            1.0000E+00 kg/L
        Solvent mass                       1.8000E+01 g/mol
        Interaction kernel             P16
        Born radius scaling (c1)           1.9452E+00
        Born radii integrator          GBOBC
        Born offset                        0.0000E+00 a0       0.0000E+00 AA
        H-bond correction              true
        Ion screening                  false
        Surface tension                    1.0000E-05 Eh       1.5569E+01 dyn/cm
        Grid points                               230 per atom

          ...................................................
          :                      SETUP                      :
          :.................................................:
          :  # basis functions                 274          :
          :  # atomic orbitals                 260          :
          :  # shells                          142          :
          :  # electrons                       200          :
          :  # halogen bonds                     0          :
          :  max. iterations                   250          :
          :  Hamiltonian                  GFN1-xTB          :
          :  restarted?                      false          :
          :  GBSA solvation                   true          :
          :  PC potential                    false          :
          :  electronic temp.          300.0000000     K    :
          :  accuracy                    1.0000000          :
          :  -> integral cutoff          0.2500000E+02      :
          :  -> integral neglect         0.1000000E-07      :
          :  -> SCF convergence          0.1000000E-05 Eh   :
          :  -> wf. convergence          0.2000000E-04 e    :
          :  Broyden damping             0.4000000          :
          ...................................................

 iter      E             dE          RMSdq      gap      omega  full diag
   1    -75.1926671 -0.751927E+02  0.159E+01    0.15       0.0  T
   2     55.0063083  0.130199E+03  0.279E+01    0.01       1.0  T
   3    -53.6807463 -0.108687E+03  0.138E+01    0.04       1.0  T
   4    -14.6630995  0.390176E+02  0.162E+01    0.16       1.0  T
   5    -38.9097357 -0.242466E+02  0.139E+01    0.31       1.0  T
   6    -46.9523840 -0.804265E+01  0.126E+01    0.14       1.0  T
   7    -57.3219065 -0.103695E+02  0.125E+01    0.35       1.0  T
   8    -61.0485453 -0.372664E+01  0.122E+01    0.04       1.0  T
   9    -70.8215576 -0.977301E+01  0.106E+01    0.10       1.0  T
  10    -80.1456904 -0.932413E+01  0.925E+00    0.09       1.0  T
  11    -96.4256230 -0.162799E+02  0.642E+00    0.19       1.0  T
  12    -92.5012446  0.392438E+01  0.679E+00    0.15       1.0  T
  13   -102.4210697 -0.991983E+01  0.385E+00    0.18       1.0  T
  14    -91.0981529  0.113229E+02  0.726E+00    0.05       1.0  T
  15    -96.7155604 -0.561741E+01  0.600E+00    0.03       1.0  T
  16    -96.7680433 -0.524829E-01  0.598E+00    0.03       1.0  T
  17    -98.4292538 -0.166121E+01  0.548E+00    0.03       1.0  T
  18    -79.9325839  0.184967E+02  0.933E+00    0.15       1.0  T
  19    -87.8001746 -0.786759E+01  0.783E+00    0.09       1.0  T
  20   -103.2842777 -0.154841E+02  0.349E+00    0.20       1.0  T
  21   -100.9175032  0.236677E+01  0.458E+00    0.27       1.0  T
  22   -100.2951457  0.622357E+00  0.488E+00    0.11       1.0  T
  23    -98.7148050  0.158034E+01  0.529E+00    0.09       1.0  T
  24   -103.8993275 -0.518452E+01  0.323E+00    0.25       1.0  T
  25   -105.4244723 -0.152514E+01  0.190E+00    0.23       1.0  T
  26   -103.7667143  0.165776E+01  0.309E+00    0.16       1.0  T
  27   -105.1504899 -0.138378E+01  0.213E+00    0.23       1.0  T
  28   -104.3544818  0.796008E+00  0.268E+00    0.19       1.0  T
  29   -104.4316544 -0.771726E-01  0.264E+00    0.18       1.0  T
  30   -105.0767454 -0.645091E+00  0.211E+00    0.21       1.0  T
  31   -105.5226118 -0.445866E+00  0.163E+00    0.24       1.0  T
  32   -106.1420507 -0.619439E+00  0.449E-01    0.26       1.0  T
  33   -106.1648326 -0.227819E-01  0.333E-01    0.24       1.0  T
  34   -106.1424007  0.224319E-01  0.440E-01    0.23       1.0  T
  35   -106.1489136 -0.651294E-02  0.411E-01    0.23       1.0  T
  36   -106.1772199 -0.283062E-01  0.213E-01    0.24       1.0  T
  37   -106.1806698 -0.344991E-02  0.166E-01    0.24       1.0  T
  38   -106.1861457 -0.547593E-02  0.811E-02    0.24       1.0  T
  39   -106.1874498 -0.130409E-02  0.311E-02    0.24       1.0  T
  40   -106.1875272 -0.773701E-04  0.253E-02    0.24       1.0  T
  41   -106.1876223 -0.950906E-04  0.168E-02    0.24       1.0  T
  42   -106.1876784 -0.561120E-04  0.862E-03    0.24       1.5  T
  43   -106.1876922 -0.137950E-04  0.475E-03    0.24       2.6  T
  44   -106.1876947 -0.249445E-05  0.356E-03    0.24       3.5  T
  45   -106.1876979 -0.326511E-05  0.793E-04    0.24      15.8  T
  46   -106.1876981 -0.141226E-06  0.335E-04    0.24      37.3  T
  47   -106.1876981 -0.205286E-07  0.164E-04    0.24      76.2  T
  48   -106.1876981 -0.555623E-08  0.525E-05    0.24     238.2  T

   *** convergence criteria satisfied after 48 iterations ***

         #    Occupation            Energy/Eh            Energy/eV
      -------------------------------------------------------------
         1        2.0000           -0.7637794             -20.7835
       ...           ...                  ...                  ...
        94        2.0000           -0.2155975              -5.8667
        95        2.0000           -0.2144738              -5.8361
        96        2.0000           -0.2136387              -5.8134
        97        1.9999           -0.2115596              -5.7568
        98        1.9993           -0.2099910              -5.7141
        99        1.9955           -0.2081679              -5.6645
       100        1.9845           -0.2069914              -5.6325 (HOMO)
       101        0.0207           -0.1980479              -5.3892 (LUMO)
       102        0.0000           -0.1917901              -5.2189
       103        0.0000           -0.1909406              -5.1958
       104        0.0000           -0.1888378              -5.1385
       105        0.0000           -0.1866022              -5.0777
       ...           ...                  ...                  ...
       260                         15.3489337             417.6657
      -------------------------------------------------------------
                  HL-Gap            0.0089435 Eh            0.2434 eV
             Fermi-level           -0.2023789 Eh           -5.5070 eV

 SCC (total)                   0 d,  0 h,  0 min,  5.883 sec
 SCC setup                      ...        0 min,  0.003 sec (  0.055%)
 Dispersion                     ...        0 min,  0.002 sec (  0.026%)
 classical contributions        ...        0 min,  0.000 sec (  0.008%)
 integral evaluation            ...        0 min,  0.037 sec (  0.622%)
 iterations                     ...        0 min,  5.731 sec ( 97.418%)
 molecular gradient             ...        0 min,  0.074 sec (  1.262%)
 printout                       ...        0 min,  0.036 sec (  0.606%)

         :::::::::::::::::::::::::::::::::::::::::::::::::::::
         ::                     SUMMARY                     ::
         :::::::::::::::::::::::::::::::::::::::::::::::::::::
         :: total energy            -105.376626784201 Eh    ::
         :: total w/o Gsasa/hb      -105.372669656258 Eh    ::
         :: gradient norm              0.001924435057 Eh/a0 ::
         :: HOMO-LUMO gap              0.243366079055 eV    ::
         ::.................................................::
         :: SCC energy              -106.187698099601 Eh    ::
         :: -> electrostatic           0.585876630729 Eh    ::
         :: -> Gsolv                  -0.345096365591 Eh    ::
         ::    -> Gelec               -0.341139237648 Eh    ::
         ::    -> Gsasa               -0.006711485260 Eh    ::
         ::    -> Ghb                 -0.001491249354 Eh    ::
         ::    -> Gshift               0.004245606671 Eh    ::
         :: repulsion energy           0.870773590546 Eh    ::
         :: dispersion energy         -0.059702275147 Eh    ::
         :: halogen bond corr.         0.000000000000 Eh    ::
         :: add. restraining           0.000000000000 Eh    ::
         :: total charge              -2.999999999834 e     ::
         :::::::::::::::::::::::::::::::::::::::::::::::::::::

           -------------------------------------------------
          |                Property Printout                |
           -------------------------------------------------

    * Orbital Energies and Occupations

         #    Occupation            Energy/Eh            Energy/eV
      -------------------------------------------------------------
         1        2.0000           -0.7637794             -20.7835
       ...           ...                  ...                  ...
        88        2.0000           -0.2316156              -6.3026
        89        2.0000           -0.2260260              -6.1505
        90        2.0000           -0.2248322              -6.1180
        91        2.0000           -0.2242409              -6.1019
        92        2.0000           -0.2233515              -6.0777
        93        2.0000           -0.2213890              -6.0243
        94        2.0000           -0.2155975              -5.8667
        95        2.0000           -0.2144738              -5.8361
        96        2.0000           -0.2136387              -5.8134
        97        1.9999           -0.2115596              -5.7568
        98        1.9993           -0.2099910              -5.7141
        99        1.9955           -0.2081679              -5.6645
       100        1.9845           -0.2069914              -5.6325 (HOMO)
       101        0.0207           -0.1980479              -5.3892 (LUMO)
       102        0.0000           -0.1917901              -5.2189
       103        0.0000           -0.1909406              -5.1958
       104        0.0000           -0.1888378              -5.1385
       105        0.0000           -0.1866022              -5.0777
       106                         -0.1825761              -4.9681
       107                         -0.1814075              -4.9363
       108                         -0.1735311              -4.7220
       109                         -0.1661787              -4.5220
       110                         -0.1618044              -4.4029
       111                         -0.1612408              -4.3876
       ...                                ...                  ...
       260                         15.3489337             417.6657
      -------------------------------------------------------------
                  HL-Gap            0.0089435 Eh            0.2434 eV
             Fermi-level           -0.2023789 Eh           -5.5070 eV

  Mulliken/CM5 charges         n(s)   n(p)   n(d)
     1C    -0.06214 -0.21011   1.003  3.059  0.000
     2C     0.01608 -0.07783   1.025  2.959  0.000
     3S    -0.35062 -0.43966   1.901  4.456 -0.007
     4H    -0.01411  0.03642   1.014  0.000  0.000
     5H    -0.00109  0.05099   1.001  0.000  0.000
     6H    -0.01261  0.03958   1.013  0.000  0.000
     7H    -0.02538  0.03204   1.025  0.000  0.000
     8H    -0.04298  0.01212   1.043  0.000  0.000
     9C    -0.06739 -0.21536   1.004  3.063  0.000
    10C     0.02116 -0.07301   1.024  2.955  0.000
    11S    -0.35715 -0.43767   1.906  4.462 -0.011
    12H    -0.01250  0.03799   1.013  0.000  0.000
    13H    -0.01196  0.04046   1.012  0.000  0.000
    14H    -0.00689  0.04543   1.007  0.000  0.000
    15H    -0.03810  0.01652   1.038  0.000  0.000
    16H    -0.01758  0.03715   1.018  0.000  0.000
    17C    -0.06089 -0.20831   1.003  3.058  0.000
    18C     0.02412 -0.06945   1.022  2.954  0.000
    19S    -0.38054 -0.45842   1.901  4.490 -0.011
    20H    -0.02201  0.02840   1.022  0.000  0.000
    21H    -0.01911  0.03284   1.019  0.000  0.000
    22H    -0.00219  0.05280   1.002  0.000  0.000
    23H    -0.04955  0.00542   1.050  0.000  0.000
    24H    -0.03013  0.02419   1.030  0.000  0.000
    25C    -0.05930 -0.20681   1.002  3.057  0.000
    26C     0.02476 -0.06859   1.022  2.953  0.000
    27S    -0.37465 -0.45414   1.899  4.486 -0.011
    28H    -0.01736  0.03464   1.017  0.000  0.000
    29H    -0.02289  0.02761   1.023  0.000  0.000
    30H    -0.00394  0.05099   1.004  0.000  0.000
    31H    -0.03095  0.02336   1.031  0.000  0.000
    32H    -0.04919  0.00582   1.049  0.000  0.000
    33C    -0.06142 -0.20930   1.003  3.058  0.000
    34C     0.01769 -0.07808   1.027  2.955  0.000
    35S    -0.19263 -0.32912   1.892  4.304 -0.003
    36H     0.00238  0.05662   0.998  0.000  0.000
    37H    -0.01185  0.04032   1.012  0.000  0.000
    38H    -0.01423  0.03642   1.014  0.000  0.000
    39H    -0.01245  0.04280   1.012  0.000  0.000
    40H    -0.03667  0.01830   1.037  0.000  0.000
    41C    -0.07461 -0.22417   1.006  3.069  0.000
    42C    -0.04108 -0.14234   1.022  3.019  0.000
    43C     0.05023  0.11055   1.046  2.904  0.000
    44N    -0.28857 -0.64544   1.430  3.859  0.000
    45C     0.20857  0.30525   0.996  2.795  0.000
    46N    -0.29315 -0.52163   1.537  3.756  0.000
    47C     0.06434  0.08976   1.018  2.917  0.000
    48H     0.02272  0.07561   0.977  0.000  0.000
    49H     0.02477  0.07700   0.975  0.000  0.000
    50H     0.02505  0.07642   0.975  0.000  0.000
    51H     0.02227  0.07974   0.978  0.000  0.000
    52H     0.02382  0.07941   0.976  0.000  0.000
    53H     0.23135  0.42772   0.769  0.000  0.000
    54H     0.00876  0.08410   0.991  0.000  0.000
    55H     0.00088  0.06754   0.999  0.000  0.000
    56Fe   -0.03045  0.23755   0.143  0.949  6.939
    57Fe   -0.06262  0.18675   0.151  0.855  7.056
    58Fe   -0.03022  0.24586   0.151  0.966  6.913
    59Fe   -0.03202  0.23922   0.150  0.954  6.929
    60S    -0.12473 -0.35341   1.869  4.275 -0.019
    61S    -0.16427 -0.38876   1.865  4.317 -0.018
    62S    -0.01241 -0.27591   1.858  4.168 -0.014
    63S    -0.14687 -0.37559   1.865  4.300 -0.019
    64Fe   -0.01550  0.25140   0.117  0.952  6.946

Wiberg/Mayer (AO) data.
largest (>0.10) Wiberg bond orders for each atom

 ---------------------------------------------------------------------------
     #   Z sym  total        # sym  WBO       # sym  WBO       # sym  WBO
 ---------------------------------------------------------------------------
     1   6 C    3.992 --     2 C    1.016     6 H    0.988     5 H    0.986
                             4 H    0.985
     2   6 C    3.985 --     1 C    1.016     8 H    0.987     7 H    0.982
                             3 S    0.958
     3  16 S    1.932 --     2 C    0.958    57 Fe   0.731
     4   1 H    1.010 --     1 C    0.985
     5   1 H    1.029 --     1 C    0.986
     6   1 H    1.033 --     1 C    0.988
     7   1 H    1.024 --     2 C    0.982
     8   1 H    1.035 --     2 C    0.987
     9   6 C    3.992 --    10 C    1.017    13 H    0.988    14 H    0.987
                            12 H    0.985
    10   6 C    3.985 --     9 C    1.017    15 H    0.988    16 H    0.984
                            11 S    0.965
    11  16 S    1.943 --    10 C    0.965    56 Fe   0.601    54 H    0.107
    12   1 H    1.009 --     9 C    0.985
    13   1 H    1.033 --     9 C    0.988
    14   1 H    1.034 --     9 C    0.987
    15   1 H    1.031 --    10 C    0.988
    16   1 H    1.025 --    10 C    0.984
    17   6 C    3.988 --    18 C    1.016    21 H    0.989    20 H    0.985
                            22 H    0.969
    18   6 C    3.985 --    17 C    1.016    23 H    0.986    24 H    0.986
                            19 S    0.969
    19  16 S    1.881 --    18 C    0.969    58 Fe   0.659
    20   1 H    1.010 --    17 C    0.985
    21   1 H    1.029 --    17 C    0.989
    22   1 H    1.062 --    17 C    0.969
    23   1 H    1.034 --    18 C    0.986
    24   1 H    1.023 --    18 C    0.986
    25   6 C    3.988 --    26 C    1.015    28 H    0.988    29 H    0.986
                            30 H    0.971
    26   6 C    3.984 --    25 C    1.015    32 H    0.986    31 H    0.986
                            27 S    0.968
    27  16 S    1.904 --    26 C    0.968    59 Fe   0.673
    28   1 H    1.031 --    25 C    0.988
    29   1 H    1.011 --    25 C    0.986
    30   1 H    1.061 --    25 C    0.971
    31   1 H    1.024 --    26 C    0.986
    32   1 H    1.034 --    26 C    0.986
    33   6 C    3.992 --    34 C    1.021    37 H    0.988    38 H    0.985
                            36 H    0.975
    34   6 C    3.984 --    33 C    1.021    40 H    0.988    39 H    0.984
                            35 S    0.930
    35  16 S    2.262 --    34 C    0.930    64 Fe   0.580    57 Fe   0.563
    36   1 H    1.054 --    33 C    0.975
    37   1 H    1.024 --    33 C    0.988
    38   1 H    1.009 --    33 C    0.985
    39   1 H    1.019 --    34 C    0.984
    40   1 H    1.032 --    34 C    0.988
    41   6 C    3.997 --    42 C    1.000    48 H    0.989    49 H    0.988
                            50 H    0.988
    42   6 C    3.998 --    43 C    1.014    41 C    1.000    52 H    0.978
                            51 H    0.977
    43   6 C    3.916 --    47 C    1.575    44 N    1.143    42 C    1.014
                            45 C    0.101
    44   7 N    3.443 --    45 C    1.200    43 C    1.143    53 H    0.913
    45   6 C    3.903 --    46 N    1.508    44 N    1.200    54 H    0.935
                            43 C    0.101
    46   7 N    3.208 --    45 C    1.508    47 C    1.254    57 Fe   0.286
    47   6 C    3.966 --    43 C    1.575    46 N    1.254    55 H    0.973
    48   1 H    1.008 --    41 C    0.989
    49   1 H    1.010 --    41 C    0.988
    50   1 H    1.005 --    41 C    0.988
    51   1 H    1.006 --    42 C    0.977
    52   1 H    1.009 --    42 C    0.978
    53   1 H    0.950 --    44 N    0.913
    54   1 H    1.081 --    45 C    0.935    11 S    0.107
    55   1 H    1.038 --    47 C    0.973
    56  26 Fe   5.683 --    63 S    0.834    61 S    0.816    58 Fe   0.798
                            59 Fe   0.712    64 Fe   0.686    62 S    0.653
                            11 S    0.601    57 Fe   0.392
    57  26 Fe   4.549 --    62 S    0.858     3 S    0.731    64 Fe   0.685
                            35 S    0.563    59 Fe   0.472    56 Fe   0.392
                            46 N    0.286    58 Fe   0.264
    58  26 Fe   5.835 --    61 S    0.832    63 S    0.810    60 S    0.800
                            56 Fe   0.798    59 Fe   0.764    64 Fe   0.727
                            19 S    0.659    57 Fe   0.264
    59  26 Fe   5.717 --    60 S    0.828    61 S    0.822    58 Fe   0.764
                            56 Fe   0.712    27 S    0.673    62 S    0.639
                            64 Fe   0.609    57 Fe   0.472
    60  16 S    2.670 --    59 Fe   0.828    58 Fe   0.800    64 Fe   0.773
Note: The following floating-point exceptions are signalling: IEEE_UNDERFLOW_FLAG IEEE_DENORMAL
normal termination of xtb
    61  16 S    2.588 --    58 Fe   0.832    59 Fe   0.822    56 Fe   0.816
    62  16 S    2.781 --    57 Fe   0.858    56 Fe   0.653    59 Fe   0.639
                            64 Fe   0.546
    63  16 S    2.657 --    64 Fe   0.859    56 Fe   0.834    58 Fe   0.810
    64  26 Fe   5.676 --    63 S    0.859    60 S    0.773    58 Fe   0.727
                            56 Fe   0.686    57 Fe   0.685    59 Fe   0.609
                            35 S    0.580    62 S    0.546
 ---------------------------------------------------------------------------

Topologies differ in total number of bonds
Writing topology from bond orders to xtbtopo.mol

 dipole moment from electron density (au)
     X       Y       Z   
-307.6609 -62.2829-279.5709  total (Debye): 1068.424


           -------------------------------------------------
          | TOTAL ENERGY             -105.376626784201 Eh   |
          | GRADIENT NORM               0.001924435057 Eh/α |
          | HOMO-LUMO GAP               0.243366079055 eV   |
           -------------------------------------------------

------------------------------------------------------------------------
 * finished run on 2026/09/12 at 20:22:03.412     
------------------------------------------------------------------------
 total:
 * wall-time:     0 d,  0 h,  0 min,  5.934 sec
 *  cpu-time:     0 d,  0 h,  0 min,  6.968 sec
 * ratio c/w:     1.174 speedup
 SCF:
 * wall-time:     0 d,  0 h,  0 min,  5.885 sec
 *  cpu-time:     0 d,  0 h,  0 min,  6.682 sec
 * ratio c/w:     1.135 speedup

