      -----------------------------------------------------------      
     |                   =====================                   |     
     |                           x T B                           |     
     |                   =====================                   |     
     |                         S. Grimme                         |     
     |          Mulliken Center for Theoretical Chemistry        |     
     |                    University of Bonn                     |     
      -----------------------------------------------------------      

   * xtb version 6.6.1 (unknown) compiled by 'builduser@buildhost' on 2023-08-07

   xtb is free software: you can redistribute it and/or modify it under
   the terms of the GNU Lesser General Public License as published by
   the Free Software Foundation, either version 3 of the License, or
   (at your option) any later version.
   
   xtb is distributed in the hope that it will be useful,
   but WITHOUT ANY WARRANTY; without even the implied warranty of
   MERCHANTABILITY or FITNESS FOR A PARTICULAR PURPOSE.  See the
   GNU Lesser General Public License for more details.
   
   Cite this work as:
   * C. Bannwarth, E. Caldeweyher, S. Ehlert, A. Hansen, P. Pracht,
     J. Seibert, S. Spicher, S. Grimme, WIREs Comput. Mol. Sci., 2020, 11,
     e01493. DOI: 10.1002/wcms.1493
   
   for GFN2-xTB:
   * C. Bannwarth, S. Ehlert and S. Grimme., J. Chem. Theory Comput., 2019,
     15, 1652-1671. DOI: 10.1021/acs.jctc.8b01176
   for GFN1-xTB:
   * S. Grimme, C. Bannwarth, P. Shushkov, J. Chem. Theory Comput., 2017,
     13, 1989-2009. DOI: 10.1021/acs.jctc.7b00118
   for GFN0-xTB:
   * P. Pracht, E. Caldeweyher, S. Ehlert, S. Grimme, ChemRxiv, 2019, preprint.
     DOI: 10.26434/chemrxiv.8326202.v1
   for GFN-FF:
   * S. Spicher and S. Grimme, Angew. Chem. Int. Ed., 2020, 59, 15665-15673.
     DOI: 10.1002/anie.202004239
   
   for ALPB and GBSA implicit solvation:
   * S. Ehlert, M. Stahn, S. Spicher, S. Grimme, J. Chem. Theory Comput.,
     2021, 17, 4250-4261. DOI: 10.1021/acs.jctc.1c00471
   
   for DFT-D4:
   * E. Caldeweyher, C. Bannwarth and S. Grimme, J. Chem. Phys., 2017,
     147, 034112. DOI: 10.1063/1.4993215
   * E. Caldeweyher, S. Ehlert, A. Hansen, H. Neugebauer, S. Spicher,
     C. Bannwarth and S. Grimme, J. Chem. Phys., 2019, 150, 154122.
     DOI: 10.1063/1.5090222
   * E. Caldeweyher, J.-M. Mewes, S. Ehlert and S. Grimme, Phys. Chem. Chem. Phys.
     2020, 22, 8499-8512. DOI: 10.1039/D0CP00502A
   
   for sTDA-xTB:
   * S. Grimme and C. Bannwarth, J. Chem. Phys., 2016, 145, 054103.
     DOI: 10.1063/1.4959605
   
   in the mass-spec context:
   * V. Asgeirsson, C. Bauer and S. Grimme, Chem. Sci., 2017, 8, 4879.
     DOI: 10.1039/c7sc00601b
   * J. Koopman and S. Grimme, ACS Omega 2019, 4, 12, 15120-15133.
     DOI: 10.1021/acsomega.9b02011
   
   for metadynamics refer to:
   * S. Grimme, J. Chem. Theory Comput., 2019, 155, 2847-2862
     DOI: 10.1021/acs.jctc.9b00143
   
   for SPH calculations refer to:
   * S. Spicher and S. Grimme, J. Chem. Theory Comput., 2021, 17, 1701-1714
     DOI: 10.1021/acs.jctc.0c01306
   
   with help from (in alphabetical order)
   P. Atkinson, C. Bannwarth, F. Bohle, G. Brandenburg, E. Caldeweyher
   M. Checinski, S. Dohm, S. Ehlert, S. Ehrlich, I. Gerasimov, C. Hölzer
   A. Katbashev, J. Koopman, C. Lavigne, S. Lehtola, F. März, M. Müller,
   F. Musil, H. Neugebauer, J. Pisarek, C. Plett, P. Pracht, F. Pultar,
   J. Seibert, P. Shushkov, S. Spicher, M. Stahn, M. Steiner, T. Strunk,
   J. Stückrath, T. Rose, and J. Unsleber
   
 * started run on 2026/09/13 at 13:39:22.590     

           -------------------------------------------------
          |                Calculation Setup                |
           -------------------------------------------------

          program call               : xtb structure.xyz --gfn 1 --chrg -3 --uhf 1 --alpb water
          coordinate file            : structure.xyz
          omp threads                :                     8

   ID    Z sym.   atoms
    1    6 C      1, 2, 9, 10, 17, 18, 25, 26, 33, 34, 41-43, 45, 47, 65
    2   16 S      3, 11, 19, 27, 35, 60-63
    3    1 H      4-8, 12-16, 20-24, 28-32, 36-40, 48-55, 68
    4    7 N      44, 46
    5   26 Fe     56-59
    6   28 Ni     64
    7    8 O      66, 67

molecular fragmentation (1/2 indicates fragments):
11111111111111111111111111111111111111112222222222222221111111212222
# atoms in fragment 1/2:    48    20
 fragment masses (1/2) :      683.90      173.21
CMA distance (Bohr)    :   8.068
constraining FC (au)   :  0.0500

           -------------------------------------------------
          |                 G F N 1 - x T B                 |
           -------------------------------------------------

        Reference                      10.1021/acs.jctc.7b00118
      * Hamiltonian:
        H0-scaling (s, p, d)           1.850000    2.250000    2.000000
        zeta-weighting                 0.000000
      * Dispersion:
        s8                             2.400000
        a1                             0.630000
        a2                             5.000000
        s9                             0.000000
      * Repulsion:
        kExp                           1.500000
        rExp                           1.000000
      * Coulomb:
        alpha                          2.000000
        third order                    atomic
        anisotropic                    false
      * Halogen bond correction:
        rad-scale                      1.300000
        damping                        0.440000

      * Solvation model:               ALPB
        Solvent                        water
        Parameter file                 internal GFN1-xTB/ALPB
        Dielectric constant                8.0200E+01
        Reference state                gsolv [1 M gas/solution]
        Free energy shift                  4.2456E-03 Eh       2.6642E+00 kcal/mol
        Temperature                        2.9815E+02 K
        Density                            1.0000E+00 kg/L
        Solvent mass                       1.8000E+01 g/mol
        Interaction kernel             P16
        Born radius scaling (c1)           1.9452E+00
        Born radii integrator          GBOBC
        Born offset                        0.0000E+00 a0       0.0000E+00 AA
        H-bond correction              true
        Ion screening                  false
        Surface tension                    1.0000E-05 Eh       1.5569E+01 dyn/cm
        Grid points                               230 per atom

          ...................................................
          :                      SETUP                      :
          :.................................................:
          :  # basis functions                 288          :
          :  # atomic orbitals                 274          :
          :  # shells                          150          :
          :  # electrons                       219          :
          :  # halogen bonds                     0          :
          :  max. iterations                   250          :
          :  Hamiltonian                  GFN1-xTB          :
          :  restarted?                      false          :
          :  GBSA solvation                   true          :
          :  PC potential                    false          :
          :  electronic temp.          300.0000000     K    :
          :  accuracy                    1.0000000          :
          :  -> integral cutoff          0.2500000E+02      :
          :  -> integral neglect         0.1000000E-07      :
          :  -> SCF convergence          0.1000000E-05 Eh   :
          :  -> wf. convergence          0.2000000E-04 e    :
          :  Broyden damping             0.4000000          :
          ...................................................

 iter      E             dE          RMSdq      gap      omega  full diag
   1    -93.2493033 -0.932493E+02  0.146E+01    0.16       0.0  T
   2     18.8357322  0.112085E+03  0.256E+01    0.02       1.0  T
   3    -80.8924251 -0.997282E+02  0.122E+01    0.32       1.0  T
   4    -54.2882849  0.266041E+02  0.137E+01    0.07       1.0  T
   5    -99.8776065 -0.455893E+02  0.973E+00    0.10       1.0  T
   6    -88.6805693  0.111970E+02  0.100E+01    0.12       1.0  T
   7    -65.1152648  0.235653E+02  0.123E+01    0.12       1.0  T
   8    -75.1676284 -0.100524E+02  0.112E+01    0.07       1.0  T
   9   -105.4463579 -0.302787E+02  0.778E+00    0.07       1.0  T
  10   -116.2137571 -0.107674E+02  0.435E+00    0.24       1.0  T
  11   -111.9077717  0.430599E+01  0.539E+00    0.07       1.0  T
  12   -116.0230121 -0.411524E+01  0.389E+00    0.04       1.0  T
  13   -117.2065381 -0.118353E+01  0.309E+00    0.04       1.0  T
  14   -111.1553885  0.605115E+01  0.535E+00    0.11       1.0  T
  15   -110.8304468  0.324942E+00  0.539E+00    0.09       1.0  T
  16   -112.6438042 -0.181336E+01  0.542E+00    0.00       1.0  T
  17   -112.6406321  0.317210E-02  0.541E+00    0.01       1.0  T
  18   -115.8296380 -0.318901E+01  0.419E+00    0.05       1.0  T
  19   -115.8931489 -0.635109E-01  0.429E+00    0.06       1.0  T
  20   -112.8962129  0.299694E+01  0.551E+00    0.06       1.0  T
  21   -110.7806513  0.211556E+01  0.598E+00    0.04       1.0  T
  22   -109.0362997  0.174435E+01  0.621E+00    0.15       1.0  T
  23   -109.1447557 -0.108456E+00  0.620E+00    0.15       1.0  T
  24   -109.6098184 -0.465063E+00  0.603E+00    0.14       1.0  T
  25   -109.8770365 -0.267218E+00  0.595E+00    0.15       1.0  T
  26   -110.1533360 -0.276300E+00  0.587E+00    0.14       1.0  T
  27   -114.6663269 -0.451299E+01  0.423E+00    0.04       1.0  T
  28   -117.0681805 -0.240185E+01  0.293E+00    0.09       1.0  T
  29   -117.1095694 -0.413889E-01  0.287E+00    0.11       1.0  T
  30   -118.5759506 -0.146638E+01  0.187E+00    0.22       1.0  T
  31   -118.4536896  0.122261E+00  0.192E+00    0.22       1.0  T
  32   -119.2269023 -0.773213E+00  0.953E-01    0.19       1.0  T
  33   -119.2195633  0.733894E-02  0.898E-01    0.19       1.0  T
  34   -119.2100429  0.952045E-02  0.932E-01    0.19       1.0  T
  35   -119.3043668 -0.943239E-01  0.659E-01    0.17       1.0  T
  36   -119.3901636 -0.857968E-01  0.241E-01    0.18       1.0  T
  37   -119.4006702 -0.105066E-01  0.151E-01    0.17       1.0  T
  38   -119.4022282 -0.155800E-02  0.659E-02    0.18       1.0  T
  39   -119.4025527 -0.324477E-03  0.556E-02    0.18       1.0  T
  40   -119.4031495 -0.596871E-03  0.165E-02    0.18       1.0  T
  41   -119.4031576 -0.805123E-05  0.178E-02    0.18       1.0  T
  42   -119.4031936 -0.360373E-04  0.608E-03    0.18       2.0  T
  43   -119.4031996 -0.599951E-05  0.347E-03    0.18       3.5  T
  44   -119.4032010 -0.139553E-05  0.225E-03    0.18       5.4  T
  45   -119.4032017 -0.667408E-06  0.130E-03    0.18       9.3  T
  46   -119.4032019 -0.267653E-06  0.103E-03    0.18      11.7  T
  47   -119.4032021 -0.132970E-06  0.224E-04    0.18      54.0  T
  48   -119.4032021 -0.603094E-08  0.193E-04    0.18      63.0  T
  49   -119.4032021 -0.238141E-08  0.142E-04    0.18      85.2  T

   *** convergence criteria satisfied after 49 iterations ***

         #    Occupation            Energy/Eh            Energy/eV
      -------------------------------------------------------------
         1        2.0000           -0.8356490             -22.7392
       ...           ...                  ...                  ...
       104        1.9999           -0.2939057              -7.9976
       105        1.9998           -0.2930752              -7.9750
       106        1.9973           -0.2905039              -7.9050
       107        1.9948           -0.2898899              -7.8883
       108        1.9181           -0.2871984              -7.8151
       109        1.5603           -0.2851703              -7.7599
       110        1.4899           -0.2849186              -7.7530 (HOMO)
       111        0.0398           -0.2782147              -7.5706 (LUMO)
       112        0.0000           -0.2712827              -7.3820
       113        0.0000           -0.2695316              -7.3343
       114                         -0.2606656              -7.0931
       115                         -0.2589709              -7.0470
       ...                                ...                  ...
       274                         13.9288294             379.0227
      -------------------------------------------------------------
                  HL-Gap            0.0067039 Eh            0.1824 eV
             Fermi-level           -0.2830690 Eh           -7.7027 eV

 SCC (total)                   0 d,  0 h,  0 min,  5.819 sec
 SCC setup                      ...        0 min,  0.003 sec (  0.053%)
 Dispersion                     ...        0 min,  0.001 sec (  0.017%)
 classical contributions        ...        0 min,  0.000 sec (  0.004%)
 integral evaluation            ...        0 min,  0.030 sec (  0.510%)
 iterations                     ...        0 min,  5.592 sec ( 96.112%)
 molecular gradient             ...        0 min,  0.075 sec (  1.295%)
 printout                       ...        0 min,  0.117 sec (  2.008%)

         :::::::::::::::::::::::::::::::::::::::::::::::::::::
         ::                     SUMMARY                     ::
         :::::::::::::::::::::::::::::::::::::::::::::::::::::
         :: total energy            -118.546901929137 Eh    ::
         :: total w/o Gsasa/hb      -118.535266928492 Eh    ::
         :: gradient norm              0.071238847470 Eh/a0 ::
         :: HOMO-LUMO gap              0.182422327903 eV    ::
         ::.................................................::
         :: SCC energy              -119.403202081650 Eh    ::
         :: -> electrostatic           0.748444872491 Eh    ::
         :: -> Gsolv                  -0.450256786728 Eh    ::
         ::    -> Gelec               -0.438621786084 Eh    ::
         ::    -> Gsasa               -0.005735574953 Eh    ::
         ::    -> Ghb                 -0.010145032362 Eh    ::
         ::    -> Gshift               0.004245606671 Eh    ::
         :: repulsion energy           0.921446499291 Eh    ::
         :: dispersion energy         -0.065146346778 Eh    ::
         :: halogen bond corr.         0.000000000000 Eh    ::
         :: add. restraining           0.000000000000 Eh    ::
         :: total charge              -3.000000000000 e     ::
         :::::::::::::::::::::::::::::::::::::::::::::::::::::

           -------------------------------------------------
          |                Property Printout                |
           -------------------------------------------------

    * Orbital Energies and Occupations

         #    Occupation            Energy/Eh            Energy/eV
      -------------------------------------------------------------
         1        2.0000           -0.8356490             -22.7392
       ...           ...                  ...                  ...
        98        2.0000           -0.3005141              -8.1774
        99        2.0000           -0.2998467              -8.1592
       100        2.0000           -0.2991392              -8.1400
       101        2.0000           -0.2979168              -8.1067
       102        2.0000           -0.2959822              -8.0541
       103        2.0000           -0.2957530              -8.0478
       104        1.9999           -0.2939057              -7.9976
       105        1.9998           -0.2930752              -7.9750
       106        1.9973           -0.2905039              -7.9050
       107        1.9948           -0.2898899              -7.8883
       108        1.9181           -0.2871984              -7.8151
       109        1.5603           -0.2851703              -7.7599
       110        1.4899           -0.2849186              -7.7530 (HOMO)
       111        0.0398           -0.2782147              -7.5706 (LUMO)
       112        0.0000           -0.2712827              -7.3820
       113        0.0000           -0.2695316              -7.3343
       114                         -0.2606656              -7.0931
       115                         -0.2589709              -7.0470
       116                         -0.2563450              -6.9755
       117                         -0.2436739              -6.6307
       118                         -0.2390520              -6.5049
       119                         -0.2345009              -6.3811
       120                         -0.2055865              -5.5943
       121                         -0.1691687              -4.6033
       ...                                ...                  ...
       274                         13.9288294             379.0227
      -------------------------------------------------------------
                  HL-Gap            0.0067039 Eh            0.1824 eV
             Fermi-level           -0.2830690 Eh           -7.7027 eV

  Mulliken/CM5 charges         n(s)   n(p)   n(d)
     1C    -0.06367 -0.21240   1.006  3.057  0.000
     2C     0.01906 -0.07485   1.030  2.951  0.000
     3S    -0.19919 -0.29391   1.898  4.310 -0.008
     4H     0.00624  0.05674   0.994  0.000  0.000
     5H     0.01630  0.06947   0.984  0.000  0.000
     6H     0.01645  0.06833   0.984  0.000  0.000
     7H    -0.00996  0.04498   1.010  0.000  0.000
     8H    -0.00753  0.04727   1.008  0.000  0.000
     9C    -0.07617 -0.22417   1.007  3.069  0.000
    10C     0.01993 -0.07414   1.028  2.952  0.000
    11S    -0.24726 -0.33110   1.900  4.358 -0.011
    12H     0.00834  0.05895   0.992  0.000  0.000
    13H     0.00716  0.05955   0.993  0.000  0.000
    14H     0.00786  0.06016   0.992  0.000  0.000
    15H    -0.00900  0.04553   1.009  0.000  0.000
    16H    -0.00165  0.05299   1.002  0.000  0.000
    17C    -0.06762 -0.21607   1.006  3.061  0.000
    18C     0.01890 -0.07516   1.029  2.952  0.000
    19S    -0.22464 -0.31402   1.899  4.334 -0.009
    20H     0.00695  0.05752   0.993  0.000  0.000
    21H     0.01024  0.06213   0.990  0.000  0.000
    22H     0.02277  0.07578   0.977  0.000  0.000
    23H    -0.01025  0.04482   1.010  0.000  0.000
    24H    -0.00293  0.05152   1.003  0.000  0.000
    25C    -0.07160 -0.21910   1.007  3.064  0.000
    26C     0.02385 -0.06974   1.028  2.948  0.000
    27S    -0.27593 -0.35188   1.901  4.385 -0.010
    28H     0.00316  0.05523   0.997  0.000  0.000
    29H     0.00246  0.05295   0.998  0.000  0.000
    30H     0.00974  0.06512   0.990  0.000  0.000
    31H    -0.00429  0.05000   1.004  0.000  0.000
    32H    -0.01541  0.03963   1.015  0.000  0.000
    33C    -0.07113 -0.21899   1.005  3.066  0.000
    34C     0.02775 -0.06537   1.031  2.941  0.000
    35S    -0.27053 -0.34623   1.877  4.405 -0.011
    36H     0.00672  0.05881   0.993  0.000  0.000
    37H    -0.00052  0.05171   1.001  0.000  0.000
    38H     0.00351  0.05398   0.996  0.000  0.000
    39H    -0.00706  0.05012   1.007  0.000  0.000
    40H    -0.01831  0.03632   1.018  0.000  0.000
    41C    -0.07365 -0.22322   1.006  3.067  0.000
    42C    -0.04422 -0.14548   1.023  3.021  0.000
    43C     0.05843  0.11896   1.049  2.893  0.000
    44N    -0.28356 -0.64083   1.431  3.852  0.000
    45C     0.22798  0.32803   0.985  2.787  0.000
    46N    -0.39889 -0.58595   1.555  3.844  0.000
    47C     0.07169  0.10124   1.013  2.915  0.000
    48H     0.02449  0.07727   0.976  0.000  0.000
    49H     0.02643  0.07857   0.974  0.000  0.000
    50H     0.02838  0.07979   0.972  0.000  0.000
    51H     0.02593  0.08365   0.974  0.000  0.000
    52H     0.02831  0.08392   0.972  0.000  0.000
    53H     0.23978  0.43728   0.760  0.000  0.000
    54H     0.00114  0.07628   0.999  0.000  0.000
    55H    -0.00307  0.06352   1.003  0.000  0.000
    56Fe   -0.01862  0.23715   0.163  0.955  6.901
    57Fe   -0.01027  0.24063   0.146  0.931  6.933
    58Fe   -0.01565  0.24842   0.143  0.944  6.929
    59Fe   -0.02210  0.24799   0.166  0.977  6.879
    60S     0.00671 -0.24381   1.863  4.148 -0.017
    61S    -0.09800 -0.32818   1.868  4.249 -0.019
    62S    -0.09146 -0.31435   1.868  4.242 -0.019
    63S     0.10077 -0.10253   1.865  4.037 -0.002
    64Ni   -0.12255  0.03884   0.580  0.647  8.896
    65C     0.61849  0.69419   0.967  2.414  0.000
    66O    -0.64116 -0.67930   1.747  4.895  0.000
    67O    -0.66190 -0.69949   1.748  4.914  0.000
    68H    -0.55621 -0.55507   1.556  0.000  0.000

Wiberg/Mayer (AO) data.
largest (>0.10) Wiberg bond orders for each atom

 ---------------------------------------------------------------------------
     #   Z sym  total        # sym  WBO       # sym  WBO       # sym  WBO
 ---------------------------------------------------------------------------
     1   6 C    3.993 --     2 C    1.019     4 H    0.983     6 H    0.983
                             5 H    0.976
     2   6 C    3.983 --     1 C    1.019     8 H    0.985     7 H    0.980
                             3 S    0.960
     3  16 S    2.241 --     2 C    0.960    57 Fe   0.862
     4   1 H    1.007 --     1 C    0.983
     5   1 H    1.027 --     1 C    0.976
     6   1 H    1.013 --     1 C    0.983
     7   1 H    1.023 --     2 C    0.980
     8   1 H    1.022 --     2 C    0.985
     9   6 C    3.992 --    10 C    1.020    13 H    0.988    14 H    0.988
                            12 H    0.985
    10   6 C    3.990 --     9 C    1.020    15 H    0.986    16 H    0.984
                            11 S    0.969
    11  16 S    2.115 --    10 C    0.969    56 Fe   0.777
    12   1 H    1.006 --     9 C    0.985
    13   1 H    1.021 --     9 C    0.988
    14   1 H    1.023 --     9 C    0.988
    15   1 H    1.019 --    10 C    0.986
    16   1 H    1.016 --    10 C    0.984
    17   6 C    3.992 --    18 C    1.018    21 H    0.988    20 H    0.985
                            22 H    0.976
    18   6 C    3.988 --    17 C    1.018    24 H    0.985    23 H    0.984
                            19 S    0.965
    19  16 S    2.198 --    18 C    0.965    58 Fe   0.850    64 Ni   0.114
    20   1 H    1.007 --    17 C    0.985
    21   1 H    1.015 --    17 C    0.988
    22   1 H    1.021 --    17 C    0.976
    23   1 H    1.023 --    18 C    0.984
    24   1 H    1.016 --    18 C    0.985
    25   6 C    3.988 --    26 C    1.018    28 H    0.988    29 H    0.985
                            30 H    0.969
    26   6 C    3.989 --    25 C    1.018    32 H    0.984    31 H    0.983
                            27 S    0.975
    27  16 S    2.064 --    26 C    0.975    59 Fe   0.796
    28   1 H    1.020 --    25 C    0.988
    29   1 H    1.008 --    25 C    0.985
    30   1 H    1.042 --    25 C    0.969
    31   1 H    1.015 --    26 C    0.983
    32   1 H    1.023 --    26 C    0.984
    33   6 C    3.994 --    34 C    1.019    37 H    0.988    36 H    0.988
                            38 H    0.985
    34   6 C    3.987 --    33 C    1.019    40 H    0.985    35 S    0.973
                            39 H    0.967
    35  16 S    2.043 --    34 C    0.973    64 Ni   0.857
    36   1 H    1.021 --    33 C    0.988
    37   1 H    1.024 --    33 C    0.988
    38   1 H    1.009 --    33 C    0.985
    39   1 H    1.051 --    34 C    0.967
    40   1 H    1.023 --    34 C    0.985
    41   6 C    3.997 --    42 C    1.000    48 H    0.989    50 H    0.988
                            49 H    0.985
    42   6 C    3.998 --    43 C    1.015    41 C    1.000    51 H    0.977
                            52 H    0.977
    43   6 C    3.916 --    47 C    1.571    44 N    1.150    42 C    1.015
                            45 C    0.108
    44   7 N    3.455 --    45 C    1.215    43 C    1.150    53 H    0.910
    45   6 C    3.920 --    46 N    1.559    44 N    1.215    54 H    0.954
                            43 C    0.108
    46   7 N    3.002 --    45 C    1.559    47 C    1.270
    47   6 C    3.965 --    43 C    1.571    46 N    1.270    55 H    0.975
    48   1 H    1.007 --    41 C    0.989
    49   1 H    1.012 --    41 C    0.985
    50   1 H    1.005 --    41 C    0.988
    51   1 H    1.006 --    42 C    0.977
    52   1 H    1.008 --    42 C    0.977
    53   1 H    0.946 --    44 N    0.910
    54   1 H    1.068 --    45 C    0.954
    55   1 H    1.041 --    47 C    0.975
    56  26 Fe   5.481 --    62 S    0.805    61 S    0.799    11 S    0.777
                            58 Fe   0.747    59 Fe   0.715    57 Fe   0.630
                            63 S    0.543    64 Ni   0.165
    57  26 Fe   5.220 --    62 S    0.907     3 S    0.862    59 Fe   0.719
                            60 S    0.678    56 Fe   0.630    58 Fe   0.386
Note: The following floating-point exceptions are signalling: IEEE_UNDERFLOW_FLAG IEEE_DENORMAL
normal termination of xtb
                            64 Ni   0.337    63 S    0.323
    58  26 Fe   5.337 --    61 S    0.885    19 S    0.850    56 Fe   0.747
                            60 S    0.636    59 Fe   0.626    63 S    0.518
                            57 Fe   0.386    64 Ni   0.374
    59  26 Fe   5.653 --    61 S    0.832    62 S    0.800    27 S    0.796
                            57 Fe   0.719    56 Fe   0.715    60 S    0.666
                            58 Fe   0.626    64 Ni   0.231
    60  16 S    2.775 --    57 Fe   0.678    59 Fe   0.666    58 Fe   0.636
                            64 Ni   0.608
    61  16 S    2.681 --    58 Fe   0.885    59 Fe   0.832    56 Fe   0.799
    62  16 S    2.689 --    57 Fe   0.907    56 Fe   0.805    59 Fe   0.800
    63  16 S    2.809 --    65 C    0.689    56 Fe   0.543    64 Ni   0.527
                            58 Fe   0.518    57 Fe   0.323
    64  28 Ni   3.417 --    35 S    0.857    60 S    0.608    63 S    0.527
                            58 Fe   0.374    57 Fe   0.337    59 Fe   0.231
                            56 Fe   0.165    19 S    0.114
    65   6 C    3.873 --    66 O    1.549    67 O    1.537    63 S    0.689
    66   8 O    1.865 --    65 C    1.549    67 O    0.179
    67   8 O    1.835 --    65 C    1.537    66 O    0.179
    68   1 H    0.005
 ---------------------------------------------------------------------------

Topologies differ in total number of bonds
Writing topology from bond orders to xtbtopo.mol

 dipole moment from electron density (au)
     X       Y       Z   
-302.0800 -71.4133-266.2835  total (Debye): 1039.506


           -------------------------------------------------
          | TOTAL ENERGY             -118.546901929137 Eh   |
          | GRADIENT NORM               0.071238847470 Eh/α |
          | HOMO-LUMO GAP               0.182422327903 eV   |
           -------------------------------------------------

------------------------------------------------------------------------
 * finished run on 2026/09/13 at 13:39:28.458     
------------------------------------------------------------------------
 total:
 * wall-time:     0 d,  0 h,  0 min,  5.868 sec
 *  cpu-time:     0 d,  0 h,  0 min,  6.888 sec
 * ratio c/w:     1.174 speedup
 SCF:
 * wall-time:     0 d,  0 h,  0 min,  5.820 sec
 *  cpu-time:     0 d,  0 h,  0 min,  6.585 sec
 * ratio c/w:     1.131 speedup

