      -----------------------------------------------------------      
     |                   =====================                   |     
     |                           x T B                           |     
     |                   =====================                   |     
     |                         S. Grimme                         |     
     |          Mulliken Center for Theoretical Chemistry        |     
     |                    University of Bonn                     |     
      -----------------------------------------------------------      

   * xtb version 6.6.1 (unknown) compiled by 'builduser@buildhost' on 2023-08-07

   xtb is free software: you can redistribute it and/or modify it under
   the terms of the GNU Lesser General Public License as published by
   the Free Software Foundation, either version 3 of the License, or
   (at your option) any later version.
   
   xtb is distributed in the hope that it will be useful,
   but WITHOUT ANY WARRANTY; without even the implied warranty of
   MERCHANTABILITY or FITNESS FOR A PARTICULAR PURPOSE.  See the
   GNU Lesser General Public License for more details.
   
   Cite this work as:
   * C. Bannwarth, E. Caldeweyher, S. Ehlert, A. Hansen, P. Pracht,
     J. Seibert, S. Spicher, S. Grimme, WIREs Comput. Mol. Sci., 2020, 11,
     e01493. DOI: 10.1002/wcms.1493
   
   for GFN2-xTB:
   * C. Bannwarth, S. Ehlert and S. Grimme., J. Chem. Theory Comput., 2019,
     15, 1652-1671. DOI: 10.1021/acs.jctc.8b01176
   for GFN1-xTB:
   * S. Grimme, C. Bannwarth, P. Shushkov, J. Chem. Theory Comput., 2017,
     13, 1989-2009. DOI: 10.1021/acs.jctc.7b00118
   for GFN0-xTB:
   * P. Pracht, E. Caldeweyher, S. Ehlert, S. Grimme, ChemRxiv, 2019, preprint.
     DOI: 10.26434/chemrxiv.8326202.v1
   for GFN-FF:
   * S. Spicher and S. Grimme, Angew. Chem. Int. Ed., 2020, 59, 15665-15673.
     DOI: 10.1002/anie.202004239
   
   for ALPB and GBSA implicit solvation:
   * S. Ehlert, M. Stahn, S. Spicher, S. Grimme, J. Chem. Theory Comput.,
     2021, 17, 4250-4261. DOI: 10.1021/acs.jctc.1c00471
   
   for DFT-D4:
   * E. Caldeweyher, C. Bannwarth and S. Grimme, J. Chem. Phys., 2017,
     147, 034112. DOI: 10.1063/1.4993215
   * E. Caldeweyher, S. Ehlert, A. Hansen, H. Neugebauer, S. Spicher,
     C. Bannwarth and S. Grimme, J. Chem. Phys., 2019, 150, 154122.
     DOI: 10.1063/1.5090222
   * E. Caldeweyher, J.-M. Mewes, S. Ehlert and S. Grimme, Phys. Chem. Chem. Phys.
     2020, 22, 8499-8512. DOI: 10.1039/D0CP00502A
   
   for sTDA-xTB:
   * S. Grimme and C. Bannwarth, J. Chem. Phys., 2016, 145, 054103.
     DOI: 10.1063/1.4959605
   
   in the mass-spec context:
   * V. Asgeirsson, C. Bauer and S. Grimme, Chem. Sci., 2017, 8, 4879.
     DOI: 10.1039/c7sc00601b
   * J. Koopman and S. Grimme, ACS Omega 2019, 4, 12, 15120-15133.
     DOI: 10.1021/acsomega.9b02011
   
   for metadynamics refer to:
   * S. Grimme, J. Chem. Theory Comput., 2019, 155, 2847-2862
     DOI: 10.1021/acs.jctc.9b00143
   
   for SPH calculations refer to:
   * S. Spicher and S. Grimme, J. Chem. Theory Comput., 2021, 17, 1701-1714
     DOI: 10.1021/acs.jctc.0c01306
   
   with help from (in alphabetical order)
   P. Atkinson, C. Bannwarth, F. Bohle, G. Brandenburg, E. Caldeweyher
   M. Checinski, S. Dohm, S. Ehlert, S. Ehrlich, I. Gerasimov, C. Hölzer
   A. Katbashev, J. Koopman, C. Lavigne, S. Lehtola, F. März, M. Müller,
   F. Musil, H. Neugebauer, J. Pisarek, C. Plett, P. Pracht, F. Pultar,
   J. Seibert, P. Shushkov, S. Spicher, M. Stahn, M. Steiner, T. Strunk,
   J. Stückrath, T. Rose, and J. Unsleber
   
 * started run on 2026/09/12 at 19:32:12.295     

           -------------------------------------------------
          |                Calculation Setup                |
           -------------------------------------------------

          program call               : xtb start.xyz --gfn 1 --chrg -3 --uhf 0 --alpb water --opt loose
          coordinate file            : start.xyz
          omp threads                :                     8

   ID    Z sym.   atoms
    1    6 C      1, 2, 9, 10, 17, 18, 25, 26, 33, 34, 41-43, 45, 47, 65
    2   16 S      3, 11, 19, 27, 35, 60-63
    3    1 H      4-8, 12-16, 20-24, 28-32, 36-40, 48-55
    4    7 N      44, 46
    5   26 Fe     56-59, 64
    6    8 O      66, 67

           -------------------------------------------------
          |                 G F N 1 - x T B                 |
           -------------------------------------------------

        Reference                      10.1021/acs.jctc.7b00118
      * Hamiltonian:
        H0-scaling (s, p, d)           1.850000    2.250000    2.000000
        zeta-weighting                 0.000000
      * Dispersion:
        s8                             2.400000
        a1                             0.630000
        a2                             5.000000
        s9                             0.000000
      * Repulsion:
        kExp                           1.500000
        rExp                           1.000000
      * Coulomb:
        alpha                          2.000000
        third order                    atomic
        anisotropic                    false
      * Halogen bond correction:
        rad-scale                      1.300000
        damping                        0.440000

      * Solvation model:               ALPB
        Solvent                        water
        Parameter file                 internal GFN1-xTB/ALPB
        Dielectric constant                8.0200E+01
        Reference state                gsolv [1 M gas/solution]
        Free energy shift                  4.2456E-03 Eh       2.6642E+00 kcal/mol
        Temperature                        2.9815E+02 K
        Density                            1.0000E+00 kg/L
        Solvent mass                       1.8000E+01 g/mol
        Interaction kernel             P16
        Born radius scaling (c1)           1.9452E+00
        Born radii integrator          GBOBC
        Born offset                        0.0000E+00 a0       0.0000E+00 AA
        H-bond correction              true
        Ion screening                  false
        Surface tension                    1.0000E-05 Eh       1.5569E+01 dyn/cm
        Grid points                               230 per atom

          ...................................................
          :                      SETUP                      :
          :.................................................:
          :  # basis functions                 286          :
          :  # atomic orbitals                 272          :
          :  # shells                          148          :
          :  # electrons                       216          :
          :  # halogen bonds                     0          :
          :  max. iterations                   250          :
          :  Hamiltonian                  GFN1-xTB          :
          :  restarted?                      false          :
          :  GBSA solvation                   true          :
          :  PC potential                    false          :
          :  electronic temp.          300.0000000     K    :
          :  accuracy                    1.0000000          :
          :  -> integral cutoff          0.2500000E+02      :
          :  -> integral neglect         0.1000000E-07      :
          :  -> SCF convergence          0.1000000E-05 Eh   :
          :  -> wf. convergence          0.2000000E-04 e    :
          :  Broyden damping             0.4000000          :
          ...................................................

 iter      E             dE          RMSdq      gap      omega  full diag
   1    -86.1523761 -0.861524E+02  0.154E+01    0.07       0.0  T
   2     95.5377341  0.181690E+03  0.264E+01    0.01       1.0  T
   3   -110.5437417 -0.206081E+03  0.184E+01    0.11       1.0  T
   4    -51.4352281  0.591085E+02  0.144E+01    0.40       1.0  T
   5    -49.3919855  0.204324E+01  0.138E+01    0.02       1.0  T
   6    -46.3949975  0.299699E+01  0.137E+01    0.08       1.0  T
   7    -70.7797084 -0.243847E+02  0.117E+01    0.14       1.0  T
   8    -69.2350548  0.154465E+01  0.122E+01    0.06       1.0  T
   9   -100.9192659 -0.316842E+02  0.830E+00    0.16       1.0  T
  10    -84.7605416  0.161587E+02  0.100E+01    0.12       1.0  T
  11   -100.8161317 -0.160556E+02  0.805E+00    0.10       1.0  T
  12   -103.4340249 -0.261789E+01  0.717E+00    0.03       1.0  T
  13   -106.0283465 -0.259432E+01  0.653E+00    0.09       1.0  T
  14   -105.0936085  0.934738E+00  0.660E+00    0.21       1.0  T
  15   -106.7817426 -0.168813E+01  0.620E+00    0.17       1.0  T
  16   -116.0990587 -0.931732E+01  0.269E+00    0.09       1.0  T
  17   -115.9988552  0.100204E+00  0.259E+00    0.05       1.0  T
  18    -96.5627013  0.194362E+02  0.864E+00    0.08       1.0  T
  19   -101.3687588 -0.480606E+01  0.767E+00    0.02       1.0  T
  20   -112.3307364 -0.109620E+02  0.442E+00    0.08       1.0  T
  21   -115.6047937 -0.327406E+01  0.265E+00    0.16       1.0  T
  22   -112.7156301  0.288916E+01  0.416E+00    0.12       1.0  T
  23   -111.9145114  0.801119E+00  0.436E+00    0.14       1.0  T
  24   -114.5372456 -0.262273E+01  0.321E+00    0.09       1.0  T
  25   -115.1196567 -0.582411E+00  0.283E+00    0.17       1.0  T
  26   -116.8055403 -0.168588E+01  0.146E+00    0.17       1.0  T
  27   -114.0416971  0.276384E+01  0.337E+00    0.04       1.0  T
  28   -115.5774569 -0.153576E+01  0.249E+00    0.06       1.0  T
  29   -116.5453780 -0.967921E+00  0.170E+00    0.08       1.0  T
  30   -117.1398291 -0.594451E+00  0.828E-01    0.16       1.0  T
  31   -117.2779712 -0.138142E+00  0.433E-01    0.13       1.0  T
  32   -117.3093883 -0.314171E-01  0.237E-01    0.13       1.0  T
  33   -117.3190949 -0.970665E-02  0.147E-01    0.13       1.0  T
  34   -117.3193527 -0.257709E-03  0.139E-01    0.13       1.0  T
  35   -117.3224578 -0.310512E-02  0.888E-02    0.14       1.0  T
  36   -117.3240432 -0.158545E-02  0.440E-02    0.13       1.0  T
  37   -117.3241821 -0.138903E-03  0.373E-02    0.13       1.0  T
  38   -117.3242258 -0.436267E-04  0.346E-02    0.13       1.0  T
  39   -117.3243646 -0.138798E-03  0.257E-02    0.13       1.0  T
  40   -117.3244541 -0.895118E-04  0.176E-02    0.13       1.0  T
  41   -117.3245189 -0.648060E-04  0.834E-03    0.13       1.5  T
  42   -117.3245305 -0.116279E-04  0.491E-03    0.13       2.5  T
  43   -117.3245366 -0.609810E-05  0.132E-03    0.13       9.3  T
  44   -117.3245371 -0.461230E-06  0.221E-04    0.13      55.3  T
  45   -117.3245371 -0.607298E-08  0.151E-04    0.13      80.8  T
  46   -117.3245371  0.277178E-08  0.177E-04    0.13      69.2  T

   *** convergence criteria satisfied after 46 iterations ***

         #    Occupation            Energy/Eh            Energy/eV
      -------------------------------------------------------------
         1        2.0000           -0.7874270             -21.4270
       ...           ...                  ...                  ...
       102        2.0000           -0.2255338              -6.1371
       103        2.0000           -0.2244305              -6.1071
       104        2.0000           -0.2231450              -6.0721
       105        1.9997           -0.2196862              -5.9780
       106        1.9990           -0.2186230              -5.9490
       107        1.9939           -0.2169311              -5.9030
       108        1.8433           -0.2137759              -5.8171 (HOMO)
       109        0.1239           -0.2088525              -5.6832 (LUMO)
       110        0.0403           -0.2077429              -5.6530
       111        0.0000           -0.1994827              -5.4282
       112        0.0000           -0.1979538              -5.3866
       113        0.0000           -0.1969644              -5.3597
       ...           ...                  ...                  ...
       272                         15.6330071             425.3958
      -------------------------------------------------------------
                  HL-Gap            0.0049234 Eh            0.1340 eV
             Fermi-level           -0.2114340 Eh           -5.7534 eV

 SCC (total)                   0 d,  0 h,  0 min,  6.241 sec
 SCC setup                      ...        0 min,  0.004 sec (  0.069%)
 Dispersion                     ...        0 min,  0.001 sec (  0.020%)
 classical contributions        ...        0 min,  0.000 sec (  0.006%)
 integral evaluation            ...        0 min,  0.035 sec (  0.559%)
 iterations                     ...        0 min,  6.059 sec ( 97.077%)
 molecular gradient             ...        0 min,  0.102 sec (  1.637%)
 printout                       ...        0 min,  0.039 sec (  0.629%)

         :::::::::::::::::::::::::::::::::::::::::::::::::::::
         ::                     SUMMARY                     ::
         :::::::::::::::::::::::::::::::::::::::::::::::::::::
         :: total energy            -116.420090948498 Eh    ::
         :: total w/o Gsasa/hb      -116.415923026666 Eh    ::
         :: gradient norm              0.549781079982 Eh/a0 ::
         :: HOMO-LUMO gap              0.133972880369 eV    ::
         ::.................................................::
         :: SCC energy              -117.324537059980 Eh    ::
         :: -> electrostatic           0.706951474942 Eh    ::
         :: -> Gsolv                  -0.350733190456 Eh    ::
         ::    -> Gelec               -0.346565268624 Eh    ::
         ::    -> Gsasa               -0.006122948101 Eh    ::
         ::    -> Ghb                 -0.002290580402 Eh    ::
         ::    -> Gshift               0.004245606671 Eh    ::
         :: repulsion energy           0.970663944421 Eh    ::
         :: dispersion energy         -0.066217832940 Eh    ::
         :: halogen bond corr.         0.000000000000 Eh    ::
         :: add. restraining           0.000000000000 Eh    ::
         :: total charge              -2.999999999999 e     ::
         :::::::::::::::::::::::::::::::::::::::::::::::::::::

      ----------------------------------------------------------- 
     |                   =====================                   |
     |                        A N C O P T                        |
     |                   =====================                   |
     |               Approximate Normal Coordinate               |
     |                Rational Function Optimizer                |
      ----------------------------------------------------------- 

          ...................................................
          :                      SETUP                      :
          :.................................................:
          :   optimization level             loose          :
          :   max. optcycles                   200          :
          :   ANC micro-cycles                  20          :
          :   degrees of freedom               195          :
          :.................................................:
          :   RF solver                   davidson          :
          :   write xtbopt.log                true          :
          :   linear?                        false          :
          :   energy convergence         0.5000000E-04 Eh   :
          :   grad. convergence          0.4000000E-02 Eh/α :
          :   maxmium RF displ.          1.0000000          :
          :   Hlow (freq-cutoff)         0.1000000E-01      :
          :   Hmax (freq-cutoff)         5.0000000          :
          :   S6 in model hess.         20.0000000          :
          ...................................................

generating ANC from model Hessian ...
Using Lindh-Hessian (1995)
 Shifting diagonal of input Hessian by    1.0730100052946915E-002
 Lowest  eigenvalues of input Hessian
    0.010000    0.010507    0.010704    0.010726    0.000000    0.000000
    0.000000    0.000000    0.000000    0.000000    0.010749    0.010765
    0.010837    0.010884    0.010944    0.011019    0.011130    0.011346
 Highest eigenvalues
    1.852598    1.933123    2.031542    2.085531    2.136337    2.543312


........................................................................
.............................. CYCLE    1 ..............................
........................................................................

 iter      E             dE          RMSdq      gap      omega  full diag
   1   -117.3245371 -0.117325E+03  0.328E-05    0.13       0.0  T
   2   -117.3245367  0.328425E-06  0.109E-03    0.13      11.2  T
   3   -117.3245371 -0.321997E-06  0.149E-04    0.13      81.7  T
   4   -117.3245371 -0.594980E-08  0.526E-05    0.13     232.3  T
     SCC iter.                  ...        0 min,  0.532 sec
     gradient                   ...        0 min,  0.094 sec
 * total energy  :  -116.4200910 Eh     change       -0.7684534E-08 Eh
   gradient norm :     0.5497794 Eh/α   predicted     0.0000000E+00 (-100.00%)
   displ. norm   :     0.5350401 α      lambda       -0.2382244E+00
   maximum displ.:     0.2249365 α      in ANC's #138, #145, #147, ...

........................................................................
.............................. CYCLE    2 ..............................
........................................................................

 iter      E             dE          RMSdq      gap      omega  full diag
   1   -117.1522782 -0.117152E+03  0.102E+00    0.17       0.0  T
   2    -68.2062886  0.489460E+02  0.113E+01    0.15       1.0  T
   3   -113.5985691 -0.453923E+02  0.385E+00    0.17       1.0  T
   4   -114.6993992 -0.110083E+01  0.308E+00    0.27       1.0  T
   5   -115.5731757 -0.873776E+00  0.261E+00    0.15       1.0  T
   6   -111.9088742  0.366430E+01  0.432E+00    0.14       1.0  T
   7   -117.1618652 -0.525299E+01  0.105E+00    0.10       1.0  T
   8   -116.5124138  0.649451E+00  0.177E+00    0.08       1.0  T
   9   -116.6057504 -0.933366E-01  0.168E+00    0.08       1.0  T
  10   -116.6796295 -0.738791E-01  0.161E+00    0.09       1.0  T
  11   -117.3841982 -0.704569E+00  0.581E-01    0.27       1.0  T
  12   -117.4319675 -0.477693E-01  0.405E-01    0.25       1.0  T
  13   -117.4254263  0.654121E-02  0.419E-01    0.25       1.0  T
  14   -117.4612627 -0.358364E-01  0.227E-01    0.23       1.0  T
  15   -117.4753917 -0.141290E-01  0.823E-02    0.21       1.0  T
  16   -117.4764759 -0.108423E-02  0.381E-02    0.22       1.0  T
  17   -117.4766494 -0.173414E-03  0.266E-02    0.22       1.0  T
  18   -117.4767454 -0.960477E-04  0.179E-02    0.22       1.0  T
  19   -117.4767443  0.108367E-05  0.174E-02    0.22       1.0  T
  20   -117.4767754 -0.310467E-04  0.134E-02    0.22       1.0  T
  21   -117.4768097 -0.343816E-04  0.682E-03    0.22       1.8  T
  22   -117.4768189 -0.919670E-05  0.313E-03    0.21       3.9  T
  23   -117.4768209 -0.191443E-05  0.165E-03    0.21       7.4  T
  24   -117.4768213 -0.436870E-06  0.103E-03    0.21      11.9  T
  25   -117.4768216 -0.283744E-06  0.268E-04    0.21      45.6  T
  26   -117.4768216 -0.151029E-07  0.116E-04    0.21     105.0  T
  27   -117.4768216 -0.172552E-08  0.838E-05    0.21     145.8  T
     SCC iter.                  ...        0 min,  3.461 sec
     gradient                   ...        0 min,  0.091 sec
 * total energy  :  -116.6124722 Eh     change       -0.1923812E+00 Eh
   gradient norm :     0.2932395 Eh/α   predicted    -0.1532704E+00 ( -20.33%)
   displ. norm   :     0.6340187 α      lambda       -0.1688253E+00
   maximum displ.:     0.3088405 α      in ANC's #145, #147, #138, ...

........................................................................
.............................. CYCLE    3 ..............................
........................................................................

 iter      E             dE          RMSdq      gap      omega  full diag
   1   -117.3478504 -0.117348E+03  0.859E-01    0.29       0.0  T
   2    -62.9015159  0.544463E+02  0.121E+01    0.30       1.0  T
   3    -92.0292647 -0.291277E+02  0.875E+00    0.07       1.0  T
   4   -117.2636255 -0.252344E+02  0.111E+00    0.19       1.0  T
   5   -116.7142039  0.549422E+00  0.173E+00    0.26       1.0  T
   6   -117.0310403 -0.316836E+00  0.142E+00    0.20       1.0  T
   7   -116.2403855  0.790655E+00  0.216E+00    0.24       1.0  T
   8   -117.5165037 -0.127612E+01  0.469E-01    0.20       1.0  T
   9   -117.5189545 -0.245077E-02  0.450E-01    0.19       1.0  T
  10   -117.5045199  0.144345E-01  0.492E-01    0.19       1.0  T
  11   -117.4999273  0.459260E-02  0.500E-01    0.19       1.0  T
  12   -117.5268293 -0.269020E-01  0.397E-01    0.21       1.0  T
  13   -117.5634149 -0.365855E-01  0.206E-01    0.25       1.0  T
  14   -117.5680695 -0.465461E-02  0.160E-01    0.25       1.0  T
  15   -117.5740441 -0.597462E-02  0.622E-02    0.24       1.0  T
  16   -117.5744368 -0.392729E-03  0.481E-02    0.24       1.0  T
  17   -117.5745486 -0.111755E-03  0.423E-02    0.24       1.0  T
  18   -117.5750078 -0.459259E-03  0.147E-02    0.24       1.0  T
  19   -117.5750088 -0.941608E-06  0.143E-02    0.24       1.0  T
  20   -117.5750595 -0.507007E-04  0.524E-03    0.24       2.3  T
  21   -117.5750595 -0.353384E-07  0.507E-03    0.24       2.4  T
  22   -117.5750666 -0.707597E-05  0.904E-04    0.24      13.5  T
  23   -117.5750667 -0.148829E-06  0.439E-04    0.24      27.8  T
  24   -117.5750668 -0.508107E-07  0.824E-05    0.24     148.2  T
  25   -117.5750668 -0.135218E-08  0.370E-05    0.24     329.9  T
     SCC iter.                  ...        0 min,  3.134 sec
     gradient                   ...        0 min,  0.097 sec
 * total energy  :  -116.7226565 Eh     change       -0.1101843E+00 Eh
   gradient norm :     0.1538533 Eh/α   predicted    -0.1183450E+00 (   7.41%)
   displ. norm   :     0.5493005 α      lambda       -0.6053067E-01
   maximum displ.:     0.1757745 α      in ANC's #40, #145, #155, ...

........................................................................
.............................. CYCLE    4 ..............................
........................................................................

 iter      E             dE          RMSdq      gap      omega  full diag
   1   -117.5540139 -0.117554E+03  0.500E-01    0.30       0.0  T
   2    -83.4338308  0.341202E+02  0.954E+00    0.01       1.0  T
   3   -117.4369721 -0.340031E+02  0.819E-01    0.21       1.0  T
   4   -117.2272304  0.209742E+00  0.119E+00    0.24       1.0  T
   5   -117.3185304 -0.913000E-01  0.106E+00    0.27       1.0  T
   6   -117.4753363 -0.156806E+00  0.747E-01    0.21       1.0  T
   7   -117.6172156 -0.141879E+00  0.182E-01    0.25       1.0  T
   8   -117.4159400  0.201276E+00  0.860E-01    0.25       1.0  T
   9   -117.6209845 -0.205044E+00  0.133E-01    0.25       1.0  T
  10   -117.6251595 -0.417501E-02  0.531E-02    0.25       1.0  T
  11   -117.6255272 -0.367737E-03  0.393E-02    0.25       1.0  T
  12   -117.6255225  0.466932E-05  0.380E-02    0.25       1.0  T
  13   -117.6258412 -0.318631E-03  0.185E-02    0.25       1.0  T
  14   -117.6259180 -0.768379E-04  0.788E-03    0.25       1.5  T
  15   -117.6259307 -0.127027E-04  0.445E-03    0.25       2.7  T
  16   -117.6259358 -0.505691E-05  0.174E-03    0.25       7.0  T
  17   -117.6259365 -0.699616E-06  0.761E-04    0.25      16.0  T
  18   -117.6259366 -0.928238E-07  0.481E-04    0.25      25.4  T
  19   -117.6259366 -0.484776E-07  0.240E-04    0.25      50.9  T
  20   -117.6259366 -0.153220E-07  0.465E-05    0.25     262.6  T
  21   -117.6259366 -0.505736E-09  0.182E-05    0.25     670.5  T
     SCC iter.                  ...        0 min,  2.581 sec
     gradient                   ...        0 min,  0.097 sec
 * total energy  :  -116.7754346 Eh     change       -0.5277815E-01 Eh
   gradient norm :     0.1600096 Eh/α   predicted    -0.3939734E-01 ( -25.35%)
   displ. norm   :     0.7237516 α      lambda       -0.8318320E-01
   maximum displ.:     0.2859763 α      in ANC's #155, #165, #145, ...

........................................................................
.............................. CYCLE    5 ..............................
........................................................................

 iter      E             dE          RMSdq      gap      omega  full diag
   1   -117.6507837 -0.117651E+03  0.523E-01    0.31       0.0  T
   2    -80.9143711  0.367364E+02  0.103E+01    0.09       1.0  T
   3   -115.1496492 -0.342353E+02  0.304E+00    0.13       1.0  T
   4   -116.7358275 -0.158618E+01  0.185E+00    0.31       1.0  T
   5   -115.6916339  0.104419E+01  0.259E+00    0.11       1.0  T
   6   -115.4142932  0.277341E+00  0.282E+00    0.19       1.0  T
   7   -117.6627702 -0.224848E+01  0.410E-01    0.26       1.0  T
   8   -116.4065818  0.125619E+01  0.212E+00    0.24       1.0  T
   9   -117.7044990 -0.129792E+01  0.174E-01    0.27       1.0  T
  10   -117.7103001 -0.580111E-02  0.988E-02    0.27       1.0  T
  11   -117.7123049 -0.200479E-02  0.495E-02    0.27       1.0  T
  12   -117.7128127 -0.507729E-03  0.196E-02    0.27       1.0  T
  13   -117.7127895  0.232099E-04  0.219E-02    0.26       1.0  T
  14   -117.7127965 -0.702986E-05  0.211E-02    0.26       1.0  T
  15   -117.7128736 -0.771037E-04  0.128E-02    0.26       1.0  T
  16   -117.7129039 -0.302815E-04  0.723E-03    0.26       1.7  T
  17   -117.7129120 -0.814530E-05  0.487E-03    0.26       2.5  T
  18   -117.7129159 -0.390698E-05  0.313E-03    0.26       3.9  T
  19   -117.7129177 -0.181378E-05  0.182E-03    0.26       6.7  T
  20   -117.7129185 -0.741982E-06  0.760E-04    0.26      16.1  T
  21   -117.7129186 -0.130428E-06  0.303E-04    0.26      40.3  T
  22   -117.7129186 -0.234053E-07  0.726E-05    0.26     168.3  T
  23   -117.7129186 -0.132790E-08  0.196E-05    0.26     621.9  T
     SCC iter.                  ...        0 min,  3.036 sec
     gradient                   ...        0 min,  0.111 sec
 * total energy  :  -116.8442279 Eh     change       -0.6879323E-01 Eh
   gradient norm :     0.1413150 Eh/α   predicted    -0.6337799E-01 (  -7.87%)
   displ. norm   :     0.6854854 α      lambda       -0.6043790E-01
   maximum displ.:     0.2635697 α      in ANC's #155, #165, #71, ...

........................................................................
.............................. CYCLE    6 ..............................
........................................................................

 iter      E             dE          RMSdq      gap      omega  full diag
   1   -117.7540678 -0.117754E+03  0.403E-01    0.31       0.0  T
   2   -102.3710591  0.153830E+02  0.711E+00    0.04       1.0  T
   3   -112.3665580 -0.999550E+01  0.427E+00    0.14       1.0  T
   4   -117.4626431 -0.509609E+01  0.107E+00    0.27       1.0  T
   5   -116.0906105  0.137203E+01  0.243E+00    0.17       1.0  T
   6   -113.4622014  0.262841E+01  0.383E+00    0.07       1.0  T
   7   -115.7311532 -0.226895E+01  0.262E+00    0.21       1.0  T
   8   -117.7452542 -0.201410E+01  0.396E-01    0.27       1.0  T
   9   -117.7793428 -0.340886E-01  0.207E-01    0.27       1.0  T
  10   -117.7899628 -0.106200E-01  0.628E-02    0.28       1.0  T
  11   -117.7887582  0.120463E-02  0.871E-02    0.28       1.0  T
  12   -117.7907284 -0.197027E-02  0.253E-02    0.28       1.0  T
  13   -117.7907237  0.471818E-05  0.242E-02    0.28       1.0  T
  14   -117.7907900 -0.662342E-04  0.190E-02    0.28       1.0  T
  15   -117.7908478 -0.578630E-04  0.124E-02    0.28       1.0  T
  16   -117.7908713 -0.234385E-04  0.826E-03    0.28       1.5  T
  17   -117.7908833 -0.119908E-04  0.487E-03    0.28       2.5  T
  18   -117.7908877 -0.445605E-05  0.276E-03    0.28       4.4  T
  19   -117.7908892 -0.146652E-05  0.144E-03    0.28       8.5  T
  20   -117.7908897 -0.481803E-06  0.510E-04    0.28      23.9  T
  21   -117.7908897 -0.502626E-07  0.273E-04    0.28      44.7  T
  22   -117.7908897 -0.142694E-07  0.152E-04    0.28      80.4  T
  23   -117.7908897 -0.430008E-08  0.883E-05    0.28     138.4  T
     SCC iter.                  ...        0 min,  2.906 sec
     gradient                   ...        0 min,  0.098 sec
 * total energy  :  -116.8872932 Eh     change       -0.4306538E-01 Eh
   gradient norm :     0.0816528 Eh/α   predicted    -0.4441854E-01 (   3.14%)
   displ. norm   :     0.5829987 α      lambda       -0.2398026E-01
   maximum displ.:     0.1860835 α      in ANC's #51, #40, #155, ...

........................................................................
.............................. CYCLE    7 ..............................
........................................................................

 iter      E             dE          RMSdq      gap      omega  full diag
   1   -117.8098443 -0.117810E+03  0.162E-01    0.29       0.0  T
   2   -114.7344493  0.307540E+01  0.320E+00    0.11       1.0  T
   3   -117.6326559 -0.289821E+01  0.813E-01    0.23       1.0  T
   4   -117.7171209 -0.844650E-01  0.593E-01    0.31       1.0  T
   5   -117.6777566  0.393643E-01  0.711E-01    0.24       1.0  T
   6   -117.5172570  0.160500E+00  0.100E+00    0.29       1.0  T
   7   -117.7976220 -0.280365E+00  0.240E-01    0.27       1.0  T
   8   -117.6502984  0.147324E+00  0.764E-01    0.28       1.0  T
   9   -117.8126521 -0.162354E+00  0.936E-02    0.27       1.0  T
  10   -117.8146671 -0.201504E-02  0.393E-02    0.28       1.0  T
  11   -117.8147991 -0.131995E-03  0.308E-02    0.28       1.0  T
  12   -117.8150567 -0.257570E-03  0.758E-03    0.28       1.6  T
  13   -117.8150685 -0.117971E-04  0.396E-03    0.28       3.1  T
  14   -117.8150699 -0.138369E-05  0.311E-03    0.28       3.9  T
  15   -117.8150722 -0.231307E-05  0.126E-03    0.28       9.7  T
  16   -117.8150725 -0.260942E-06  0.786E-04    0.28      15.5  T
  17   -117.8150726 -0.132087E-06  0.373E-04    0.28      32.7  T
  18   -117.8150726 -0.334466E-07  0.136E-04    0.28      89.9  T
  19   -117.8150726 -0.324786E-08  0.821E-05    0.28     148.8  T
     SCC iter.                  ...        0 min,  2.394 sec
     gradient                   ...        0 min,  0.110 sec
 * total energy  :  -116.9058518 Eh     change       -0.1855850E-01 Eh
   gradient norm :     0.0734799 Eh/α   predicted    -0.1606542E-01 ( -13.43%)
   displ. norm   :     0.6237735 α      lambda       -0.1786100E-01
   maximum displ.:     0.2406379 α      in ANC's #51, #30, #40, ...

........................................................................
.............................. CYCLE    8 ..............................
........................................................................

 iter      E             dE          RMSdq      gap      omega  full diag
   1   -117.8156389 -0.117816E+03  0.115E-01    0.29       0.0  T
   2   -112.9078556  0.490778E+01  0.401E+00    0.20       1.0  T
   3   -117.7580199 -0.485016E+01  0.471E-01    0.27       1.0  T
   4   -117.7277022  0.303178E-01  0.563E-01    0.32       1.0  T
   5   -117.8003610 -0.726588E-01  0.265E-01    0.28       1.0  T
   6   -117.7650076  0.353534E-01  0.439E-01    0.25       1.0  T
   7   -117.8136097 -0.486021E-01  0.134E-01    0.28       1.0  T
   8   -117.7323686  0.812410E-01  0.530E-01    0.26       1.0  T
   9   -117.8147610 -0.823924E-01  0.116E-01    0.28       1.0  T
  10   -117.8166743 -0.191331E-02  0.791E-02    0.28       1.0  T
  11   -117.8184084 -0.173413E-02  0.194E-02    0.29       1.0  T
  12   -117.8184517 -0.432623E-04  0.146E-02    0.29       1.0  T
  13   -117.8184949 -0.432106E-04  0.811E-03    0.29       1.5  T
  14   -117.8185027 -0.779648E-05  0.608E-03    0.29       2.0  T
  15   -117.8185099 -0.716621E-05  0.339E-03    0.29       3.6  T
  16   -117.8185115 -0.163077E-05  0.233E-03    0.29       5.2  T
  17   -117.8185126 -0.109217E-05  0.116E-03    0.29      10.5  T
  18   -117.8185129 -0.295575E-06  0.488E-04    0.29      25.1  T
  19   -117.8185130 -0.575201E-07  0.127E-04    0.29      96.5  T
  20   -117.8185130 -0.323290E-08  0.674E-05    0.29     181.2  T
     SCC iter.                  ...        0 min,  2.477 sec
     gradient                   ...        0 min,  0.107 sec
 * total energy  :  -116.9191359 Eh     change       -0.1328418E-01 Eh
   gradient norm :     0.0615517 Eh/α   predicted    -0.1240531E-01 (  -6.62%)
   displ. norm   :     0.6168153 α      lambda       -0.1252739E-01
   maximum displ.:     0.2169424 α      in ANC's #51, #53, #25, ...

........................................................................
.............................. CYCLE    9 ..............................
........................................................................

 iter      E             dE          RMSdq      gap      omega  full diag
   1   -117.8222879 -0.117822E+03  0.138E-01    0.28       0.0  T
   2   -114.6954706  0.312682E+01  0.330E+00    0.26       1.0  T
   3   -117.6988398 -0.300337E+01  0.673E-01    0.28       1.0  T
   4   -117.5564205  0.142419E+00  0.945E-01    0.23       1.0  T
   5   -117.7454831 -0.189063E+00  0.520E-01    0.25       1.0  T
   6   -117.7770181 -0.315349E-01  0.423E-01    0.25       1.0  T
   7   -117.7976113 -0.205932E-01  0.313E-01    0.27       1.0  T
   8   -117.7655125  0.320988E-01  0.461E-01    0.27       1.0  T
   9   -117.8186866 -0.531741E-01  0.164E-01    0.28       1.0  T
  10   -117.8258490 -0.716244E-02  0.493E-02    0.29       1.0  T
  11   -117.8250358  0.813235E-03  0.700E-02    0.30       1.0  T
  12   -117.8257597 -0.723884E-03  0.489E-02    0.30       1.0  T
  13   -117.8264132 -0.653526E-03  0.127E-02    0.29       1.0  T
  14   -117.8264561 -0.428688E-04  0.472E-03    0.29       2.6  T
  15   -117.8264580 -0.191114E-05  0.390E-03    0.29       3.1  T
  16   -117.8264603 -0.230415E-05  0.258E-03    0.29       4.7  T
  17   -117.8264619 -0.164513E-05  0.806E-04    0.29      15.1  T
  18   -117.8264621 -0.158663E-06  0.304E-04    0.29      40.2  T
  19   -117.8264621 -0.239715E-07  0.923E-05    0.29     132.4  T
  20   -117.8264621 -0.247738E-08  0.214E-05    0.29     570.2  T
     SCC iter.                  ...        0 min,  2.491 sec
     gradient                   ...        0 min,  0.106 sec
 * total energy  :  -116.9291149 Eh     change       -0.9978977E-02 Eh
   gradient norm :     0.0580565 Eh/α   predicted    -0.8646791E-02 ( -13.35%)
   displ. norm   :     0.6142276 α      lambda       -0.1112613E-01
   maximum displ.:     0.2092147 α      in ANC's #51, #30, #53, ...

........................................................................
.............................. CYCLE   10 ..............................
........................................................................

 iter      E             dE          RMSdq      gap      omega  full diag
   1   -117.8151534 -0.117815E+03  0.254E-01    0.26       0.0  T
   2   -102.1990324  0.156161E+02  0.698E+00    0.09       1.0  T
   3   -117.6900184 -0.154910E+02  0.711E-01    0.32       1.0  T
   4   -116.0234487  0.166657E+01  0.242E+00    0.15       1.0  T
   5   -117.6633942 -0.163995E+01  0.788E-01    0.28       1.0  T
   6   -117.4168685  0.246526E+00  0.121E+00    0.21       1.0  T
   7   -117.7935274 -0.376659E+00  0.372E-01    0.26       1.0  T
   8   -117.6429021  0.150625E+00  0.819E-01    0.27       1.0  T
   9   -117.8217139 -0.178812E+00  0.193E-01    0.28       1.0  T
  10   -117.8274343 -0.572043E-02  0.126E-01    0.29       1.0  T
  11   -117.8300428 -0.260849E-02  0.802E-02    0.29       1.0  T
  12   -117.8310955 -0.105266E-02  0.490E-02    0.30       1.0  T
  13   -117.8313774 -0.281956E-03  0.348E-02    0.30       1.0  T
  14   -117.8315457 -0.168332E-03  0.245E-02    0.30       1.0  T
  15   -117.8316407 -0.949769E-04  0.163E-02    0.30       1.0  T
  16   -117.8316883 -0.475708E-04  0.984E-03    0.30       1.2  T
  17   -117.8317071 -0.188091E-04  0.551E-03    0.30       2.2  T
  18   -117.8317142 -0.710848E-05  0.221E-03    0.30       5.5  T
  19   -117.8317155 -0.125015E-05  0.524E-04    0.30      23.3  T
  20   -117.8317155 -0.605637E-07  0.235E-04    0.30      52.1  T
  21   -117.8317155 -0.117100E-07  0.121E-04    0.30     101.2  T
  22   -117.8317155 -0.349927E-08  0.505E-05    0.30     241.9  T
     SCC iter.                  ...        0 min,  2.805 sec
     gradient                   ...        0 min,  0.100 sec
 * total energy  :  -116.9385167 Eh     change       -0.9401794E-02 Eh
   gradient norm :     0.0521749 Eh/α   predicted    -0.7661883E-02 ( -18.51%)
   displ. norm   :     0.6449288 α      lambda       -0.1167510E-01
   maximum displ.:     0.2408075 α      in ANC's #30, #51, #53, ...

........................................................................
.............................. CYCLE   11 ..............................
........................................................................

 iter      E             dE          RMSdq      gap      omega  full diag
   1   -117.7523043 -0.117752E+03  0.555E-01    0.22       0.0  T
   2    -86.4856093  0.312667E+02  0.941E+00    0.04       1.0  T
   3   -116.6804110 -0.301948E+02  0.198E+00    0.23       1.0  T
   4   -115.5862544  0.109416E+01  0.269E+00    0.13       1.0  T
   5   -117.6693598 -0.208311E+01  0.787E-01    0.24       1.0  T
   6   -116.8137213  0.855638E+00  0.190E+00    0.19       1.0  T
   7   -117.8115188 -0.997797E+00  0.304E-01    0.28       1.0  T
   8   -117.5331731  0.278346E+00  0.103E+00    0.26       1.0  T
   9   -117.8288422 -0.295669E+00  0.170E-01    0.32       1.0  T
  10   -117.8240800  0.476220E-02  0.214E-01    0.33       1.0  T
  11   -117.8222918  0.178815E-02  0.222E-01    0.33       1.0  T
  12   -117.8329668 -0.106749E-01  0.109E-01    0.31       1.0  T
  13   -117.8362308 -0.326397E-02  0.262E-02    0.30       1.0  T
  14   -117.8362680 -0.372025E-04  0.239E-02    0.30       1.0  T
  15   -117.8362070  0.609682E-04  0.274E-02    0.30       1.0  T
  16   -117.8363605 -0.153464E-03  0.144E-02    0.30       1.0  T
  17   -117.8364094 -0.489766E-04  0.606E-03    0.30       2.0  T
  18   -117.8364171 -0.764016E-05  0.332E-03    0.30       3.7  T
  19   -117.8364197 -0.267080E-05  0.120E-03    0.30      10.2  T
  20   -117.8364201 -0.323254E-06  0.526E-04    0.30      23.2  T
  21   -117.8364201 -0.709663E-07  0.128E-04    0.30      95.7  T
  22   -117.8364201 -0.405387E-08  0.414E-05    0.30     295.1  T
     SCC iter.                  ...        0 min,  2.661 sec
     gradient                   ...        0 min,  0.087 sec
 * total energy  :  -116.9472152 Eh     change       -0.8698461E-02 Eh
   gradient norm :     0.0399991 Eh/α   predicted    -0.8265585E-02 (  -4.98%)
   displ. norm   :     0.5166406 α      lambda       -0.5570665E-02
   maximum displ.:     0.1689906 α      in ANC's #30, #27, #51, ...

........................................................................
.............................. CYCLE   12 ..............................
........................................................................

 iter      E             dE          RMSdq      gap      omega  full diag
   1   -117.8090121 -0.117809E+03  0.300E-01    0.26       0.0  T
   2    -96.6294083  0.211796E+02  0.794E+00    0.05       1.0  T
   3   -117.5933756 -0.209640E+02  0.929E-01    0.36       1.0  T
   4   -117.2808351  0.312541E+00  0.139E+00    0.24       1.0  T
   5   -117.7639109 -0.483076E+00  0.524E-01    0.31       1.0  T
   6   -116.1754295  0.158848E+01  0.235E+00    0.13       1.0  T
   7   -117.8262691 -0.165084E+01  0.170E-01    0.30       1.0  T
   8   -117.6260349  0.200234E+00  0.856E-01    0.27       1.0  T
   9   -117.8317018 -0.205667E+00  0.941E-02    0.30       1.0  T
  10   -117.8334954 -0.179361E-02  0.501E-02    0.30       1.0  T
  11   -117.8339230 -0.427642E-03  0.316E-02    0.30       1.0  T
  12   -117.8340541 -0.131075E-03  0.223E-02    0.30       1.0  T
  13   -117.8341494 -0.952499E-04  0.126E-02    0.30       1.0  T
  14   -117.8341708 -0.214565E-04  0.894E-03    0.30       1.4  T
  15   -117.8341844 -0.135434E-04  0.541E-03    0.30       2.3  T
  16   -117.8341905 -0.615125E-05  0.268E-03    0.30       4.6  T
  17   -117.8341913 -0.826716E-06  0.202E-03    0.30       6.0  T
  18   -117.8341923 -0.937283E-06  0.831E-04    0.30      14.7  T
  19   -117.8341924 -0.159391E-06  0.334E-04    0.30      36.5  T
  20   -117.8341925 -0.241322E-07  0.151E-04    0.30      80.8  T
  21   -117.8341925 -0.439390E-08  0.775E-05    0.30     157.6  T
     SCC iter.                  ...        0 min,  2.646 sec
     gradient                   ...        0 min,  0.086 sec
 * total energy  :  -116.9506693 Eh     change       -0.3454173E-02 Eh
   gradient norm :     0.0297275 Eh/α   predicted    -0.3528803E-02 (   2.16%)
   displ. norm   :     0.3542196 α      lambda       -0.3308445E-02
   maximum displ.:     0.1014034 α      in ANC's #27, #3, #2, ...

........................................................................
.............................. CYCLE   13 ..............................
........................................................................

 iter      E             dE          RMSdq      gap      omega  full diag
   1   -117.8368197 -0.117837E+03  0.153E-01    0.31       0.0  T
   2   -112.7662037  0.507062E+01  0.428E+00    0.13       1.0  T
   3   -117.7428262 -0.497662E+01  0.596E-01    0.33       1.0  T
   4   -117.7707958 -0.279696E-01  0.501E-01    0.29       1.0  T
   5   -117.8291975 -0.584017E-01  0.227E-01    0.30       1.0  T
   6   -117.7541371  0.750604E-01  0.534E-01    0.34       1.0  T
   7   -117.8393147 -0.851776E-01  0.108E-01    0.30       1.0  T
   8   -117.8301978  0.911694E-02  0.209E-01    0.29       1.0  T
   9   -117.8410360 -0.108382E-01  0.706E-02    0.31       1.0  T
  10   -117.8420914 -0.105539E-02  0.356E-02    0.30       1.0  T
  11   -117.8422446 -0.153176E-03  0.260E-02    0.30       1.0  T
  12   -117.8424166 -0.172057E-03  0.868E-03    0.30       1.4  T
  13   -117.8424353 -0.186664E-04  0.246E-03    0.30       5.0  T
  14   -117.8424366 -0.124352E-05  0.130E-03    0.30       9.4  T
  15   -117.8424368 -0.211738E-06  0.967E-04    0.30      12.6  T
  16   -117.8424370 -0.214085E-06  0.458E-04    0.30      26.7  T
  17   -117.8424370 -0.572183E-07  0.112E-04    0.30     109.0  T
  18   -117.8424370 -0.332243E-08  0.389E-05    0.30     314.2  T
     SCC iter.                  ...        0 min,  2.300 sec
     gradient                   ...        0 min,  0.147 sec
 * total energy  :  -116.9527029 Eh     change       -0.2033592E-02 Eh
   gradient norm :     0.0205395 Eh/α   predicted    -0.1861785E-02 (  -8.45%)
   displ. norm   :     0.4529575 α      lambda       -0.2678686E-02
   maximum displ.:     0.1762440 α      in ANC's #25, #3, #24, ...

........................................................................
.............................. CYCLE   14 ..............................
........................................................................

 iter      E             dE          RMSdq      gap      omega  full diag
   1   -117.8171141 -0.117817E+03  0.262E-01    0.30       0.0  T
   2   -104.5345789  0.132825E+02  0.668E+00    0.03       1.0  T
   3   -115.6209807 -0.110864E+02  0.271E+00    0.23       1.0  T
   4   -117.6976071 -0.207663E+01  0.711E-01    0.29       1.0  T
   5   -117.4738207  0.223786E+00  0.112E+00    0.28       1.0  T
   6   -117.7469124 -0.273092E+00  0.560E-01    0.30       1.0  T
   7   -117.6526436  0.942688E-01  0.802E-01    0.33       1.0  T
   8   -117.8333521 -0.180708E+00  0.717E-02    0.29       1.0  T
   9   -117.8333128  0.393002E-04  0.695E-02    0.29       1.0  T
  10   -117.8333585 -0.457552E-04  0.665E-02    0.29       1.0  T
  11   -117.8339820 -0.623468E-03  0.435E-02    0.29       1.0  T
  12   -117.8342782 -0.296255E-03  0.259E-02    0.29       1.0  T
  13   -117.8343194 -0.411148E-04  0.222E-02    0.29       1.0  T
  14   -117.8343961 -0.767358E-04  0.145E-02    0.29       1.0  T
  15   -117.8344420 -0.458954E-04  0.634E-03    0.29       1.9  T
  16   -117.8344497 -0.772007E-05  0.348E-03    0.29       3.5  T
  17   -117.8344523 -0.259094E-05  0.174E-03    0.29       7.0  T
  18   -117.8344531 -0.787654E-06  0.444E-04    0.29      27.5  T
  19   -117.8344531 -0.488003E-07  0.138E-04    0.29      88.5  T
  20   -117.8344531 -0.390830E-08  0.670E-05    0.29     182.5  T
     SCC iter.                  ...        0 min,  2.606 sec
     gradient                   ...        0 min,  0.117 sec
 * total energy  :  -116.9543370 Eh     change       -0.1634104E-02 Eh
   gradient norm :     0.0200199 Eh/α   predicted    -0.1614138E-02 (  -1.22%)
   displ. norm   :     0.3689807 α      lambda       -0.1486014E-02
   maximum displ.:     0.1573210 α      in ANC's #25, #3, #2, ...

........................................................................
.............................. CYCLE   15 ..............................
........................................................................

 iter      E             dE          RMSdq      gap      omega  full diag
   1   -117.8217391 -0.117822E+03  0.238E-01    0.30       0.0  T
   2   -103.9549181  0.138668E+02  0.682E+00    0.05       1.0  T
   3   -115.2496324 -0.112947E+02  0.292E+00    0.17       1.0  T
   4   -117.7577441 -0.250811E+01  0.533E-01    0.28       1.0  T
   5   -117.6343889  0.123355E+00  0.831E-01    0.25       1.0  T
   6   -117.7658237 -0.131435E+00  0.506E-01    0.31       1.0  T
   7   -117.5440984  0.221725E+00  0.102E+00    0.21       1.0  T
   8   -117.8313484 -0.287250E+00  0.150E-01    0.27       1.0  T
   9   -117.8343188 -0.297040E-02  0.102E-01    0.27       1.0  T
  10   -117.8361637 -0.184484E-02  0.599E-02    0.27       1.0  T
  11   -117.8370167 -0.853066E-03  0.204E-02    0.27       1.0  T
  12   -117.8371217 -0.104952E-03  0.557E-03    0.28       2.2  T
  13   -117.8371185  0.318916E-05  0.632E-03    0.28       1.9  T
  14   -117.8371284 -0.986565E-05  0.233E-03    0.28       5.2  T
  15   -117.8371292 -0.855962E-06  0.147E-03    0.28       8.3  T
  16   -117.8371297 -0.443692E-06  0.718E-04    0.28      17.0  T
  17   -117.8371297 -0.603806E-07  0.527E-04    0.28      23.2  T
  18   -117.8371298 -0.628386E-07  0.222E-04    0.28      55.1  T
  19   -117.8371298 -0.111626E-07  0.941E-05    0.28     129.8  T
  20   -117.8371298 -0.221765E-08  0.259E-05    0.28     471.2  T
     SCC iter.                  ...        0 min,  2.672 sec
     gradient                   ...        0 min,  0.084 sec
 * total energy  :  -116.9552672 Eh     change       -0.9301313E-03 Eh
   gradient norm :     0.0194853 Eh/α   predicted    -0.8441691E-03 (  -9.24%)
   displ. norm   :     0.3512160 α      lambda       -0.1106136E-02
   maximum displ.:     0.1393460 α      in ANC's #3, #2, #14, ...

........................................................................
.............................. CYCLE   16 ..............................
........................................................................

 iter      E             dE          RMSdq      gap      omega  full diag
   1   -117.8294016 -0.117829E+03  0.163E-01    0.27       0.0  T
   2   -105.4706860  0.123587E+02  0.627E+00    0.12       1.0  T
   3   -117.4173946 -0.119467E+02  0.123E+00    0.17       1.0  T
   4   -117.8252777 -0.407883E+00  0.203E-01    0.28       1.0  T
   5   -117.3587020  0.466576E+00  0.124E+00    0.19       1.0  T
   6   -117.8056660 -0.446964E+00  0.333E-01    0.27       1.0  T
   7   -117.7567772  0.488887E-01  0.533E-01    0.22       1.0  T
   8   -117.8353624 -0.785852E-01  0.771E-02    0.26       1.0  T
   9   -117.8357965 -0.434065E-03  0.634E-02    0.25       1.0  T
  10   -117.8366864 -0.889937E-03  0.303E-02    0.26       1.0  T
  11   -117.8368617 -0.175321E-03  0.161E-02    0.26       1.0  T
  12   -117.8369297 -0.679573E-04  0.363E-03    0.26       3.4  T
  13   -117.8369322 -0.251904E-05  0.192E-03    0.26       6.4  T
  14   -117.8369329 -0.671590E-06  0.112E-03    0.26      10.9  T
  15   -117.8369331 -0.179220E-06  0.778E-04    0.26      15.7  T
  16   -117.8369332 -0.116707E-06  0.422E-04    0.26      29.0  T
  17   -117.8369332 -0.273884E-07  0.273E-04    0.26      44.8  T
  18   -117.8369332 -0.132165E-07  0.164E-04    0.26      74.5  T
  19   -117.8369332 -0.581753E-08  0.748E-05    0.26     163.4  T
     SCC iter.                  ...        0 min,  2.501 sec
     gradient                   ...        0 min,  0.114 sec
 * total energy  :  -116.9561022 Eh     change       -0.8350175E-03 Eh
   gradient norm :     0.0257465 Eh/α   predicted    -0.6212933E-03 ( -25.60%)
   displ. norm   :     0.4970071 α      lambda       -0.1434629E-02
   maximum displ.:     0.2006072 α      in ANC's #3, #2, #11, ...

........................................................................
.............................. CYCLE   17 ..............................
........................................................................

 iter      E             dE          RMSdq      gap      omega  full diag
   1   -117.8241170 -0.117824E+03  0.218E-01    0.25       0.0  T
   2   -103.0238501  0.148003E+02  0.685E+00    0.03       1.0  T
   3   -115.5589229 -0.125351E+02  0.287E+00    0.12       1.0  T
   4   -117.8181636 -0.225924E+01  0.265E-01    0.24       1.0  T
   5   -117.3799010  0.438263E+00  0.127E+00    0.19       1.0  T
   6   -117.7897271 -0.409826E+00  0.414E-01    0.26       1.0  T
   7   -117.4952304  0.294497E+00  0.107E+00    0.16       1.0  T
   8   -117.8301470 -0.334917E+00  0.171E-01    0.22       1.0  T
   9   -117.8310853 -0.938321E-03  0.154E-01    0.22       1.0  T
  10   -117.8364227 -0.533741E-02  0.690E-02    0.23       1.0  T
  11   -117.8374058 -0.983142E-03  0.338E-02    0.23       1.0  T
  12   -117.8376477 -0.241823E-03  0.172E-02    0.23       1.0  T
  13   -117.8376615 -0.138365E-04  0.156E-02    0.23       1.0  T
  14   -117.8377204 -0.588548E-04  0.602E-03    0.23       2.0  T
  15   -117.8377282 -0.784177E-05  0.299E-03    0.23       4.1  T
  16   -117.8377297 -0.152998E-05  0.184E-03    0.23       6.6  T
  17   -117.8377301 -0.418312E-06  0.137E-03    0.23       8.9  T
  18   -117.8377305 -0.326710E-06  0.815E-04    0.23      15.0  T
  19   -117.8377306 -0.145769E-06  0.352E-04    0.23      34.7  T
  20   -117.8377306 -0.226698E-07  0.200E-04    0.23      61.1  T
  21   -117.8377306 -0.839364E-08  0.938E-05    0.23     130.2  T
     SCC iter.                  ...        0 min,  2.729 sec
     gradient                   ...        0 min,  0.101 sec
 * total energy  :  -116.9573419 Eh     change       -0.1239747E-02 Eh
   gradient norm :     0.0275952 Eh/α   predicted    -0.8945079E-03 ( -27.85%)
   displ. norm   :     0.6523465 α      lambda       -0.2390505E-02
   maximum displ.:     0.2568919 α      in ANC's #3, #2, #11, ...

........................................................................
.............................. CYCLE   18 ..............................
........................................................................

 iter      E             dE          RMSdq      gap      omega  full diag
   1   -117.8122278 -0.117812E+03  0.304E-01    0.20       0.0  T
   2   -100.0250900  0.177871E+02  0.734E+00    0.18       1.0  T
   3   -112.3063333 -0.122812E+02  0.448E+00    0.06       1.0  T
   4   -117.7292949 -0.542296E+01  0.627E-01    0.21       1.0  T
   5   -117.2680516  0.461243E+00  0.140E+00    0.13       1.0  T
   6   -117.7014963 -0.433445E+00  0.688E-01    0.21       1.0  T
   7   -117.4716703  0.229826E+00  0.113E+00    0.15       1.0  T
   8   -117.8151350 -0.343465E+00  0.302E-01    0.18       1.0  T
   9   -117.8209097 -0.577470E-02  0.259E-01    0.18       1.0  T
  10   -117.8368315 -0.159218E-01  0.962E-02    0.19       1.0  T
  11   -117.8384972 -0.166562E-02  0.577E-02    0.20       1.0  T
  12   -117.8384582  0.390015E-04  0.586E-02    0.20       1.0  T
  13   -117.8390390 -0.580800E-03  0.366E-02    0.20       1.0  T
  14   -117.8393677 -0.328767E-03  0.159E-02    0.20       1.0  T
  15   -117.8394123 -0.446112E-04  0.853E-03    0.20       1.4  T
  16   -117.8394254 -0.130920E-04  0.489E-03    0.20       2.5  T
  17   -117.8394295 -0.407866E-05  0.298E-03    0.20       4.1  T
  18   -117.8394314 -0.193390E-05  0.131E-03    0.20       9.3  T
  19   -117.8394319 -0.443882E-06  0.199E-04    0.20      61.3  T
  20   -117.8394319 -0.238299E-08  0.170E-04    0.20      72.1  T
     SCC iter.                  ...        0 min,  2.576 sec
     gradient                   ...        0 min,  0.088 sec
 * total energy  :  -116.9592449 Eh     change       -0.1902973E-02 Eh
   gradient norm :     0.0246616 Eh/α   predicted    -0.1703904E-02 ( -10.46%)
   displ. norm   :     0.4395745 α      lambda       -0.2107697E-02
   maximum displ.:     0.1491451 α      in ANC's #1, #3, #38, ...

........................................................................
.............................. CYCLE   19 ..............................
........................................................................

 iter      E             dE          RMSdq      gap      omega  full diag
   1   -117.8336428 -0.117834E+03  0.181E-01    0.18       0.0  T
   2   -109.3685931  0.846505E+01  0.523E+00    0.02       1.0  T
   3   -116.6805339 -0.731194E+01  0.205E+00    0.09       1.0  T
   4   -117.8168640 -0.113633E+01  0.309E-01    0.20       1.0  T
   5   -117.3424567  0.474407E+00  0.130E+00    0.12       1.0  T
   6   -117.8031666 -0.460710E+00  0.381E-01    0.18       1.0  T
   7   -117.6210118  0.182155E+00  0.888E-01    0.15       1.0  T
   8   -117.8406987 -0.219687E+00  0.871E-02    0.17       1.0  T
   9   -117.8418605 -0.116183E-02  0.571E-02    0.17       1.0  T
  10   -117.8425647 -0.704247E-03  0.287E-02    0.17       1.0  T
  11   -117.8425653 -0.548738E-06  0.278E-02    0.17       1.0  T
  12   -117.8427532 -0.187870E-03  0.871E-03    0.18       1.4  T
  13   -117.8427720 -0.187848E-04  0.277E-03    0.18       4.4  T
  14   -117.8427739 -0.190694E-05  0.124E-03    0.18       9.9  T
  15   -117.8427737  0.123917E-06  0.141E-03    0.18       8.7  T
  16   -117.8427741 -0.404624E-06  0.673E-04    0.18      18.2  T
  17   -117.8427742 -0.110034E-06  0.207E-04    0.18      59.0  T
  18   -117.8427743 -0.584002E-08  0.148E-04    0.18      82.4  T
  19   -117.8427743 -0.418945E-08  0.870E-05    0.18     140.4  T
     SCC iter.                  ...        0 min,  2.490 sec
     gradient                   ...        0 min,  0.097 sec
 * total energy  :  -116.9603526 Eh     change       -0.1107654E-02 Eh
   gradient norm :     0.0213189 Eh/α   predicted    -0.1257483E-02 (  13.53%)
   displ. norm   :     0.3510035 α      lambda       -0.1584384E-02
   maximum displ.:     0.1147214 α      in ANC's #39, #3, #32, ...

........................................................................
.............................. CYCLE   20 ..............................
........................................................................

 iter      E             dE          RMSdq      gap      omega  full diag
   1   -117.8343281 -0.117834E+03  0.160E-01    0.18       0.0  T
   2   -111.8624655  0.597186E+01  0.450E+00    0.12       1.0  T
   3   -116.5514588 -0.468899E+01  0.213E+00    0.12       1.0  T
   4   -117.7849421 -0.123348E+01  0.460E-01    0.19       1.0  T
   5   -117.6099027  0.175039E+00  0.900E-01    0.17       1.0  T
   6   -117.7899968 -0.180094E+00  0.433E-01    0.19       1.0  T
   7   -117.4172415  0.372755E+00  0.118E+00    0.12       1.0  T
   8   -117.8357389 -0.418497E+00  0.134E-01    0.18       1.0  T
   9   -117.8396400 -0.390102E-02  0.601E-02    0.18       1.0  T
  10   -117.8400011 -0.361177E-03  0.489E-02    0.17       1.0  T
  11   -117.8402153 -0.214116E-03  0.406E-02    0.17       1.0  T
  12   -117.8402570 -0.417019E-04  0.377E-02    0.17       1.0  T
  13   -117.8406136 -0.356669E-03  0.112E-02    0.17       1.1  T
  14   -117.8406374 -0.237939E-04  0.668E-03    0.17       1.8  T
  15   -117.8406415 -0.408050E-05  0.537E-03    0.17       2.3  T
  16   -117.8406467 -0.516479E-05  0.318E-03    0.17       3.8  T
  17   -117.8406481 -0.142310E-05  0.221E-03    0.17       5.5  T
  18   -117.8406492 -0.106729E-05  0.977E-04    0.17      12.5  T
  19   -117.8406494 -0.235449E-06  0.321E-04    0.17      38.0  T
  20   -117.8406494 -0.233287E-07  0.153E-04    0.17      80.1  T
  21   -117.8406494 -0.550261E-08  0.629E-05    0.17     194.1  T
     SCC iter.                  ...        0 min,  2.593 sec
     gradient                   ...        0 min,  0.110 sec
 * total energy  :  -116.9607906 Eh     change       -0.4380791E-03 Eh
   gradient norm :     0.0220002 Eh/α   predicted    -0.8898038E-03 ( 103.11%)
   displ. norm   :     0.3964615 α      lambda       -0.3024721E-02
   maximum displ.:     0.1536983 α      in ANC's #30, #19, #24, ...
 * RMSD in coord.:     0.8726563 α      energy gain  -0.5406997E+00 Eh

generating ANC from model Hessian ...
Using Lindh-Hessian (1995)
 Shifting diagonal of input Hessian by    1.0604363244532964E-002
 Lowest  eigenvalues of input Hessian
    0.010000    0.010123    0.010435    0.010572    0.010592    0.000000
    0.000000    0.000000    0.000000    0.000000    0.000000    0.010620
    0.010640    0.010668    0.010771    0.010811    0.010870    0.010952
 Highest eigenvalues
    1.628059    1.870880    1.949511    2.056912    2.154883    2.441446


........................................................................
.............................. CYCLE   21 ..............................
........................................................................

 iter      E             dE          RMSdq      gap      omega  full diag
   1   -117.8348207 -0.117835E+03  0.195E-01    0.18       0.0  T
   2   -105.2553390  0.125795E+02  0.631E+00    0.11       1.0  T
   3   -115.9678158 -0.107125E+02  0.260E+00    0.12       1.0  T
   4   -117.7356806 -0.176786E+01  0.635E-01    0.20       1.0  T
   5   -117.0675614  0.668119E+00  0.164E+00    0.18       1.0  T
   6   -117.7786499 -0.711089E+00  0.484E-01    0.16       1.0  T
   7   -117.5559303  0.222720E+00  0.100E+00    0.20       1.0  T
   8   -117.8392376 -0.283307E+00  0.155E-01    0.18       1.0  T
   9   -117.8395922 -0.354673E-03  0.150E-01    0.18       1.0  T
  10   -117.8414431 -0.185087E-02  0.125E-01    0.18       1.0  T
  11   -117.8426668 -0.122366E-02  0.105E-01    0.18       1.0  T
  12   -117.8435048 -0.838057E-03  0.880E-02    0.18       1.0  T
  13   -117.8446420 -0.113713E-02  0.587E-02    0.18       1.0  T
  14   -117.8453634 -0.721430E-03  0.271E-02    0.18       1.0  T
  15   -117.8455248 -0.161401E-03  0.118E-02    0.18       1.0  T
  16   -117.8455378 -0.130382E-04  0.940E-03    0.18       1.3  T
  17   -117.8455522 -0.143479E-04  0.596E-03    0.18       2.0  T
  18   -117.8455599 -0.775817E-05  0.262E-03    0.18       4.7  T
  19   -117.8455615 -0.158233E-05  0.973E-04    0.18      12.6  T
  20   -117.8455617 -0.224770E-06  0.346E-04    0.18      35.3  T
  21   -117.8455618 -0.305792E-07  0.783E-05    0.18     156.1  T
  22   -117.8455618 -0.120833E-08  0.367E-05    0.18     333.1  T
     SCC iter.                  ...        0 min,  2.708 sec
     gradient                   ...        0 min,  0.125 sec
 * total energy  :  -116.9623980 Eh     change       -0.1607380E-02 Eh
   gradient norm :     0.0209864 Eh/α   predicted     0.0000000E+00 (-100.00%)
   displ. norm   :     0.3179426 α      lambda       -0.2616103E-02
   maximum displ.:     0.1669837 α      in ANC's #29, #43, #36, ...

........................................................................
.............................. CYCLE   22 ..............................
........................................................................

 iter      E             dE          RMSdq      gap      omega  full diag
   1   -117.8093718 -0.117809E+03  0.341E-01    0.17       0.0  T
   2    -68.0618810  0.497475E+02  0.119E+01    0.21       1.0  T
   3   -113.0384525 -0.449766E+02  0.413E+00    0.16       1.0  T
   4   -117.7703245 -0.473187E+01  0.503E-01    0.16       1.0  T
   5   -116.1237199  0.164660E+01  0.242E+00    0.17       1.0  T
   6   -117.5957846 -0.147206E+01  0.951E-01    0.16       1.0  T
   7   -116.9876239  0.608161E+00  0.173E+00    0.16       1.0  T
   8   -117.8293911 -0.841767E+00  0.240E-01    0.18       1.0  T
   9   -117.8413872 -0.119961E-01  0.121E-01    0.18       1.0  T
  10   -117.8429024 -0.151519E-02  0.935E-02    0.18       1.0  T
  11   -117.8445635 -0.166109E-02  0.512E-02    0.17       1.0  T
  12   -117.8448687 -0.305186E-03  0.385E-02    0.17       1.0  T
  13   -117.8450307 -0.162058E-03  0.305E-02    0.17       1.0  T
  14   -117.8451952 -0.164518E-03  0.186E-02    0.17       1.0  T
  15   -117.8452461 -0.508313E-04  0.122E-02    0.17       1.0  T
  16   -117.8452639 -0.177917E-04  0.867E-03    0.17       1.4  T
  17   -117.8452802 -0.163500E-04  0.424E-03    0.17       2.9  T
  18   -117.8452848 -0.462322E-05  0.153E-03    0.17       8.0  T
  19   -117.8452854 -0.592056E-06  0.496E-04    0.17      24.6  T
  20   -117.8452855 -0.527705E-07  0.236E-04    0.17      51.7  T
  21   -117.8452855 -0.101493E-07  0.134E-04    0.17      91.3  T
  22   -117.8452855 -0.456023E-08  0.364E-05    0.17     336.0  T
     SCC iter.                  ...        0 min,  2.711 sec
     gradient                   ...        0 min,  0.111 sec
 * total energy  :  -116.9641300 Eh     change       -0.1732027E-02 Eh
   gradient norm :     0.0159848 Eh/α   predicted    -0.1440408E-02 ( -16.84%)
   displ. norm   :     0.5854670 α      lambda       -0.4570500E-02
   maximum displ.:     0.2912128 α      in ANC's #29, #64, #36, ...

........................................................................
.............................. CYCLE   23 ..............................
........................................................................

 iter      E             dE          RMSdq      gap      omega  full diag
   1   -117.8386366 -0.117839E+03  0.146E-01    0.16       0.0  T
   2   -103.4445378  0.143941E+02  0.664E+00    0.01       1.0  T
   3   -116.6326442 -0.131881E+02  0.204E+00    0.18       1.0  T
   4   -117.8083710 -0.117573E+01  0.359E-01    0.16       1.0  T
   5   -117.2721168  0.536254E+00  0.142E+00    0.16       1.0  T
   6   -117.7783473 -0.506230E+00  0.494E-01    0.17       1.0  T
   7   -117.8221873 -0.438400E-01  0.280E-01    0.16       1.0  T
   8   -117.8223687 -0.181436E-03  0.284E-01    0.17       1.0  T
   9   -117.8310878 -0.871910E-02  0.217E-01    0.16       1.0  T
  10   -117.8388227 -0.773487E-02  0.141E-01    0.16       1.0  T
  11   -117.8428130 -0.399036E-02  0.734E-02    0.16       1.0  T
  12   -117.8442441 -0.143104E-02  0.140E-02    0.16       1.0  T
  13   -117.8442824 -0.383115E-04  0.692E-03    0.16       1.8  T
  14   -117.8442899 -0.745761E-05  0.444E-03    0.16       2.8  T
  15   -117.8442948 -0.494261E-05  0.116E-03    0.16      10.5  T
  16   -117.8442950 -0.185064E-06  0.799E-04    0.16      15.3  T
  17   -117.8442951 -0.915024E-07  0.546E-04    0.16      22.4  T
  18   -117.8442951 -0.666524E-07  0.235E-04    0.16      52.1  T
  19   -117.8442952 -0.132755E-07  0.793E-05    0.16     154.0  T
  20   -117.8442952 -0.154344E-08  0.205E-05    0.16     597.1  T
     SCC iter.                  ...        0 min,  2.483 sec
     gradient                   ...        0 min,  0.089 sec
 * total energy  :  -116.9658946 Eh     change       -0.1764598E-02 Eh
   gradient norm :     0.0321096 Eh/α   predicted    -0.3068579E-02 (  73.90%)
   displ. norm   :     0.3689269 α      lambda       -0.3175164E-02
   maximum displ.:     0.1763630 α      in ANC's #36, #43, #29, ...

........................................................................
.............................. CYCLE   24 ..............................
........................................................................

 iter      E             dE          RMSdq      gap      omega  full diag
   1   -117.8375106 -0.117838E+03  0.173E-01    0.17       0.0  T
   2   -101.0560203  0.167815E+02  0.717E+00    0.12       1.0  T
   3   -117.3009624 -0.162449E+02  0.140E+00    0.14       1.0  T
   4   -117.6496756 -0.348713E+00  0.835E-01    0.19       1.0  T
   5   -117.2888613  0.360814E+00  0.139E+00    0.20       1.0  T
   6   -117.8181710 -0.529310E+00  0.333E-01    0.16       1.0  T
   7   -117.8282578 -0.100868E-01  0.260E-01    0.17       1.0  T
   8   -117.8182636  0.999429E-02  0.327E-01    0.18       1.0  T
   9   -117.8378207 -0.195571E-01  0.186E-01    0.17       1.0  T
  10   -117.8410037 -0.318306E-02  0.153E-01    0.17       1.0  T
  11   -117.8439436 -0.293990E-02  0.112E-01    0.17       1.0  T
  12   -117.8460932 -0.214957E-02  0.662E-02    0.17       1.0  T
  13   -117.8468846 -0.791426E-03  0.364E-02    0.17       1.0  T
  14   -117.8472077 -0.323055E-03  0.107E-02    0.17       1.1  T
  15   -117.8472338 -0.261138E-04  0.401E-03    0.17       3.0  T
  16   -117.8472346 -0.768327E-06  0.356E-03    0.17       3.4  T
  17   -117.8472375 -0.298736E-05  0.155E-03    0.17       7.9  T
  18   -117.8472382 -0.626098E-06  0.476E-04    0.17      25.6  T
  19   -117.8472382 -0.644141E-07  0.102E-04    0.17     120.4  T
  20   -117.8472382 -0.187426E-08  0.548E-05    0.17     223.1  T
     SCC iter.                  ...        0 min,  2.447 sec
     gradient                   ...        0 min,  0.103 sec
 * total energy  :  -116.9685567 Eh     change       -0.2662103E-02 Eh
   gradient norm :     0.0241893 Eh/α   predicted    -0.1803670E-02 ( -32.25%)
   displ. norm   :     0.6721675 α      lambda       -0.4894213E-02
   maximum displ.:     0.3171946 α      in ANC's #36, #43, #33, ...

........................................................................
.............................. CYCLE   25 ..............................
........................................................................

 iter      E             dE          RMSdq      gap      omega  full diag
   1   -117.8421958 -0.117842E+03  0.202E-01    0.18       0.0  T
   2   -111.5627781  0.627942E+01  0.467E+00    0.11       1.0  T
   3   -115.6542731 -0.409150E+01  0.276E+00    0.15       1.0  T
   4   -117.7834650 -0.212919E+01  0.512E-01    0.16       1.0  T
   5   -117.1432809  0.640184E+00  0.153E+00    0.14       1.0  T
   6   -117.6932183 -0.549937E+00  0.769E-01    0.18       1.0  T
   7   -117.7618704 -0.686522E-01  0.571E-01    0.16       1.0  T
   8   -117.7819408 -0.200704E-01  0.516E-01    0.18       1.0  T
   9   -117.8072595 -0.253187E-01  0.410E-01    0.17       1.0  T
  10   -117.8395287 -0.322692E-01  0.230E-01    0.17       1.0  T
  11   -117.8519379 -0.124092E-01  0.838E-02    0.17       1.0  T
  12   -117.8527198 -0.781971E-03  0.627E-02    0.17       1.0  T
  13   -117.8531285 -0.408674E-03  0.486E-02    0.17       1.0  T
  14   -117.8535668 -0.438289E-03  0.280E-02    0.17       1.0  T
  15   -117.8537477 -0.180897E-03  0.112E-02    0.17       1.1  T
  16   -117.8537752 -0.274879E-04  0.532E-03    0.17       2.3  T
  17   -117.8537790 -0.383207E-05  0.357E-03    0.17       3.4  T
  18   -117.8537816 -0.253669E-05  0.172E-03    0.17       7.1  T
  19   -117.8537821 -0.544676E-06  0.983E-04    0.17      12.4  T
  20   -117.8537823 -0.227001E-06  0.351E-04    0.17      34.8  T
  21   -117.8537824 -0.282624E-07  0.124E-04    0.17      98.7  T
  22   -117.8537824 -0.365681E-08  0.395E-05    0.17     309.2  T
     SCC iter.                  ...        0 min,  2.678 sec
     gradient                   ...        0 min,  0.091 sec
 * total energy  :  -116.9721147 Eh     change       -0.3557993E-02 Eh
   gradient norm :     0.0179816 Eh/α   predicted    -0.3552729E-02 (  -0.15%)
   displ. norm   :     0.6106031 α      lambda       -0.2622153E-02
   maximum displ.:     0.2712087 α      in ANC's #36, #43, #29, ...

........................................................................
.............................. CYCLE   26 ..............................
........................................................................

 iter      E             dE          RMSdq      gap      omega  full diag
   1   -117.8505220 -0.117851E+03  0.134E-01    0.17       0.0  T
   2   -109.4127051  0.843782E+01  0.533E+00    0.01       1.0  T
   3   -116.6437500 -0.723104E+01  0.202E+00    0.15       1.0  T
   4   -117.7978451 -0.115410E+01  0.456E-01    0.18       1.0  T
   5   -117.5813362  0.216509E+00  0.984E-01    0.18       1.0  T
   6   -117.7858686 -0.204532E+00  0.501E-01    0.17       1.0  T
   7   -117.8339712 -0.481026E-01  0.277E-01    0.17       1.0  T
   8   -117.8412176 -0.724641E-02  0.231E-01    0.17       1.0  T
   9   -117.8401774  0.104026E-02  0.233E-01    0.17       1.0  T
  10   -117.8499604 -0.978301E-02  0.136E-01    0.17       1.0  T
  11   -117.8535659 -0.360553E-02  0.685E-02    0.17       1.0  T
  12   -117.8544224 -0.856525E-03  0.382E-02    0.17       1.0  T
  13   -117.8546658 -0.243314E-03  0.229E-02    0.17       1.0  T
  14   -117.8547911 -0.125383E-03  0.795E-03    0.17       1.5  T
  15   -117.8548032 -0.120919E-04  0.431E-03    0.17       2.8  T
  16   -117.8548067 -0.345990E-05  0.249E-03    0.17       4.9  T
  17   -117.8548078 -0.106078E-05  0.151E-03    0.17       8.1  T
  18   -117.8548084 -0.602995E-06  0.306E-04    0.17      39.9  T
  19   -117.8548084 -0.242028E-07  0.795E-05    0.17     153.8  T
  20   -117.8548084 -0.146203E-08  0.334E-05    0.17     365.7  T
     SCC iter.                  ...        0 min,  2.546 sec
     gradient                   ...        0 min,  0.092 sec
 * total energy  :  -116.9740532 Eh     change       -0.1938434E-02 Eh
   gradient norm :     0.0163257 Eh/α   predicted    -0.1799893E-02 (  -7.15%)
   displ. norm   :     0.4674354 α      lambda       -0.2220027E-02
   maximum displ.:     0.1628184 α      in ANC's #36, #26, #22, ...

........................................................................
.............................. CYCLE   27 ..............................
........................................................................

 iter      E             dE          RMSdq      gap      omega  full diag
   1   -117.8477430 -0.117848E+03  0.219E-01    0.17       0.0  T
   2    -88.4401546  0.294076E+02  0.950E+00    0.20       1.0  T
   3   -115.3382543 -0.268981E+02  0.294E+00    0.17       1.0  T
   4   -117.7920101 -0.245376E+01  0.497E-01    0.17       1.0  T
   5   -116.9229323  0.869078E+00  0.181E+00    0.18       1.0  T
   6   -117.7459319 -0.823000E+00  0.641E-01    0.16       1.0  T
   7   -117.6274716  0.118460E+00  0.893E-01    0.16       1.0  T
   8   -117.8532043 -0.225733E+00  0.170E-01    0.16       1.0  T
   9   -117.8578089 -0.460468E-02  0.110E-01    0.16       1.0  T
  10   -117.8596699 -0.186094E-02  0.725E-02    0.16       1.0  T
  11   -117.8601216 -0.451688E-03  0.587E-02    0.16       1.0  T
  12   -117.8607025 -0.580912E-03  0.344E-02    0.16       1.0  T
  13   -117.8609057 -0.203249E-03  0.199E-02    0.16       1.0  T
  14   -117.8609901 -0.843990E-04  0.926E-03    0.16       1.3  T
  15   -117.8610048 -0.146724E-04  0.551E-03    0.16       2.2  T
  16   -117.8610095 -0.467216E-05  0.358E-03    0.16       3.4  T
  17   -117.8610119 -0.242783E-05  0.193E-03    0.16       6.3  T
  18   -117.8610128 -0.853666E-06  0.740E-04    0.16      16.5  T
  19   -117.8610129 -0.132639E-06  0.244E-04    0.16      50.1  T
  20   -117.8610129 -0.910991E-08  0.162E-04    0.16      75.3  T
  21   -117.8610129 -0.550561E-08  0.775E-05    0.16     157.7  T
     SCC iter.                  ...        0 min,  2.735 sec
     gradient                   ...        0 min,  0.103 sec
 * total energy  :  -116.9755815 Eh     change       -0.1528296E-02 Eh
   gradient norm :     0.0206512 Eh/α   predicted    -0.1352551E-02 ( -11.50%)
   displ. norm   :     0.5028843 α      lambda       -0.1644542E-02
   maximum displ.:     0.1700072 α      in ANC's #29, #26, #36, ...

........................................................................
.............................. CYCLE   28 ..............................
........................................................................

 iter      E             dE          RMSdq      gap      omega  full diag
   1   -117.8525448 -0.117853E+03  0.160E-01    0.17       0.0  T
   2    -97.2979005  0.205546E+02  0.785E+00    0.08       1.0  T
   3   -116.4513535 -0.191535E+02  0.224E+00    0.09       1.0  T
   4   -117.8373045 -0.138595E+01  0.281E-01    0.16       1.0  T
   5   -116.3828259  0.145448E+01  0.225E+00    0.15       1.0  T
   6   -117.7816043 -0.139878E+01  0.534E-01    0.18       1.0  T
   7   -117.6139505  0.167654E+00  0.924E-01    0.16       1.0  T
   8   -117.8579553 -0.244005E+00  0.923E-02    0.16       1.0  T
   9   -117.8583083 -0.353073E-03  0.805E-02    0.16       1.0  T
  10   -117.8596380 -0.132970E-02  0.441E-02    0.16       1.0  T
  11   -117.8597214 -0.833892E-04  0.396E-02    0.16       1.0  T
  12   -117.8600393 -0.317913E-03  0.207E-02    0.16       1.0  T
  13   -117.8601332 -0.938445E-04  0.902E-03    0.16       1.4  T
  14   -117.8601488 -0.156124E-04  0.494E-03    0.16       2.5  T
  15   -117.8601526 -0.378127E-05  0.324E-03    0.16       3.8  T
  16   -117.8601549 -0.231203E-05  0.139E-03    0.16       8.8  T
  17   -117.8601553 -0.431539E-06  0.522E-04    0.16      23.4  T
  18   -117.8601554 -0.555968E-07  0.255E-04    0.16      48.0  T
  19   -117.8601554 -0.128704E-07  0.119E-04    0.16     103.0  T
  20   -117.8601554 -0.347769E-08  0.276E-05    0.16     442.8  T
     SCC iter.                  ...        0 min,  2.619 sec
     gradient                   ...        0 min,  0.098 sec
 * total energy  :  -116.9768058 Eh     change       -0.1224340E-02 Eh
   gradient norm :     0.0187817 Eh/α   predicted    -0.1030228E-02 ( -15.85%)
   displ. norm   :     0.4959202 α      lambda       -0.1661112E-02
   maximum displ.:     0.1432978 α      in ANC's #19, #22, #5, ...

........................................................................
.............................. CYCLE   29 ..............................
........................................................................

 iter      E             dE          RMSdq      gap      omega  full diag
   1   -117.8479126 -0.117848E+03  0.224E-01    0.17       0.0  T
   2    -93.0226982  0.248252E+02  0.848E+00    0.10       1.0  T
   3   -115.1895316 -0.221668E+02  0.309E+00    0.13       1.0  T
   4   -117.7822347 -0.259270E+01  0.535E-01    0.17       1.0  T
   5   -116.7285567  0.105368E+01  0.199E+00    0.14       1.0  T
   6   -117.7646880 -0.103613E+01  0.597E-01    0.18       1.0  T
   7   -117.2039490  0.560739E+00  0.150E+00    0.14       1.0  T
   8   -117.8610959 -0.657147E+00  0.905E-02    0.17       1.0  T
   9   -117.8608987  0.197221E-03  0.873E-02    0.17       1.0  T
  10   -117.8624180 -0.151931E-02  0.501E-02    0.17       1.0  T
  11   -117.8626604 -0.242399E-03  0.401E-02    0.17       1.0  T
  12   -117.8631022 -0.441792E-03  0.120E-02    0.17       1.0  T
  13   -117.8631185 -0.163787E-04  0.974E-03    0.17       1.3  T
  14   -117.8631232 -0.466056E-05  0.863E-03    0.17       1.4  T
  15   -117.8631353 -0.121160E-04  0.516E-03    0.17       2.4  T
  16   -117.8631408 -0.550183E-05  0.243E-03    0.17       5.0  T
  17   -117.8631417 -0.850715E-06  0.165E-03    0.17       7.4  T
  18   -117.8631421 -0.473810E-06  0.970E-04    0.17      12.6  T
  19   -117.8631424 -0.225580E-06  0.323E-04    0.17      37.8  T
  20   -117.8631424 -0.246081E-07  0.107E-04    0.17     114.0  T
  21   -117.8631424 -0.249297E-08  0.455E-05    0.17     268.7  T
     SCC iter.                  ...        0 min,  2.613 sec
     gradient                   ...        0 min,  0.095 sec
 * total energy  :  -116.9779853 Eh     change       -0.1179537E-02 Eh
   gradient norm :     0.0112879 Eh/α   predicted    -0.1034821E-02 ( -12.27%)
   displ. norm   :     0.5750701 α      lambda       -0.1257451E-02
   maximum displ.:     0.1710105 α      in ANC's #19, #29, #5, ...

........................................................................
.............................. CYCLE   30 ..............................
........................................................................

 iter      E             dE          RMSdq      gap      omega  full diag
   1   -117.8540179 -0.117854E+03  0.168E-01    0.17       0.0  T
   2    -97.1723963  0.206816E+02  0.774E+00    0.04       1.0  T
   3   -116.2870100 -0.191146E+02  0.238E+00    0.16       1.0  T
   4   -117.8161590 -0.152915E+01  0.407E-01    0.16       1.0  T
   5   -117.1382731  0.677886E+00  0.159E+00    0.15       1.0  T
   6   -117.7694537 -0.631181E+00  0.581E-01    0.18       1.0  T
   7   -117.3969169  0.372537E+00  0.127E+00    0.12       1.0  T
   8   -117.8607886 -0.463872E+00  0.902E-02    0.17       1.0  T
   9   -117.8606764  0.112227E-03  0.856E-02    0.17       1.0  T
  10   -117.8622089 -0.153250E-02  0.457E-02    0.17       1.0  T
  11   -117.8624461 -0.237142E-03  0.350E-02    0.17       1.0  T
  12   -117.8627717 -0.325646E-03  0.116E-02    0.17       1.1  T
  13   -117.8627862 -0.144909E-04  0.931E-03    0.17       1.3  T
  14   -117.8627946 -0.836064E-05  0.741E-03    0.17       1.6  T
  15   -117.8628070 -0.123973E-04  0.296E-03    0.17       4.1  T
  16   -117.8628085 -0.151997E-05  0.163E-03    0.17       7.5  T
  17   -117.8628088 -0.279238E-06  0.126E-03    0.17       9.7  T
  18   -117.8628091 -0.344909E-06  0.569E-04    0.17      21.5  T
  19   -117.8628092 -0.794890E-07  0.172E-04    0.17      70.9  T
  20   -117.8628092 -0.501365E-08  0.106E-04    0.17     115.3  T
     SCC iter.                  ...        0 min,  2.431 sec
     gradient                   ...        0 min,  0.138 sec
 * total energy  :  -116.9789547 Eh     change       -0.9693623E-03 Eh
   gradient norm :     0.0109304 Eh/α   predicted    -0.8366495E-03 ( -13.69%)
   displ. norm   :     0.5571840 α      lambda       -0.1123299E-02
   maximum displ.:     0.1635324 α      in ANC's #19, #18, #5, ...

........................................................................
.............................. CYCLE   31 ..............................
........................................................................

 iter      E             dE          RMSdq      gap      omega  full diag
   1   -117.8550978 -0.117855E+03  0.185E-01    0.17       0.0  T
   2    -94.6534275  0.232017E+02  0.814E+00    0.01       1.0  T
   3   -116.4592784 -0.218059E+02  0.224E+00    0.19       1.0  T
   4   -117.8346679 -0.137539E+01  0.336E-01    0.16       1.0  T
   5   -116.7460743  0.108859E+01  0.196E+00    0.16       1.0  T
   6   -117.7883495 -0.104228E+01  0.527E-01    0.18       1.0  T
   7   -117.6165182  0.171831E+00  0.938E-01    0.13       1.0  T
   8   -117.8632107 -0.246692E+00  0.937E-02    0.17       1.0  T
   9   -117.8649356 -0.172491E-02  0.462E-02    0.17       1.0  T
  10   -117.8650450 -0.109440E-03  0.406E-02    0.17       1.0  T
  11   -117.8653461 -0.301077E-03  0.248E-02    0.17       1.0  T
  12   -117.8654773 -0.131259E-03  0.124E-02    0.17       1.0  T
  13   -117.8655183 -0.409729E-04  0.370E-03    0.17       3.3  T
  14   -117.8655195 -0.123319E-05  0.305E-03    0.17       4.0  T
  15   -117.8655208 -0.128350E-05  0.225E-03    0.17       5.4  T
  16   -117.8655215 -0.713227E-06  0.152E-03    0.17       8.0  T
  17   -117.8655221 -0.537418E-06  0.510E-04    0.17      23.9  T
  18   -117.8655221 -0.385901E-07  0.344E-04    0.17      35.6  T
  19   -117.8655221 -0.230483E-07  0.184E-04    0.17      66.3  T
  20   -117.8655222 -0.860122E-08  0.475E-05    0.17     257.1  T
     SCC iter.                  ...        0 min,  2.422 sec
     gradient                   ...        0 min,  0.101 sec
 * total energy  :  -116.9797697 Eh     change       -0.8149908E-03 Eh
   gradient norm :     0.0108727 Eh/α   predicted    -0.7360174E-03 (  -9.69%)
   displ. norm   :     0.5650889 α      lambda       -0.7661313E-03
   maximum displ.:     0.1652424 α      in ANC's #19, #34, #18, ...

........................................................................
.............................. CYCLE   32 ..............................
........................................................................

 iter      E             dE          RMSdq      gap      omega  full diag
   1   -117.8583714 -0.117858E+03  0.153E-01    0.17       0.0  T
   2    -97.3881811  0.204702E+02  0.766E+00    0.03       1.0  T
   3   -116.7962012 -0.194080E+02  0.195E+00    0.21       1.0  T
   4   -117.8404948 -0.104429E+01  0.302E-01    0.16       1.0  T
   5   -117.0525442  0.787951E+00  0.168E+00    0.17       1.0  T
   6   -117.8022736 -0.749729E+00  0.481E-01    0.18       1.0  T
   7   -117.5851278  0.217146E+00  0.996E-01    0.13       1.0  T
   8   -117.8650330 -0.279905E+00  0.505E-02    0.17       1.0  T
   9   -117.8642886  0.744337E-03  0.676E-02    0.17       1.0  T
  10   -117.8652627 -0.974110E-03  0.362E-02    0.17       1.0  T
  11   -117.8654506 -0.187901E-03  0.255E-02    0.17       1.0  T
  12   -117.8656317 -0.181083E-03  0.615E-03    0.17       2.0  T
  13   -117.8656353 -0.358829E-05  0.520E-03    0.17       2.3  T
  14   -117.8656370 -0.172416E-05  0.459E-03    0.17       2.7  T
  15   -117.8656400 -0.297449E-05  0.316E-03    0.17       3.9  T
  16   -117.8656422 -0.222700E-05  0.114E-03    0.17      10.7  T
  17   -117.8656424 -0.182575E-06  0.752E-04    0.17      16.2  T
  18   -117.8656425 -0.844950E-07  0.499E-04    0.17      24.5  T
  19   -117.8656425 -0.467395E-07  0.274E-04    0.17      44.6  T
  20   -117.8656426 -0.176915E-07  0.977E-05    0.17     125.1  T
  21   -117.8656426 -0.192347E-08  0.490E-05    0.17     249.1  T
     SCC iter.                  ...        0 min,  2.655 sec
     gradient                   ...        0 min,  0.105 sec
 * total energy  :  -116.9803009 Eh     change       -0.5311619E-03 Eh
   gradient norm :     0.0114043 Eh/α   predicted    -0.5053934E-03 (  -4.85%)
   displ. norm   :     0.5950914 α      lambda       -0.7401918E-03
   maximum displ.:     0.1659100 α      in ANC's #19, #6, #8, ...

........................................................................
.............................. CYCLE   33 ..............................
........................................................................

 iter      E             dE          RMSdq      gap      omega  full diag
   1   -117.8604082 -0.117860E+03  0.132E-01    0.16       0.0  T
   2   -103.9901926  0.138702E+02  0.644E+00    0.08       1.0  T
   3   -116.9602190 -0.129700E+02  0.180E+00    0.20       1.0  T
   4   -117.8569331 -0.896714E+00  0.178E-01    0.16       1.0  T
   5   -117.0395204  0.817413E+00  0.168E+00    0.17       1.0  T
   6   -117.8502778 -0.810757E+00  0.239E-01    0.17       1.0  T
   7   -117.7993736  0.509042E-01  0.484E-01    0.15       1.0  T
   8   -117.8644786 -0.651050E-01  0.713E-02    0.17       1.0  T
   9   -117.8653168 -0.838190E-03  0.393E-02    0.16       1.0  T
  10   -117.8657076 -0.390784E-03  0.133E-02    0.16       1.0  T
  11   -117.8657238 -0.162044E-04  0.105E-02    0.16       1.2  T
  12   -117.8657428 -0.190209E-04  0.648E-03    0.16       1.9  T
  13   -117.8657517 -0.889174E-05  0.303E-03    0.16       4.0  T
  14   -117.8657534 -0.177483E-05  0.169E-03    0.16       7.2  T
  15   -117.8657540 -0.548443E-06  0.963E-04    0.16      12.7  T
  16   -117.8657541 -0.916022E-07  0.751E-04    0.16      16.3  T
  17   -117.8657542 -0.808269E-07  0.474E-04    0.16      25.8  T
  18   -117.8657542 -0.414347E-07  0.254E-04    0.16      48.1  T
  19   -117.8657542 -0.135399E-07  0.122E-04    0.16     100.0  T
  20   -117.8657542 -0.359408E-08  0.422E-05    0.16     289.8  T
     SCC iter.                  ...        0 min,  2.605 sec
     gradient                   ...        0 min,  0.083 sec
 * total energy  :  -116.9807553 Eh     change       -0.4544876E-03 Eh
   gradient norm :     0.0102205 Eh/α   predicted    -0.5011603E-03 (  10.27%)
   displ. norm   :     0.4134751 α      lambda       -0.6360333E-03
   maximum displ.:     0.1528201 α      in ANC's #6, #8, #22, ...

........................................................................
.............................. CYCLE   34 ..............................
........................................................................

 iter      E             dE          RMSdq      gap      omega  full diag
   1   -117.8652027 -0.117865E+03  0.125E-01    0.16       0.0  T
   2   -106.1890001  0.116762E+02  0.595E+00    0.09       1.0  T
   3   -117.1637098 -0.109747E+02  0.159E+00    0.20       1.0  T
   4   -117.8581074 -0.694398E+00  0.208E-01    0.16       1.0  T
   5   -117.2412866  0.616821E+00  0.148E+00    0.15       1.0  T
   6   -117.8612264 -0.619940E+00  0.181E-01    0.16       1.0  T
   7   -117.8485997  0.126267E-01  0.275E-01    0.17       1.0  T
   8   -117.8683204 -0.197208E-01  0.754E-02    0.16       1.0  T
   9   -117.8694222 -0.110175E-02  0.392E-02    0.16       1.0  T
  10   -117.8697905 -0.368285E-03  0.173E-02    0.16       1.0  T
  11   -117.8698448 -0.542955E-04  0.106E-02    0.16       1.1  T
  12   -117.8698755 -0.307633E-04  0.286E-03    0.16       4.3  T
  13   -117.8698751  0.400709E-06  0.299E-03    0.16       4.1  T
  14   -117.8698766 -0.150409E-05  0.194E-03    0.16       6.3  T
  15   -117.8698770 -0.349101E-06  0.150E-03    0.16       8.2  T
  16   -117.8698774 -0.436556E-06  0.718E-04    0.16      17.0  T
  17   -117.8698775 -0.853969E-07  0.407E-04    0.16      30.0  T
  18   -117.8698775 -0.232347E-07  0.289E-04    0.16      42.3  T
  19   -117.8698776 -0.184860E-07  0.141E-04    0.16      86.5  T
  20   -117.8698776 -0.551077E-08  0.350E-05    0.16     349.4  T
     SCC iter.                  ...        0 min,  2.558 sec
     gradient                   ...        0 min,  0.078 sec
 * total energy  :  -116.9811517 Eh     change       -0.3963382E-03 Eh
   gradient norm :     0.0090181 Eh/α   predicted    -0.3723863E-03 (  -6.04%)
   displ. norm   :     0.5402511 α      lambda       -0.5906720E-03
   maximum displ.:     0.1868214 α      in ANC's #6, #19, #8, ...

........................................................................
.............................. CYCLE   35 ..............................
........................................................................

 iter      E             dE          RMSdq      gap      omega  full diag
   1   -117.8631825 -0.117863E+03  0.113E-01    0.16       0.0  T
   2   -110.9270708  0.693611E+01  0.473E+00    0.16       1.0  T
   3   -117.8129289 -0.688586E+01  0.439E-01    0.15       1.0  T
   4   -117.8053482  0.758077E-02  0.469E-01    0.18       1.0  T
   5   -117.7340391  0.713090E-01  0.682E-01    0.15       1.0  T
   6   -117.8009914 -0.669523E-01  0.473E-01    0.17       1.0  T
   7   -117.7554800  0.455114E-01  0.626E-01    0.16       1.0  T
   8   -117.8661049 -0.110625E+00  0.513E-02    0.16       1.0  T
   9   -117.8666802 -0.575296E-03  0.238E-02    0.16       1.0  T
  10   -117.8668199 -0.139661E-03  0.998E-03    0.16       1.2  T
  11   -117.8668203 -0.408154E-06  0.968E-03    0.16       1.3  T
  12   -117.8668412 -0.209165E-04  0.402E-03    0.16       3.0  T
  13   -117.8668430 -0.181890E-05  0.294E-03    0.16       4.2  T
  14   -117.8668446 -0.161276E-05  0.171E-03    0.16       7.1  T
  15   -117.8668451 -0.499269E-06  0.104E-03    0.16      11.8  T
  16   -117.8668453 -0.202972E-06  0.560E-04    0.16      21.8  T
  17   -117.8668454 -0.689595E-07  0.234E-04    0.16      52.1  T
  18   -117.8668454 -0.117262E-07  0.100E-04    0.16     121.7  T
  19   -117.8668454 -0.240972E-08  0.289E-05    0.16     422.4  T
     SCC iter.                  ...        0 min,  2.457 sec
     gradient                   ...        0 min,  0.111 sec
 * total energy  :  -116.9815550 Eh     change       -0.4033340E-03 Eh
   gradient norm :     0.0115173 Eh/α   predicted    -0.3815406E-03 (  -5.40%)
   displ. norm   :     0.4406808 α      lambda       -0.5598911E-03
   maximum displ.:     0.1836782 α      in ANC's #6, #22, #8, ...

........................................................................
.............................. CYCLE   36 ..............................
........................................................................

 iter      E             dE          RMSdq      gap      omega  full diag
   1   -117.8690008 -0.117869E+03  0.673E-02    0.17       0.0  T
   2   -115.9006155  0.196839E+01  0.263E+00    0.18       1.0  T
   3   -117.8685402 -0.196792E+01  0.764E-02    0.17       1.0  T
   4   -117.7519449  0.116595E+00  0.628E-01    0.18       1.0  T
   5   -117.7613097 -0.936480E-02  0.603E-01    0.18       1.0  T
   6   -117.8693634 -0.108054E+00  0.526E-02    0.17       1.0  T
   7   -117.8648709  0.449254E-02  0.137E-01    0.17       1.0  T
   8   -117.8695586 -0.468771E-02  0.490E-02    0.17       1.0  T
   9   -117.8701282 -0.569598E-03  0.155E-02    0.17       1.0  T
  10   -117.8701512 -0.230730E-04  0.115E-02    0.17       1.1  T
  11   -117.8701759 -0.246978E-04  0.665E-03    0.17       1.8  T
  12   -117.8701845 -0.858009E-05  0.351E-03    0.17       3.5  T
  13   -117.8701868 -0.225381E-05  0.210E-03    0.17       5.8  T
  14   -117.8701873 -0.536017E-06  0.155E-03    0.17       7.9  T
  15   -117.8701877 -0.368997E-06  0.104E-03    0.17      11.8  T
  16   -117.8701879 -0.245897E-06  0.439E-04    0.17      27.8  T
  17   -117.8701880 -0.386844E-07  0.233E-04    0.17      52.3  T
  18   -117.8701880 -0.140902E-07  0.731E-05    0.17     167.2  T
  19   -117.8701880 -0.127038E-08  0.259E-05    0.17     471.0  T
     SCC iter.                  ...        0 min,  2.555 sec
     gradient                   ...        0 min,  0.103 sec
 * total energy  :  -116.9819071 Eh     change       -0.3520882E-03 Eh
   gradient norm :     0.0112948 Eh/α   predicted    -0.3343143E-03 (  -5.05%)
   displ. norm   :     0.4671531 α      lambda       -0.5229014E-03
   maximum displ.:     0.1965139 α      in ANC's #6, #22, #12, ...

........................................................................
.............................. CYCLE   37 ..............................
........................................................................

 iter      E             dE          RMSdq      gap      omega  full diag
   1   -117.8686947 -0.117869E+03  0.686E-02    0.18       0.0  T
   2   -115.8884990  0.198020E+01  0.262E+00    0.19       1.0  T
   3   -117.8614606 -0.197296E+01  0.174E-01    0.18       1.0  T
   4   -117.8360052  0.254553E-01  0.344E-01    0.17       1.0  T
   5   -117.7938660  0.421393E-01  0.500E-01    0.18       1.0  T
   6   -117.8665182 -0.726522E-01  0.112E-01    0.18       1.0  T
   7   -117.8530505  0.134677E-01  0.243E-01    0.18       1.0  T
   8   -117.8693386 -0.162881E-01  0.461E-02    0.18       1.0  T
   9   -117.8698821 -0.543557E-03  0.162E-02    0.18       1.0  T
  10   -117.8698795  0.265554E-05  0.156E-02    0.18       1.0  T
  11   -117.8699479 -0.684569E-04  0.319E-03    0.18       3.8  T
  12   -117.8699501 -0.213110E-05  0.151E-03    0.18       8.1  T
  13   -117.8699504 -0.346888E-06  0.952E-04    0.18      12.8  T
  14   -117.8699506 -0.221848E-06  0.381E-04    0.18      32.0  T
  15   -117.8699507 -0.246343E-07  0.230E-04    0.18      53.2  T
  16   -117.8699507 -0.783901E-08  0.150E-04    0.18      81.3  T
  17   -117.8699507 -0.311766E-08  0.105E-04    0.18     116.1  T
     SCC iter.                  ...        0 min,  2.208 sec
     gradient                   ...        0 min,  0.093 sec
 * total energy  :  -116.9821832 Eh     change       -0.2760550E-03 Eh
   gradient norm :     0.0087745 Eh/α   predicted    -0.3185075E-03 (  15.38%)
   displ. norm   :     0.3452127 α      lambda       -0.2734217E-03
   maximum displ.:     0.1446509 α      in ANC's #6, #12, #8, ...

........................................................................
.............................. CYCLE   38 ..............................
........................................................................

 iter      E             dE          RMSdq      gap      omega  full diag
   1   -117.8677534 -0.117868E+03  0.521E-02    0.17       0.0  T
   2   -117.0531479  0.814605E+00  0.166E+00    0.20       1.0  T
   3   -117.8260715 -0.772924E+00  0.376E-01    0.18       1.0  T
   4   -117.8656420 -0.395706E-01  0.101E-01    0.17       1.0  T
   5   -117.8181657  0.474763E-01  0.426E-01    0.18       1.0  T
   6   -117.8682192 -0.500535E-01  0.351E-02    0.17       1.0  T
   7   -117.8662889  0.193032E-02  0.888E-02    0.18       1.0  T
   8   -117.8678247 -0.153581E-02  0.501E-02    0.17       1.0  T
   9   -117.8682976 -0.472916E-03  0.265E-02    0.17       1.0  T
  10   -117.8684353 -0.137627E-03  0.154E-02    0.17       1.0  T
  11   -117.8684797 -0.444854E-04  0.907E-03    0.17       1.3  T
  12   -117.8685022 -0.224920E-04  0.190E-03    0.17       6.4  T
  13   -117.8685031 -0.903537E-06  0.728E-04    0.17      16.8  T
  14   -117.8685032 -0.880413E-07  0.488E-04    0.17      25.0  T
  15   -117.8685033 -0.528665E-07  0.209E-04    0.17      58.4  T
  16   -117.8685033 -0.864200E-08  0.103E-04    0.17     118.2  T
  17   -117.8685033 -0.208335E-08  0.559E-05    0.17     218.5  T
     SCC iter.                  ...        0 min,  2.250 sec
     gradient                   ...        0 min,  0.114 sec
 * total energy  :  -116.9823663 Eh     change       -0.1831704E-03 Eh
   gradient norm :     0.0066118 Eh/α   predicted    -0.1530036E-03 ( -16.47%)
   displ. norm   :     0.2951225 α      lambda       -0.2876596E-03
   maximum displ.:     0.1322027 α      in ANC's #6, #12, #14, ...

........................................................................
.............................. CYCLE   39 ..............................
........................................................................

 iter      E             dE          RMSdq      gap      omega  full diag
   1   -117.8717919 -0.117872E+03  0.484E-02    0.17       0.0  T
   2   -116.5885953  0.128320E+01  0.206E+00    0.19       1.0  T
   3   -117.8693791 -0.128078E+01  0.105E-01    0.18       1.0  T
   4   -117.8083421  0.610370E-01  0.465E-01    0.17       1.0  T
   5   -117.8559606 -0.476185E-01  0.242E-01    0.18       1.0  T
   6   -117.8695617 -0.136011E-01  0.103E-01    0.17       1.0  T
   7   -117.8709366 -0.137482E-02  0.758E-02    0.18       1.0  T
   8   -117.8710747 -0.138170E-03  0.713E-02    0.17       1.0  T
   9   -117.8722776 -0.120288E-02  0.246E-02    0.18       1.0  T
  10   -117.8724366 -0.159008E-03  0.880E-03    0.17       1.4  T
  11   -117.8724394 -0.280791E-05  0.805E-03    0.17       1.5  T
  12   -117.8724572 -0.177712E-04  0.207E-03    0.17       5.9  T
  13   -117.8724573 -0.150334E-06  0.191E-03    0.17       6.4  T
  14   -117.8724577 -0.332680E-06  0.156E-03    0.17       7.8  T
  15   -117.8724582 -0.573519E-06  0.560E-04    0.17      21.8  T
  16   -117.8724583 -0.696371E-07  0.228E-04    0.17      53.6  T
  17   -117.8724583 -0.133417E-07  0.577E-05    0.17     211.7  T
  18   -117.8724583 -0.744834E-09  0.225E-05    0.17     542.2  T
     SCC iter.                  ...        0 min,  2.332 sec
     gradient                   ...        0 min,  0.097 sec
 * total energy  :  -116.9825170 Eh     change       -0.1506720E-03 Eh
   gradient norm :     0.0056673 Eh/α   predicted    -0.1563621E-03 (   3.78%)
   displ. norm   :     0.4910012 α      lambda       -0.2894218E-03
   maximum displ.:     0.2026789 α      in ANC's #6, #19, #12, ...

........................................................................
.............................. CYCLE   40 ..............................
........................................................................

 iter      E             dE          RMSdq      gap      omega  full diag
   1   -117.8686833 -0.117869E+03  0.453E-02    0.17       0.0  T
   2   -117.1454924  0.723191E+00  0.158E+00    0.21       1.0  T
   3   -117.8621797 -0.716687E+00  0.153E-01    0.18       1.0  T
   4   -117.8535207  0.865905E-02  0.231E-01    0.17       1.0  T
   5   -117.8517895  0.173122E-02  0.248E-01    0.17       1.0  T
   6   -117.8678095 -0.160200E-01  0.740E-02    0.17       1.0  T
   7   -117.8678522 -0.427566E-04  0.700E-02    0.17       1.0  T
   8   -117.8691031 -0.125083E-02  0.212E-02    0.17       1.0  T
   9   -117.8692107 -0.107644E-03  0.798E-03    0.17       1.5  T
  10   -117.8692216 -0.109029E-04  0.477E-03    0.17       2.6  T
  11   -117.8692270 -0.538437E-05  0.177E-03    0.17       6.9  T
  12   -117.8692268  0.144287E-06  0.182E-03    0.17       6.7  T
  13   -117.8692274 -0.605546E-06  0.110E-03    0.17      11.2  T
  14   -117.8692277 -0.217918E-06  0.648E-04    0.17      18.8  T
  15   -117.8692278 -0.107138E-06  0.221E-04    0.17      55.3  T
  16   -117.8692278 -0.118307E-07  0.772E-05    0.17     158.2  T
  17   -117.8692278 -0.157048E-08  0.248E-05    0.17     491.9  T
     SCC iter.                  ...        0 min,  2.203 sec
     gradient                   ...        0 min,  0.107 sec
 * total energy  :  -116.9827078 Eh     change       -0.1908137E-03 Eh
   gradient norm :     0.0064771 Eh/α   predicted    -0.1795985E-03 (  -5.88%)
   displ. norm   :     0.3730588 α      lambda       -0.2814896E-03
   maximum displ.:     0.1541001 α      in ANC's #6, #12, #14, ...

........................................................................
.............................. CYCLE   41 ..............................
........................................................................

 iter      E             dE          RMSdq      gap      omega  full diag
   1   -117.8694268 -0.117869E+03  0.373E-02    0.17       0.0  T
   2   -117.4627511  0.406676E+00  0.120E+00    0.20       1.0  T
   3   -117.8626372 -0.399886E+00  0.154E-01    0.17       1.0  T
   4   -117.8641641 -0.152697E-02  0.141E-01    0.16       1.0  T
   5   -117.8429621  0.212020E-01  0.307E-01    0.18       1.0  T
   6   -117.8685696 -0.256075E-01  0.663E-02    0.17       1.0  T
   7   -117.8650606  0.350900E-02  0.128E-01    0.17       1.0  T
   8   -117.8692279 -0.416726E-02  0.440E-02    0.17       1.0  T
   9   -117.8696105 -0.382633E-03  0.235E-02    0.17       1.0  T
  10   -117.8697214 -0.110944E-03  0.131E-02    0.17       1.0  T
  11   -117.8697642 -0.427698E-04  0.531E-03    0.17       2.3  T
  12   -117.8697705 -0.633240E-05  0.228E-03    0.17       5.4  T
  13   -117.8697706 -0.272196E-07  0.220E-03    0.17       5.6  T
  14   -117.8697716 -0.100312E-05  0.114E-03    0.17      10.7  T
  15   -117.8697719 -0.356771E-06  0.215E-04    0.17      56.7  T
  16   -117.8697719 -0.121607E-07  0.628E-05    0.17     194.5  T
  17   -117.8697719 -0.553243E-09  0.435E-05    0.17     281.2  T
     SCC iter.                  ...        0 min,  2.197 sec
     gradient                   ...        0 min,  0.098 sec
 * total energy  :  -116.9829138 Eh     change       -0.2059768E-03 Eh
   gradient norm :     0.0059853 Eh/α   predicted    -0.1603348E-03 ( -22.16%)
   displ. norm   :     0.3882629 α      lambda       -0.2997836E-03
   maximum displ.:     0.1514855 α      in ANC's #14, #6, #12, ...

........................................................................
.............................. CYCLE   42 ..............................
........................................................................

 iter      E             dE          RMSdq      gap      omega  full diag
   1   -117.8704114 -0.117870E+03  0.492E-02    0.16       0.0  T
   2   -117.0717388  0.798673E+00  0.167E+00    0.15       1.0  T
   3   -117.8489649 -0.777226E+00  0.270E-01    0.16       1.0  T
   4   -117.8504683 -0.150346E-02  0.262E-01    0.17       1.0  T
   5   -117.8250837  0.253846E-01  0.407E-01    0.16       1.0  T
   6   -117.8683771 -0.432934E-01  0.996E-02    0.16       1.0  T
   7   -117.8588394  0.953764E-02  0.208E-01    0.17       1.0  T
   8   -117.8701245 -0.112851E-01  0.576E-02    0.16       1.0  T
   9   -117.8709363 -0.811843E-03  0.198E-02    0.16       1.0  T
  10   -117.8709910 -0.546675E-04  0.138E-02    0.16       1.0  T
  11   -117.8710361 -0.451352E-04  0.602E-03    0.16       2.0  T
  12   -117.8710446 -0.849853E-05  0.227E-03    0.16       5.4  T
  13   -117.8710460 -0.134972E-05  0.627E-04    0.16      19.5  T
  14   -117.8710460 -0.535554E-07  0.451E-04    0.16      27.1  T
  15   -117.8710461 -0.351451E-07  0.278E-04    0.16      44.0  T
  16   -117.8710461 -0.199313E-07  0.955E-05    0.16     127.9  T
  17   -117.8710461 -0.195904E-08  0.471E-05    0.16     259.5  T
     SCC iter.                  ...        0 min,  2.104 sec
     gradient                   ...        0 min,  0.100 sec
 * total energy  :  -116.9831275 Eh     change       -0.2136602E-03 Eh
   gradient norm :     0.0050478 Eh/α   predicted    -0.1724936E-03 ( -19.27%)
   displ. norm   :     0.4830030 α      lambda       -0.2255018E-03
   maximum displ.:     0.2048240 α      in ANC's #6, #12, #14, ...
 * RMSD in coord.:     0.9702403 α      energy gain  -0.2233682E-01 Eh

generating ANC from model Hessian ...
Using Lindh-Hessian (1995)
 Shifting diagonal of input Hessian by    1.0438944716710065E-002
 Lowest  eigenvalues of input Hessian
    0.010000    0.010319    0.010386    0.010424    0.000000    0.000000
    0.000000    0.000000    0.000000    0.000000    0.010467    0.010478
    0.010530    0.010592    0.010607    0.010633    0.010756    0.010865
 Highest eigenvalues
    1.641925    1.854034    1.932535    2.053491    2.153261    2.442660


........................................................................
.............................. CYCLE   43 ..............................
........................................................................

 iter      E             dE          RMSdq      gap      omega  full diag
   1   -117.8679309 -0.117868E+03  0.551E-02    0.15       0.0  T
   2   -116.3777806  0.149015E+01  0.226E+00    0.16       1.0  T
   3   -117.8408821 -0.146310E+01  0.312E-01    0.16       1.0  T
   4   -117.8518767 -0.109946E-01  0.238E-01    0.16       1.0  T
   5   -117.7574921  0.943846E-01  0.618E-01    0.15       1.0  T
   6   -117.8656995 -0.108207E+00  0.108E-01    0.16       1.0  T
   7   -117.8679566 -0.225704E-02  0.534E-02    0.16       1.0  T
   8   -117.8616332  0.632340E-02  0.159E-01    0.16       1.0  T
   9   -117.8686857 -0.705252E-02  0.163E-02    0.16       1.0  T
  10   -117.8686847  0.966883E-06  0.162E-02    0.16       1.0  T
  11   -117.8687296 -0.448419E-04  0.104E-02    0.16       1.2  T
  12   -117.8687514 -0.218750E-04  0.550E-03    0.16       2.2  T
  13   -117.8687590 -0.754230E-05  0.191E-03    0.16       6.4  T
  14   -117.8687596 -0.624465E-06  0.111E-03    0.16      11.0  T
  15   -117.8687598 -0.224603E-06  0.626E-04    0.16      19.5  T
  16   -117.8687599 -0.791595E-07  0.288E-04    0.16      42.5  T
  17   -117.8687599 -0.197932E-07  0.878E-05    0.16     139.1  T
  18   -117.8687599 -0.168862E-08  0.372E-05    0.16     328.0  T
     SCC iter.                  ...        0 min,  2.240 sec
     gradient                   ...        0 min,  0.085 sec
 * total energy  :  -116.9832945 Eh     change       -0.1670681E-03 Eh
   gradient norm :     0.0060611 Eh/α   predicted     0.0000000E+00 (-100.00%)
   displ. norm   :     0.1075517 α      lambda       -0.2587553E-03
   maximum displ.:     0.0393805 α      in ANC's #43, #32, #48, ...

........................................................................
.............................. CYCLE   44 ..............................
........................................................................

 iter      E             dE          RMSdq      gap      omega  full diag
   1   -117.8694256 -0.117869E+03  0.595E-02    0.16       0.0  T
   2   -113.8352989  0.403413E+01  0.353E+00    0.09       1.0  T
   3   -117.7593921 -0.392409E+01  0.633E-01    0.18       1.0  T
   4   -117.8680785 -0.108686E+00  0.940E-02    0.16       1.0  T
   5   -117.6302018  0.237877E+00  0.917E-01    0.17       1.0  T
   6   -117.8695103 -0.239308E+00  0.627E-02    0.16       1.0  T
   7   -117.8650833  0.442704E-02  0.139E-01    0.16       1.0  T
   8   -117.8700806 -0.499736E-02  0.410E-02    0.16       1.0  T
   9   -117.8703238 -0.243198E-03  0.289E-02    0.16       1.0  T
  10   -117.8704648 -0.140943E-03  0.181E-02    0.16       1.0  T
  11   -117.8705147 -0.499862E-04  0.118E-02    0.16       1.0  T
  12   -117.8705464 -0.316519E-04  0.459E-03    0.16       2.7  T
  13   -117.8705516 -0.522008E-05  0.130E-03    0.16       9.4  T
  14   -117.8705520 -0.392836E-06  0.627E-04    0.16      19.5  T
  15   -117.8705520 -0.426302E-07  0.488E-04    0.16      25.1  T
  16   -117.8705521 -0.412717E-07  0.299E-04    0.16      40.9  T
  17   -117.8705521 -0.169680E-07  0.172E-04    0.16      71.2  T
  18   -117.8705521 -0.539390E-08  0.101E-04    0.16     121.5  T
     SCC iter.                  ...        0 min,  2.238 sec
     gradient                   ...        0 min,  0.084 sec
 * total energy  :  -116.9829681 Eh     change        0.3264654E-03 Eh
   gradient norm :     0.0138360 Eh/α   predicted    -0.1310903E-03 (-140.15%)
   displ. norm   :     0.0941377 α      lambda       -0.9174939E-03
   maximum displ.:     0.0337569 α      in ANC's #43, #48, #20, ...

........................................................................
.............................. CYCLE   45 ..............................
........................................................................

 iter      E             dE          RMSdq      gap      omega  full diag
   1   -117.8729284 -0.117873E+03  0.536E-02    0.16       0.0  T
   2   -116.6669106  0.120602E+01  0.203E+00    0.13       1.0  T
   3   -117.7423877 -0.107548E+01  0.677E-01    0.14       1.0  T
   4   -117.8677626 -0.125375E+00  0.141E-01    0.16       1.0  T
   5   -117.8314861  0.362764E-01  0.384E-01    0.16       1.0  T
   6   -117.8672067 -0.357205E-01  0.153E-01    0.16       1.0  T
   7   -117.8717876 -0.458098E-02  0.866E-02    0.16       1.0  T
   8   -117.8735747 -0.178709E-02  0.273E-02    0.16       1.0  T
   9   -117.8736426 -0.678880E-04  0.216E-02    0.16       1.0  T
  10   -117.8737288 -0.862366E-04  0.133E-02    0.16       1.0  T
  11   -117.8737643 -0.354291E-04  0.730E-03    0.16       1.7  T
  12   -117.8737770 -0.127095E-04  0.305E-03    0.16       4.0  T
  13   -117.8737783 -0.133065E-05  0.212E-03    0.16       5.8  T
  14   -117.8737793 -0.974368E-06  0.100E-03    0.16      12.2  T
  15   -117.8737794 -0.138939E-06  0.696E-04    0.16      17.6  T
  16   -117.8737795 -0.115853E-06  0.277E-04    0.16      44.2  T
  17   -117.8737796 -0.173467E-07  0.123E-04    0.16      99.6  T
  18   -117.8737796 -0.366008E-08  0.508E-05    0.16     240.6  T
     SCC iter.                  ...        0 min,  2.340 sec
     gradient                   ...        0 min,  0.082 sec
 * total energy  :  -116.9834450 Eh     change       -0.4769415E-03 Eh
   gradient norm :     0.0022965 Eh/α   predicted    -0.4628145E-03 (  -2.96%)
   displ. norm   :     0.0797821 α      lambda       -0.7277724E-04
   maximum displ.:     0.0372111 α      in ANC's #20, #23, #22, ...

........................................................................
.............................. CYCLE   46 ..............................
........................................................................

 iter      E             dE          RMSdq      gap      omega  full diag
   1   -117.8727840 -0.117873E+03  0.170E-02    0.16       0.0  T
   2   -117.7473134  0.125471E+00  0.661E-01    0.18       1.0  T
   3   -117.8714913 -0.124178E+00  0.694E-02    0.16       1.0  T
   4   -117.8711620  0.329346E-03  0.766E-02    0.16       1.0  T
   5   -117.8659310  0.523096E-02  0.151E-01    0.16       1.0  T
   6   -117.8727696 -0.683859E-02  0.198E-02    0.16       1.0  T
   7   -117.8728433 -0.737262E-04  0.896E-03    0.16       1.4  T
   8   -117.8724214  0.421895E-03  0.398E-02    0.16       1.0  T
   9   -117.8728564 -0.434971E-03  0.493E-03    0.16       2.5  T
  10   -117.8728613 -0.487033E-05  0.288E-03    0.16       4.2  T
  11   -117.8728634 -0.211776E-05  0.106E-03    0.16      11.5  T
  12   -117.8728637 -0.284191E-06  0.371E-04    0.16      32.9  T
  13   -117.8728637 -0.297785E-07  0.187E-04    0.16      65.2  T
  14   -117.8728637 -0.823235E-08  0.861E-05    0.16     141.9  T
     SCC iter.                  ...        0 min,  1.792 sec
     gradient                   ...        0 min,  0.107 sec
 * total energy  :  -116.9835063 Eh     change       -0.6134347E-04 Eh
   gradient norm :     0.0013447 Eh/α   predicted    -0.3662067E-04 ( -40.30%)
   displ. norm   :     0.5172250 α      lambda       -0.2264104E-03
   maximum displ.:     0.2344321 α      in ANC's #20, #23, #22, ...

........................................................................
.............................. CYCLE   47 ..............................
........................................................................

 iter      E             dE          RMSdq      gap      omega  full diag
   1   -117.8657598 -0.117866E+03  0.863E-02    0.16       0.0  T
   2   -114.1505873  0.371517E+01  0.355E+00    0.13       1.0  T
   3   -117.7911187 -0.364053E+01  0.505E-01    0.16       1.0  T
   4   -117.8417861 -0.506674E-01  0.292E-01    0.16       1.0  T
   5   -117.6638074  0.177979E+00  0.840E-01    0.13       1.0  T
   6   -117.8599131 -0.196106E+00  0.171E-01    0.16       1.0  T
   7   -117.8497138  0.101992E-01  0.255E-01    0.15       1.0  T
   8   -117.8675630 -0.178491E-01  0.382E-02    0.16       1.0  T
   9   -117.8678110 -0.248034E-03  0.168E-02    0.16       1.0  T
  10   -117.8678200 -0.899431E-05  0.157E-02    0.16       1.0  T
  11   -117.8678701 -0.500637E-04  0.805E-03    0.16       1.5  T
  12   -117.8678843 -0.142000E-04  0.313E-03    0.16       3.9  T
  13   -117.8678867 -0.243649E-05  0.111E-03    0.16      11.0  T
  14   -117.8678869 -0.220282E-06  0.659E-04    0.16      18.5  T
  15   -117.8678870 -0.527110E-07  0.479E-04    0.16      25.5  T
  16   -117.8678870 -0.432812E-07  0.268E-04    0.16      45.6  T
  17   -117.8678870 -0.138379E-07  0.143E-04    0.16      85.2  T
  18   -117.8678870 -0.353997E-08  0.884E-05    0.16     138.1  T
     SCC iter.                  ...        0 min,  2.322 sec
     gradient                   ...        0 min,  0.102 sec
 * total energy  :  -116.9836840 Eh     change       -0.1776642E-03 Eh
   gradient norm :     0.0066581 Eh/α   predicted    -0.1266692E-03 ( -28.70%)
   displ. norm   :     0.1296108 α      lambda       -0.1048921E-03
   maximum displ.:     0.0598670 α      in ANC's #20, #23, #6, ...

........................................................................
.............................. CYCLE   48 ..............................
........................................................................

 iter      E             dE          RMSdq      gap      omega  full diag
   1   -117.8693492 -0.117869E+03  0.208E-02    0.16       0.0  T
   2   -117.6930505  0.176299E+00  0.796E-01    0.14       1.0  T
   3   -117.8574262 -0.164376E+00  0.197E-01    0.16       1.0  T
   4   -117.8689790 -0.115528E-01  0.402E-02    0.16       1.0  T
   5   -117.8563074  0.126716E-01  0.218E-01    0.16       1.0  T
   6   -117.8690907 -0.127833E-01  0.375E-02    0.16       1.0  T
   7   -117.8683403  0.750384E-03  0.630E-02    0.16       1.0  T
   8   -117.8694415 -0.110114E-02  0.907E-03    0.16       1.3  T
   9   -117.8694596 -0.180922E-04  0.410E-03    0.16       3.0  T
  10   -117.8694607 -0.109205E-05  0.345E-03    0.16       3.5  T
  11   -117.8694633 -0.262461E-05  0.153E-03    0.16       8.0  T
  12   -117.8694639 -0.603650E-06  0.288E-04    0.16      42.4  T
  13   -117.8694639 -0.134813E-07  0.181E-04    0.16      67.4  T
  14   -117.8694639 -0.402203E-08  0.134E-04    0.16      90.9  T
     SCC iter.                  ...        0 min,  1.743 sec
     gradient                   ...        0 min,  0.102 sec
 * total energy  :  -116.9837734 Eh     change       -0.8940871E-04 Eh
   gradient norm :     0.0045563 Eh/α   predicted    -0.5332895E-04 ( -40.35%)
   displ. norm   :     0.3611102 α      lambda       -0.2311746E-03
   maximum displ.:     0.1630855 α      in ANC's #20, #23, #6, ...

........................................................................
.............................. CYCLE   49 ..............................
........................................................................

 iter      E             dE          RMSdq      gap      omega  full diag
   1   -117.8710926 -0.117871E+03  0.585E-02    0.15       0.0  T
   2   -116.1311188  0.173997E+01  0.241E+00    0.14       1.0  T
   3   -117.7730322 -0.164191E+01  0.600E-01    0.13       1.0  T
   4   -117.8659539 -0.929218E-01  0.146E-01    0.16       1.0  T
   5   -117.7651807  0.100773E+00  0.596E-01    0.16       1.0  T
   6   -117.8690302 -0.103849E+00  0.105E-01    0.15       1.0  T
   7   -117.8606984  0.833184E-02  0.201E-01    0.15       1.0  T
   8   -117.8718562 -0.111578E-01  0.289E-02    0.15       1.0  T
   9   -117.8720373 -0.181119E-03  0.117E-02    0.15       1.0  T
  10   -117.8720708 -0.334441E-04  0.501E-03    0.15       2.4  T
  11   -117.8720735 -0.273831E-05  0.375E-03    0.15       3.3  T
  12   -117.8720767 -0.315470E-05  0.148E-03    0.15       8.3  T
  13   -117.8720770 -0.327928E-06  0.961E-04    0.15      12.7  T
  14   -117.8720772 -0.153072E-06  0.599E-04    0.15      20.4  T
  15   -117.8720772 -0.567634E-07  0.387E-04    0.15      31.6  T
  16   -117.8720772 -0.287558E-07  0.212E-04    0.15      57.6  T
  17   -117.8720772 -0.783903E-08  0.125E-04    0.15      97.8  T
  18   -117.8720773 -0.359863E-08  0.511E-05    0.15     239.1  T
     SCC iter.                  ...        0 min,  2.293 sec
     gradient                   ...        0 min,  0.120 sec
 * total energy  :  -116.9839357 Eh     change       -0.1622966E-03 Eh
   gradient norm :     0.0017708 Eh/α   predicted    -0.1306624E-03 ( -19.49%)
   displ. norm   :     0.6070834 α      lambda       -0.1365941E-03
   maximum displ.:     0.2672638 α      in ANC's #20, #6, #23, ...

........................................................................
.............................. CYCLE   50 ..............................
........................................................................

 iter      E             dE          RMSdq      gap      omega  full diag
   1   -117.8675763 -0.117868E+03  0.894E-02    0.15       0.0  T
   2   -112.8298453  0.503773E+01  0.404E+00    0.15       1.0  T
   3   -117.6446095 -0.481476E+01  0.911E-01    0.12       1.0  T
   4   -117.8631928 -0.218583E+00  0.159E-01    0.16       1.0  T
   5   -117.6283714  0.234821E+00  0.890E-01    0.15       1.0  T
   6   -117.8402084 -0.211837E+00  0.321E-01    0.15       1.0  T
   7   -117.8345773  0.563109E-02  0.354E-01    0.15       1.0  T
   8   -117.8693314 -0.347541E-01  0.467E-02    0.15       1.0  T
   9   -117.8698781 -0.546733E-03  0.123E-02    0.15       1.0  T
  10   -117.8698611  0.170495E-04  0.140E-02    0.15       1.0  T
  11   -117.8698921 -0.310553E-04  0.939E-03    0.15       1.3  T
  12   -117.8699059 -0.137464E-04  0.598E-03    0.15       2.0  T
  13   -117.8699144 -0.853526E-05  0.232E-03    0.15       5.3  T
  14   -117.8699151 -0.649221E-06  0.168E-03    0.15       7.3  T
  15   -117.8699156 -0.520563E-06  0.966E-04    0.15      12.7  T
  16   -117.8699158 -0.210729E-06  0.391E-04    0.15      31.2  T
  17   -117.8699158 -0.331945E-07  0.177E-04    0.15      68.9  T
  18   -117.8699158 -0.628394E-08  0.896E-05    0.15     136.3  T
     SCC iter.                  ...        0 min,  2.367 sec
     gradient                   ...        0 min,  0.106 sec
 * total energy  :  -116.9840604 Eh     change       -0.1246596E-03 Eh
   gradient norm :     0.0055506 Eh/α   predicted    -0.7948958E-04 ( -36.23%)
   displ. norm   :     0.2417770 α      lambda       -0.1318259E-03
   maximum displ.:     0.0953718 α      in ANC's #6, #18, #20, ...

........................................................................
.............................. CYCLE   51 ..............................
........................................................................

 iter      E             dE          RMSdq      gap      omega  full diag
   1   -117.8721200 -0.117872E+03  0.439E-02    0.15       0.0  T
   2   -116.9035585  0.968562E+00  0.178E+00    0.16       1.0  T
   3   -117.8531795 -0.949621E+00  0.264E-01    0.14       1.0  T
   4   -117.8689831 -0.158036E-01  0.115E-01    0.15       1.0  T
   5   -117.8344456  0.345375E-01  0.366E-01    0.16       1.0  T
   6   -117.8712178 -0.367722E-01  0.738E-02    0.15       1.0  T
   7   -117.8693469  0.187088E-02  0.110E-01    0.15       1.0  T
   8   -117.8726239 -0.327698E-02  0.200E-02    0.15       1.0  T
   9   -117.8727006 -0.767391E-04  0.825E-03    0.15       1.5  T
  10   -117.8727078 -0.713688E-05  0.650E-03    0.15       1.9  T
  11   -117.8727190 -0.112391E-04  0.222E-03    0.15       5.5  T
  12   -117.8727202 -0.114900E-05  0.761E-04    0.15      16.1  T
  13   -117.8727202 -0.449927E-07  0.637E-04    0.15      19.2  T
  14   -117.8727203 -0.633714E-07  0.436E-04    0.15      28.0  T
  15   -117.8727203 -0.486251E-07  0.157E-04    0.15      78.0  T
  16   -117.8727203 -0.565250E-08  0.708E-05    0.15     172.5  T
     SCC iter.                  ...        0 min,  2.041 sec
     gradient                   ...        0 min,  0.091 sec
 * total energy  :  -116.9841586 Eh     change       -0.9820848E-04 Eh
   gradient norm :     0.0032100 Eh/α   predicted    -0.6976678E-04 ( -28.96%)
   displ. norm   :     0.4242265 α      lambda       -0.1521174E-03
   maximum displ.:     0.1709143 α      in ANC's #6, #18, #20, ...

........................................................................
.............................. CYCLE   52 ..............................
........................................................................

 iter      E             dE          RMSdq      gap      omega  full diag
   1   -117.8712349 -0.117871E+03  0.628E-02    0.15       0.0  T
   2   -115.8353745  0.203586E+01  0.258E+00    0.15       1.0  T
   3   -117.8480861 -0.201271E+01  0.295E-01    0.14       1.0  T
   4   -117.8646399 -0.165538E-01  0.168E-01    0.16       1.0  T
   5   -117.7921555  0.724843E-01  0.530E-01    0.14       1.0  T
   6   -117.8661918 -0.740362E-01  0.147E-01    0.15       1.0  T
   7   -117.8553244  0.108674E-01  0.247E-01    0.15       1.0  T
   8   -117.8723222 -0.169977E-01  0.238E-02    0.15       1.0  T
   9   -117.8724159 -0.937026E-04  0.119E-02    0.15       1.0  T
  10   -117.8724412 -0.253099E-04  0.768E-03    0.15       1.6  T
  11   -117.8724546 -0.133932E-04  0.374E-03    0.15       3.3  T
  12   -117.8724570 -0.241128E-05  0.222E-03    0.15       5.5  T
  13   -117.8724583 -0.138023E-05  0.455E-04    0.15      26.8  T
  14   -117.8724584 -0.475933E-07  0.202E-04    0.15      60.5  T
  15   -117.8724584 -0.505824E-08  0.149E-04    0.15      82.1  T
  16   -117.8724584 -0.492656E-08  0.667E-05    0.15     183.2  T
     SCC iter.                  ...        0 min,  2.075 sec
     gradient                   ...        0 min,  0.102 sec
 * total energy  :  -116.9842878 Eh     change       -0.1292433E-03 Eh
   gradient norm :     0.0034100 Eh/α   predicted    -0.8974952E-04 ( -30.56%)
   displ. norm   :     0.5385756 α      lambda       -0.2211194E-03
   maximum displ.:     0.2359322 α      in ANC's #6, #18, #5, ...

........................................................................
.............................. CYCLE   53 ..............................
........................................................................

 iter      E             dE          RMSdq      gap      omega  full diag
   1   -117.8705017 -0.117871E+03  0.666E-02    0.15       0.0  T
   2   -115.5004374  0.237006E+01  0.277E+00    0.17       1.0  T
   3   -117.8352040 -0.233477E+01  0.360E-01    0.15       1.0  T
   4   -117.8620945 -0.268905E-01  0.185E-01    0.15       1.0  T
   5   -117.7549525  0.107142E+00  0.639E-01    0.16       1.0  T
   6   -117.8694894 -0.114537E+00  0.922E-02    0.15       1.0  T
   7   -117.8570161  0.124733E-01  0.233E-01    0.16       1.0  T
   8   -117.8714580 -0.144419E-01  0.406E-02    0.15       1.0  T
   9   -117.8718143 -0.356260E-03  0.143E-02    0.15       1.0  T
  10   -117.8718670 -0.527330E-04  0.595E-03    0.15       2.1  T
  11   -117.8718710 -0.404215E-05  0.450E-03    0.15       2.7  T
  12   -117.8718760 -0.500280E-05  0.160E-03    0.15       7.6  T
  13   -117.8718767 -0.661624E-06  0.372E-04    0.15      32.8  T
  14   -117.8718767 -0.117595E-07  0.301E-04    0.15      40.7  T
  15   -117.8718767 -0.170848E-07  0.169E-04    0.15      72.3  T
  16   -117.8718767 -0.562557E-08  0.887E-05    0.15     137.8  T
     SCC iter.                  ...        0 min,  2.135 sec
     gradient                   ...        0 min,  0.093 sec
 * total energy  :  -116.9844639 Eh     change       -0.1760696E-03 Eh
   gradient norm :     0.0031831 Eh/α   predicted    -0.1426299E-03 ( -18.99%)
   displ. norm   :     0.4873593 α      lambda       -0.2024020E-03
   maximum displ.:     0.2268246 α      in ANC's #6, #18, #5, ...

........................................................................
.............................. CYCLE   54 ..............................
........................................................................

 iter      E             dE          RMSdq      gap      omega  full diag
   1   -117.8705038 -0.117871E+03  0.639E-02    0.15       0.0  T
   2   -115.0213075  0.284920E+01  0.303E+00    0.20       1.0  T
   3   -117.8370389 -0.281573E+01  0.345E-01    0.16       1.0  T
   4   -117.8510408 -0.140019E-01  0.271E-01    0.14       1.0  T
   5   -117.7760152  0.750255E-01  0.585E-01    0.16       1.0  T
   6   -117.8692200 -0.932047E-01  0.920E-02    0.15       1.0  T
   7   -117.8554082  0.138118E-01  0.239E-01    0.15       1.0  T
   8   -117.8714697 -0.160615E-01  0.354E-02    0.15       1.0  T
   9   -117.8717083 -0.238632E-03  0.113E-02    0.15       1.1  T
  10   -117.8717432 -0.348955E-04  0.374E-03    0.15       3.3  T
  11   -117.8717420  0.121901E-05  0.413E-03    0.15       3.0  T
  12   -117.8717455 -0.351361E-05  0.207E-03    0.15       5.9  T
  13   -117.8717466 -0.115983E-05  0.571E-04    0.15      21.4  T
  14   -117.8717467 -0.490139E-07  0.377E-04    0.15      32.4  T
  15   -117.8717467 -0.225064E-07  0.250E-04    0.15      48.9  T
  16   -117.8717467 -0.919395E-08  0.166E-04    0.15      73.6  T
  17   -117.8717467 -0.473977E-08  0.969E-05    0.15     126.0  T
     SCC iter.                  ...        0 min,  2.268 sec
     gradient                   ...        0 min,  0.104 sec
 * total energy  :  -116.9846268 Eh     change       -0.1628997E-03 Eh
   gradient norm :     0.0050872 Eh/α   predicted    -0.1252407E-03 ( -23.12%)
   displ. norm   :     0.5328434 α      lambda       -0.2416621E-03
   maximum displ.:     0.2550851 α      in ANC's #6, #18, #5, ...

........................................................................
.............................. CYCLE   55 ..............................
........................................................................

 iter      E             dE          RMSdq      gap      omega  full diag
   1   -117.8703360 -0.117870E+03  0.578E-02    0.16       0.0  T
   2   -115.4524963  0.241784E+01  0.280E+00    0.19       1.0  T
   3   -117.8520258 -0.239953E+01  0.261E-01    0.16       1.0  T
   4   -117.8461334  0.589242E-02  0.300E-01    0.15       1.0  T
   5   -117.7794288  0.667046E-01  0.553E-01    0.16       1.0  T
   6   -117.8688854 -0.894566E-01  0.935E-02    0.16       1.0  T
   7   -117.8566932  0.121922E-01  0.231E-01    0.16       1.0  T
   8   -117.8708001 -0.141069E-01  0.441E-02    0.16       1.0  T
   9   -117.8712431 -0.442967E-03  0.170E-02    0.16       1.0  T
  10   -117.8713145 -0.714018E-04  0.664E-03    0.16       1.8  T
  11   -117.8713204 -0.592863E-05  0.464E-03    0.16       2.6  T
  12   -117.8713243 -0.393701E-05  0.256E-03    0.16       4.8  T
  13   -117.8713256 -0.129437E-05  0.126E-03    0.16       9.7  T
  14   -117.8713258 -0.168507E-06  0.990E-04    0.16      12.3  T
  15   -117.8713260 -0.157964E-06  0.615E-04    0.16      19.9  T
  16   -117.8713260 -0.567989E-07  0.403E-04    0.16      30.3  T
  17   -117.8713260 -0.308466E-07  0.212E-04    0.16      57.6  T
  18   -117.8713261 -0.950554E-08  0.934E-05    0.16     130.8  T
  19   -117.8713261 -0.221698E-08  0.164E-05    0.16     744.5  T
     SCC iter.                  ...        0 min,  2.473 sec
     gradient                   ...        0 min,  0.119 sec
 * total energy  :  -116.9848040 Eh     change       -0.1771826E-03 Eh
   gradient norm :     0.0067018 Eh/α   predicted    -0.1551383E-03 ( -12.44%)
   displ. norm   :     0.5870252 α      lambda       -0.3291591E-03
   maximum displ.:     0.2819100 α      in ANC's #6, #18, #5, ...

........................................................................
.............................. CYCLE   56 ..............................
........................................................................

 iter      E             dE          RMSdq      gap      omega  full diag
   1   -117.8672514 -0.117867E+03  0.868E-02    0.16       0.0  T
   2   -113.3841392  0.448311E+01  0.380E+00    0.24       1.0  T
   3   -117.7680000 -0.438386E+01  0.605E-01    0.18       1.0  T
   4   -117.8448461 -0.768461E-01  0.298E-01    0.15       1.0  T
   5   -117.6169077  0.227938E+00  0.918E-01    0.16       1.0  T
   6   -117.8624009 -0.245493E+00  0.154E-01    0.16       1.0  T
   7   -117.8447137  0.176872E-01  0.297E-01    0.16       1.0  T
   8   -117.8684898 -0.237762E-01  0.603E-02    0.16       1.0  T
   9   -117.8693110 -0.821193E-03  0.200E-02    0.16       1.0  T
  10   -117.8694064 -0.953561E-04  0.837E-03    0.16       1.5  T
  11   -117.8694221 -0.157766E-04  0.359E-03    0.16       3.4  T
  12   -117.8694237 -0.151176E-05  0.246E-03    0.16       5.0  T
  13   -117.8694251 -0.143174E-05  0.913E-04    0.16      13.4  T
  14   -117.8694252 -0.126065E-06  0.597E-04    0.16      20.5  T
  15   -117.8694253 -0.353438E-07  0.475E-04    0.16      25.7  T
  16   -117.8694253 -0.285637E-07  0.345E-04    0.16      35.4  T
  17   -117.8694253 -0.191579E-07  0.215E-04    0.16      56.8  T
  18   -117.8694253 -0.896756E-08  0.110E-04    0.16     111.3  T
  19   -117.8694253 -0.261704E-08  0.461E-05    0.16     265.1  T
     SCC iter.                  ...        0 min,  2.342 sec
     gradient                   ...        0 min,  0.075 sec
 * total energy  :  -116.9850336 Eh     change       -0.2296518E-03 Eh
   gradient norm :     0.0093444 Eh/α   predicted    -0.2212951E-03 (  -3.64%)
   displ. norm   :     0.4565247 α      lambda       -0.3551959E-03
   maximum displ.:     0.1840091 α      in ANC's #6, #19, #10, ...

........................................................................
.............................. CYCLE   57 ..............................
........................................................................

 iter      E             dE          RMSdq      gap      omega  full diag
   1   -117.8764521 -0.117876E+03  0.787E-02    0.16       0.0  T
   2   -115.4451507  0.243130E+01  0.290E+00    0.17       1.0  T
   3   -117.8009816 -0.235583E+01  0.501E-01    0.16       1.0  T
   4   -117.8650457 -0.640641E-01  0.206E-01    0.16       1.0  T
   5   -117.7247818  0.140264E+00  0.736E-01    0.14       1.0  T
   6   -117.8730894 -0.148308E+00  0.134E-01    0.16       1.0  T
   7   -117.8591370  0.139525E-01  0.265E-01    0.15       1.0  T
   8   -117.8774581 -0.183211E-01  0.533E-02    0.16       1.0  T
   9   -117.8780151 -0.557026E-03  0.265E-02    0.16       1.0  T
  10   -117.8781324 -0.117242E-03  0.160E-02    0.16       1.0  T
  11   -117.8781910 -0.586386E-04  0.709E-03    0.16       1.7  T
  12   -117.8782023 -0.112660E-04  0.240E-03    0.16       5.1  T
  13   -117.8782039 -0.164728E-05  0.452E-04    0.16      27.0  T
  14   -117.8782039  0.195523E-07  0.499E-04    0.16      24.5  T
  15   -117.8782040 -0.636994E-07  0.179E-04    0.16      68.3  T
  16   -117.8782040 -0.752350E-08  0.671E-05    0.16     182.2  T
     SCC iter.                  ...        0 min,  2.035 sec
     gradient                   ...        0 min,  0.094 sec
 * total energy  :  -116.9851274 Eh     change       -0.9372582E-04 Eh
   gradient norm :     0.0112167 Eh/α   predicted    -0.2146135E-03 ( 128.98%)
   displ. norm   :     0.5168104 α      lambda       -0.6090521E-03
   maximum displ.:     0.2418644 α      in ANC's #6, #18, #20, ...

........................................................................
.............................. CYCLE   58 ..............................
........................................................................

 iter      E             dE          RMSdq      gap      omega  full diag
   1   -117.8699225 -0.117870E+03  0.740E-02    0.16       0.0  T
   2   -115.6791964  0.219073E+01  0.275E+00    0.20       1.0  T
   3   -117.8439390 -0.216474E+01  0.301E-01    0.17       1.0  T
   4   -117.8550872 -0.111482E-01  0.236E-01    0.15       1.0  T
   5   -117.7172211  0.137866E+00  0.738E-01    0.16       1.0  T
   6   -117.8704193 -0.153198E+00  0.614E-02    0.16       1.0  T
   7   -117.8644689  0.595045E-02  0.157E-01    0.16       1.0  T
   8   -117.8706293 -0.616040E-02  0.552E-02    0.16       1.0  T
   9   -117.8713914 -0.762127E-03  0.119E-02    0.16       1.0  T
  10   -117.8714243 -0.329161E-04  0.465E-03    0.16       2.6  T
  11   -117.8714214  0.291863E-05  0.543E-03    0.16       2.3  T
  12   -117.8714288 -0.739963E-05  0.200E-03    0.16       6.1  T
  13   -117.8714299 -0.105147E-05  0.525E-04    0.16      23.3  T
  14   -117.8714297  0.182494E-06  0.976E-04    0.16      12.5  T
  15   -117.8714297 -0.745128E-07  0.829E-04    0.16      14.7  T
  16   -117.8714299 -0.180164E-06  0.247E-04    0.16      49.5  T
  17   -117.8714299 -0.172036E-07  0.347E-05    0.16     351.6  T
  18   -117.8714299  0.204906E-09  0.453E-05    0.16     269.6  T
     SCC iter.                  ...        0 min,  2.298 sec
     gradient                   ...        0 min,  0.090 sec
 * total energy  :  -116.9854895 Eh     change       -0.3621412E-03 Eh
   gradient norm :     0.0066869 Eh/α   predicted    -0.3858671E-03 (   6.55%)
   displ. norm   :     0.4964034 α      lambda       -0.2629370E-03
   maximum displ.:     0.2476147 α      in ANC's #6, #5, #10, ...

........................................................................
.............................. CYCLE   59 ..............................
........................................................................

 iter      E             dE          RMSdq      gap      omega  full diag
   1   -117.8656661 -0.117866E+03  0.623E-02    0.16       0.0  T
   2   -116.3318358  0.153383E+01  0.230E+00    0.21       1.0  T
   3   -117.8458683 -0.151403E+01  0.270E-01    0.17       1.0  T
   4   -117.8519365 -0.606818E-02  0.231E-01    0.15       1.0  T
   5   -117.8105791  0.413575E-01  0.447E-01    0.16       1.0  T
   6   -117.8620865 -0.515074E-01  0.131E-01    0.16       1.0  T
   7   -117.8661068 -0.402027E-02  0.456E-02    0.16       1.0  T
   8   -117.8666922 -0.585385E-03  0.111E-02    0.16       1.1  T
   9   -117.8660689  0.623315E-03  0.472E-02    0.16       1.0  T
  10   -117.8667197 -0.650824E-03  0.536E-03    0.16       2.3  T
  11   -117.8666883  0.313967E-04  0.115E-02    0.16       1.1  T
  12   -117.8667045 -0.161872E-04  0.869E-03    0.16       1.4  T
  13   -117.8667266 -0.221729E-04  0.747E-04    0.16      16.3  T
  14   -117.8667262  0.444481E-06  0.149E-03    0.16       8.2  T
  15   -117.8667263 -0.107691E-06  0.131E-03    0.16       9.3  T
  16   -117.8667268 -0.471388E-06  0.329E-04    0.16      37.2  T
  17   -117.8667268 -0.310941E-07  0.440E-05    0.16     277.4  T
  18   -117.8667268 -0.139266E-09  0.358E-05    0.16     341.6  T
     SCC iter.                  ...        0 min,  2.197 sec
     gradient                   ...        0 min,  0.101 sec
 * total energy  :  -116.9856898 Eh     change       -0.2003073E-03 Eh
   gradient norm :     0.0100703 Eh/α   predicted    -0.1638653E-03 ( -18.19%)
   displ. norm   :     0.4214160 α      lambda       -0.5055665E-03
   maximum displ.:     0.1806054 α      in ANC's #6, #10, #5, ...

........................................................................
.............................. CYCLE   60 ..............................
........................................................................

 iter      E             dE          RMSdq      gap      omega  full diag
   1   -117.8674563 -0.117867E+03  0.800E-02    0.16       0.0  T
   2   -115.8629370  0.200452E+01  0.269E+00    0.11       1.0  T
   3   -117.8497646 -0.198683E+01  0.257E-01    0.17       1.0  T
   4   -117.8151473  0.346173E-01  0.424E-01    0.16       1.0  T
   5   -117.8578458 -0.426985E-01  0.201E-01    0.16       1.0  T
   6   -117.8013513  0.564945E-01  0.487E-01    0.17       1.0  T
   7   -117.8680727 -0.667214E-01  0.592E-02    0.16       1.0  T
   8   -117.8617239  0.634877E-02  0.162E-01    0.16       1.0  T
   9   -117.8680962 -0.637228E-02  0.578E-02    0.16       1.0  T
  10   -117.8689556 -0.859360E-03  0.231E-02    0.16       1.0  T
  11   -117.8690526 -0.969984E-04  0.141E-02    0.16       1.0  T
  12   -117.8691043 -0.517451E-04  0.472E-03    0.16       2.6  T
  13   -117.8691101 -0.572206E-05  0.148E-03    0.16       8.2  T
  14   -117.8691106 -0.509625E-06  0.585E-04    0.16      20.9  T
  15   -117.8691106 -0.675858E-07  0.296E-04    0.16      41.2  T
  16   -117.8691107 -0.178063E-07  0.149E-04    0.16      81.8  T
  17   -117.8691107 -0.296735E-08  0.104E-04    0.16     117.3  T
     SCC iter.                  ...        0 min,  2.165 sec
     gradient                   ...        0 min,  0.102 sec
 * total energy  :  -116.9859860 Eh     change       -0.2962225E-03 Eh
   gradient norm :     0.0078092 Eh/α   predicted    -0.2976782E-03 (   0.49%)
   displ. norm   :     0.6584767 α      lambda       -0.3954250E-03
   maximum displ.:     0.3243271 α      in ANC's #6, #10, #5, ...

........................................................................
.............................. CYCLE   61 ..............................
........................................................................

 iter      E             dE          RMSdq      gap      omega  full diag
   1   -117.8672588 -0.117867E+03  0.541E-02    0.16       0.0  T
   2   -116.7250967  0.114216E+01  0.201E+00    0.19       1.0  T
   3   -117.8509735 -0.112588E+01  0.240E-01    0.17       1.0  T
   4   -117.8550669 -0.409339E-02  0.213E-01    0.16       1.0  T
   5   -117.8568481 -0.178117E-02  0.199E-01    0.17       1.0  T
   6   -117.8486165  0.823165E-02  0.263E-01    0.16       1.0  T
   7   -117.8655180 -0.169015E-01  0.933E-02    0.16       1.0  T
   8   -117.8649760  0.542019E-03  0.101E-01    0.16       1.0  T
   9   -117.8676412 -0.266520E-02  0.356E-02    0.16       1.0  T
  10   -117.8679403 -0.299191E-03  0.150E-02    0.16       1.0  T
  11   -117.8679949 -0.545565E-04  0.580E-03    0.16       2.1  T
  12   -117.8679908  0.413260E-05  0.673E-03    0.16       1.8  T
  13   -117.8680004 -0.960036E-05  0.371E-03    0.16       3.3  T
  14   -117.8680043 -0.393145E-05  0.867E-04    0.16      14.1  T
  15   -117.8680045 -0.223561E-06  0.144E-04    0.16      84.8  T
  16   -117.8680045 -0.296080E-08  0.970E-05    0.16     125.9  T
     SCC iter.                  ...        0 min,  1.980 sec
     gradient                   ...        0 min,  0.080 sec
 * total energy  :  -116.9863009 Eh     change       -0.3148910E-03 Eh
   gradient norm :     0.0092344 Eh/α   predicted    -0.2834437E-03 (  -9.99%)
   displ. norm   :     0.5694385 α      lambda       -0.4250670E-03
   maximum displ.:     0.2778113 α      in ANC's #6, #10, #5, ...

........................................................................
.............................. CYCLE   62 ..............................
........................................................................

 iter      E             dE          RMSdq      gap      omega  full diag
   1   -117.8716055 -0.117872E+03  0.352E-02    0.17       0.0  T
   2   -117.4771488  0.394457E+00  0.118E+00    0.15       1.0  T
   3   -117.8696723 -0.392524E+00  0.896E-02    0.17       1.0  T
   4   -117.8606542  0.901818E-02  0.196E-01    0.16       1.0  T
   5   -117.8547838  0.587032E-02  0.245E-01    0.17       1.0  T
   6   -117.8707648 -0.159810E-01  0.650E-02    0.17       1.0  T
   7   -117.8608771  0.988779E-02  0.195E-01    0.16       1.0  T
   8   -117.8712696 -0.103925E-01  0.491E-02    0.17       1.0  T
   9   -117.8716965 -0.426919E-03  0.296E-02    0.17       1.0  T
  10   -117.8718124 -0.115870E-03  0.213E-02    0.17       1.0  T
  11   -117.8719270 -0.114687E-03  0.776E-03    0.17       1.6  T
  12   -117.8719420 -0.149479E-04  0.235E-03    0.17       5.2  T
  13   -117.8719435 -0.151289E-05  0.537E-04    0.17      22.8  T
  14   -117.8719436 -0.622529E-07  0.227E-04    0.17      53.7  T
  15   -117.8719436 -0.874446E-08  0.136E-04    0.17      89.7  T
  16   -117.8719436 -0.432667E-08  0.593E-05    0.17     206.1  T
     SCC iter.                  ...        0 min,  1.976 sec
     gradient                   ...        0 min,  0.082 sec
 * total energy  :  -116.9866255 Eh     change       -0.3245965E-03 Eh
   gradient norm :     0.0072632 Eh/α   predicted    -0.2814511E-03 ( -13.29%)
   displ. norm   :     0.6657563 α      lambda       -0.3853970E-03
   maximum displ.:     0.3423098 α      in ANC's #6, #10, #5, ...

........................................................................
.............................. CYCLE   63 ..............................
........................................................................

 iter      E             dE          RMSdq      gap      omega  full diag
   1   -117.8703368 -0.117870E+03  0.322E-02    0.17       0.0  T
   2   -117.4811964  0.389140E+00  0.114E+00    0.14       1.0  T
   3   -117.8628891 -0.381693E+00  0.166E-01    0.17       1.0  T
   4   -117.8651258 -0.223667E-02  0.137E-01    0.17       1.0  T
   5   -117.8471606  0.179651E-01  0.279E-01    0.17       1.0  T
   6   -117.8691789 -0.220183E-01  0.727E-02    0.17       1.0  T
   7   -117.8603036  0.887535E-02  0.196E-01    0.17       1.0  T
   8   -117.8696092 -0.930563E-02  0.585E-02    0.17       1.0  T
   9   -117.8703215 -0.712286E-03  0.322E-02    0.17       1.0  T
  10   -117.8704276 -0.106121E-03  0.255E-02    0.17       1.0  T
  11   -117.8705816 -0.153975E-03  0.111E-02    0.17       1.1  T
  12   -117.8706165 -0.349797E-04  0.176E-03    0.17       6.9  T
  13   -117.8706173 -0.770060E-06  0.617E-04    0.17      19.8  T
  14   -117.8706174 -0.958163E-07  0.215E-04    0.17      56.8  T
  15   -117.8706174 -0.946545E-08  0.104E-04    0.17     117.4  T
  16   -117.8706174 -0.225180E-08  0.545E-05    0.17     224.0  T
     SCC iter.                  ...        0 min,  2.104 sec
     gradient                   ...        0 min,  0.102 sec
 * total energy  :  -116.9869386 Eh     change       -0.3130857E-03 Eh
   gradient norm :     0.0076097 Eh/α   predicted    -0.2781106E-03 ( -11.17%)
   displ. norm   :     0.5576829 α      lambda       -0.4471118E-03
   maximum displ.:     0.2804222 α      in ANC's #6, #10, #5, ...

........................................................................
.............................. CYCLE   64 ..............................
........................................................................

 iter      E             dE          RMSdq      gap      omega  full diag
   1   -117.8754933 -0.117875E+03  0.563E-02    0.17       0.0  T
   2   -116.7464307  0.112906E+01  0.196E+00    0.12       1.0  T
   3   -117.8485547 -0.110212E+01  0.317E-01    0.17       1.0  T
   4   -117.8686380 -0.200832E-01  0.164E-01    0.17       1.0  T
   5   -117.7837975  0.848405E-01  0.550E-01    0.18       1.0  T
   6   -117.8670217 -0.832243E-01  0.183E-01    0.18       1.0  T
   7   -117.8714837 -0.446202E-02  0.134E-01    0.17       1.0  T
   8   -117.8759663 -0.448253E-02  0.384E-02    0.17       1.0  T
   9   -117.8763104 -0.344185E-03  0.163E-02    0.17       1.0  T
  10   -117.8763199 -0.950752E-05  0.147E-02    0.17       1.0  T
  11   -117.8763761 -0.561468E-04  0.519E-03    0.17       2.4  T
  12   -117.8763831 -0.703821E-05  0.136E-03    0.17       9.0  T
  13   -117.8763835 -0.367445E-06  0.744E-04    0.17      16.4  T
  14   -117.8763836 -0.968913E-07  0.435E-04    0.17      28.1  T
  15   -117.8763836 -0.402594E-07  0.214E-04    0.17      57.1  T
  16   -117.8763836 -0.935793E-08  0.105E-04    0.17     116.0  T
  17   -117.8763836 -0.214281E-08  0.569E-05    0.17     214.7  T
     SCC iter.                  ...        0 min,  2.176 sec
     gradient                   ...        0 min,  0.100 sec
 * total energy  :  -116.9871956 Eh     change       -0.2570316E-03 Eh
   gradient norm :     0.0059566 Eh/α   predicted    -0.2930845E-03 (  14.03%)
   displ. norm   :     0.7267496 α      lambda       -0.4299268E-03
   maximum displ.:     0.3860022 α      in ANC's #6, #10, #5, ...

........................................................................
.............................. CYCLE   65 ..............................
........................................................................

 iter      E             dE          RMSdq      gap      omega  full diag
   1   -117.8661127 -0.117866E+03  0.741E-02    0.17       0.0  T
   2   -115.2339392  0.263217E+01  0.298E+00    0.17       1.0  T
   3   -117.8501857 -0.261625E+01  0.251E-01    0.17       1.0  T
   4   -117.8262344  0.239514E-01  0.380E-01    0.18       1.0  T
   5   -117.7369299  0.893045E-01  0.675E-01    0.15       1.0  T
   6   -117.8608504 -0.123921E+00  0.154E-01    0.18       1.0  T
   7   -117.8598188  0.103157E-02  0.162E-01    0.18       1.0  T
   8   -117.8663845 -0.656569E-02  0.659E-02    0.17       1.0  T
   9   -117.8674967 -0.111224E-02  0.213E-02    0.17       1.0  T
  10   -117.8675860 -0.893104E-04  0.113E-02    0.17       1.1  T
  11   -117.8675650  0.210566E-04  0.140E-02    0.17       1.0  T
  12   -117.8675977 -0.326780E-04  0.890E-03    0.17       1.4  T
  13   -117.8676135 -0.158218E-04  0.476E-03    0.17       2.6  T
  14   -117.8676193 -0.579605E-05  0.140E-03    0.17       8.8  T
  15   -117.8676198 -0.542977E-06  0.283E-04    0.17      43.1  T
  16   -117.8676198 -0.163157E-07  0.154E-04    0.17      79.2  T
  17   -117.8676198 -0.314515E-08  0.113E-04    0.17     108.3  T
     SCC iter.                  ...        0 min,  2.075 sec
     gradient                   ...        0 min,  0.098 sec
 * total energy  :  -116.9874490 Eh     change       -0.2533666E-03 Eh
   gradient norm :     0.0106190 Eh/α   predicted    -0.3285028E-03 (  29.66%)
   displ. norm   :     0.3638156 α      lambda       -0.3551766E-03
   maximum displ.:     0.1977075 α      in ANC's #6, #5, #10, ...

........................................................................
.............................. CYCLE   66 ..............................
........................................................................

 iter      E             dE          RMSdq      gap      omega  full diag
   1   -117.8667354 -0.117867E+03  0.547E-02    0.17       0.0  T
   2   -116.0375359  0.182920E+01  0.246E+00    0.16       1.0  T
   3   -117.8663316 -0.182880E+01  0.700E-02    0.17       1.0  T
   4   -117.7784820  0.878496E-01  0.566E-01    0.17       1.0  T
   5   -117.8537378 -0.752558E-01  0.221E-01    0.18       1.0  T
   6   -117.8424839  0.112540E-01  0.295E-01    0.16       1.0  T
   7   -117.8672375 -0.247536E-01  0.335E-02    0.17       1.0  T
   8   -117.8609329  0.630465E-02  0.152E-01    0.17       1.0  T
   9   -117.8674880 -0.655511E-02  0.183E-02    0.17       1.0  T
  10   -117.8675753 -0.873366E-04  0.620E-03    0.17       2.0  T
  11   -117.8675780 -0.270852E-05  0.512E-03    0.17       2.4  T
  12   -117.8675848 -0.681621E-05  0.114E-03    0.17      10.7  T
  13   -117.8675847  0.179954E-06  0.133E-03    0.17       9.2  T
  14   -117.8675851 -0.436492E-06  0.486E-04    0.17      25.2  T
  15   -117.8675851 -0.234436E-09  0.474E-04    0.17      25.8  T
  16   -117.8675851 -0.388932E-07  0.284E-04    0.17      43.0  T
  17   -117.8675851 -0.173575E-07  0.124E-04    0.17      98.5  T
  18   -117.8675852 -0.362186E-08  0.418E-05    0.17     292.0  T
     SCC iter.                  ...        0 min,  2.350 sec
     gradient                   ...        0 min,  0.134 sec
 * total energy  :  -116.9876273 Eh     change       -0.1783108E-03 Eh
   gradient norm :     0.0098457 Eh/α   predicted    -0.2010949E-03 (  12.78%)
   displ. norm   :     0.3887393 α      lambda       -0.3443084E-03
   maximum displ.:     0.2163291 α      in ANC's #6, #5, #10, ...
 * RMSD in coord.:     1.0993631 α      energy gain  -0.4499851E-02 Eh

generating ANC from model Hessian ...
Using Lindh-Hessian (1995)
 Shifting diagonal of input Hessian by    1.0415601606482786E-002
 Lowest  eigenvalues of input Hessian
    0.010000    0.010268    0.010369    0.010397    0.000000    0.000000
    0.000000    0.000000    0.000000    0.000000    0.010428    0.010455
    0.010492    0.010555    0.010604    0.010640    0.010724    0.010837
 Highest eigenvalues
    1.641656    1.851548    1.932382    2.049428    2.145392    2.414624


........................................................................
.............................. CYCLE   67 ..............................
........................................................................

 iter      E             dE          RMSdq      gap      omega  full diag
   1   -117.8685795 -0.117869E+03  0.458E-02    0.17       0.0  T
   2   -116.6942190  0.117436E+01  0.198E+00    0.18       1.0  T
   3   -117.8605095 -0.116629E+01  0.177E-01    0.18       1.0  T
   4   -117.8538837  0.662575E-02  0.234E-01    0.17       1.0  T
   5   -117.8373572  0.165265E-01  0.332E-01    0.18       1.0  T
   6   -117.8678875 -0.305303E-01  0.688E-02    0.17       1.0  T
   7   -117.8672737  0.613715E-03  0.832E-02    0.17       1.0  T
   8   -117.8688652 -0.159144E-02  0.333E-02    0.17       1.0  T
   9   -117.8691678 -0.302644E-03  0.793E-03    0.17       1.5  T
  10   -117.8691822 -0.143997E-04  0.297E-03    0.17       4.1  T
  11   -117.8691749  0.731870E-05  0.568E-03    0.17       2.1  T
  12   -117.8691790 -0.410934E-05  0.426E-03    0.17       2.9  T
  13   -117.8691837 -0.466865E-05  0.136E-03    0.17       9.0  T
  14   -117.8691842 -0.526408E-06  0.230E-04    0.17      53.0  T
  15   -117.8691842  0.521010E-07  0.488E-04    0.17      25.0  T
  16   -117.8691842 -0.517725E-07  0.231E-04    0.17      52.9  T
  17   -117.8691842 -0.140281E-07  0.427E-05    0.17     286.1  T
  18   -117.8691842 -0.469782E-09  0.105E-05    0.17    1164.5  T
     SCC iter.                  ...        0 min,  2.275 sec
     gradient                   ...        0 min,  0.086 sec
 * total energy  :  -116.9878571 Eh     change       -0.2297849E-03 Eh
   gradient norm :     0.0092724 Eh/α   predicted     0.0000000E+00 (-100.00%)
   displ. norm   :     0.0925815 α      lambda       -0.2104135E-03
   maximum displ.:     0.0438211 α      in ANC's #27, #29, #26, ...

........................................................................
.............................. CYCLE   68 ..............................
........................................................................

 iter      E             dE          RMSdq      gap      omega  full diag
   1   -117.8724618 -0.117872E+03  0.133E-02    0.17       0.0  T
   2   -117.8314928  0.409690E-01  0.380E-01    0.16       1.0  T
   3   -117.8717595 -0.402667E-01  0.507E-02    0.17       1.0  T
   4   -117.8713166  0.442894E-03  0.628E-02    0.17       1.0  T
   5   -117.8664296  0.488694E-02  0.145E-01    0.17       1.0  T
   6   -117.8723919 -0.596222E-02  0.190E-02    0.17       1.0  T
   7   -117.8721547  0.237172E-03  0.351E-02    0.17       1.0  T
   8   -117.8724894 -0.334706E-03  0.597E-03    0.17       2.0  T
   9   -117.8724898 -0.418174E-06  0.597E-03    0.17       2.0  T
  10   -117.8724971 -0.730098E-05  0.258E-03    0.17       4.7  T
  11   -117.8724981 -0.971191E-06  0.165E-03    0.17       7.4  T
  12   -117.8724989 -0.756258E-06  0.414E-04    0.17      29.5  T
  13   -117.8724989 -0.474325E-07  0.110E-04    0.17     111.1  T
  14   -117.8724989  0.726089E-09  0.115E-04    0.17     106.6  T
     SCC iter.                  ...        0 min,  1.809 sec
     gradient                   ...        0 min,  0.083 sec
 * total energy  :  -116.9880021 Eh     change       -0.1450290E-03 Eh
   gradient norm :     0.0038773 Eh/α   predicted    -0.1061090E-03 ( -26.84%)
   displ. norm   :     0.3894883 α      lambda       -0.6976089E-03
   maximum displ.:     0.1684012 α      in ANC's #27, #29, #26, ...

........................................................................
.............................. CYCLE   69 ..............................
........................................................................

 iter      E             dE          RMSdq      gap      omega  full diag
   1   -117.8746886 -0.117875E+03  0.119E-01    0.16       0.0  T
   2   -107.2270493  0.106476E+02  0.572E+00    0.25       1.0  T
   3   -117.7444955 -0.105174E+02  0.685E-01    0.17       1.0  T
   4   -117.7803935 -0.358980E-01  0.593E-01    0.15       1.0  T
   5   -117.8510742 -0.706807E-01  0.319E-01    0.17       1.0  T
   6   -117.6875399  0.163534E+00  0.812E-01    0.14       1.0  T
   7   -117.8675751 -0.180035E+00  0.201E-01    0.16       1.0  T
   8   -117.8780782 -0.105031E-01  0.587E-02    0.16       1.0  T
   9   -117.8785235 -0.445299E-03  0.428E-02    0.16       1.0  T
  10   -117.8787280 -0.204474E-03  0.333E-02    0.16       1.0  T
  11   -117.8788511 -0.123123E-03  0.260E-02    0.16       1.0  T
  12   -117.8789856 -0.134506E-03  0.147E-02    0.16       1.0  T
  13   -117.8789913 -0.573499E-05  0.138E-02    0.16       1.0  T
  14   -117.8790177 -0.263403E-04  0.946E-03    0.16       1.3  T
  15   -117.8790342 -0.165301E-04  0.505E-03    0.16       2.4  T
  16   -117.8790403 -0.612563E-05  0.145E-03    0.16       8.4  T
  17   -117.8790407 -0.368795E-06  0.779E-04    0.16      15.7  T
  18   -117.8790408 -0.137939E-06  0.284E-04    0.16      43.0  T
  19   -117.8790408 -0.164590E-07  0.143E-04    0.16      85.7  T
  20   -117.8790408 -0.522569E-08  0.380E-05    0.16     321.5  T
     SCC iter.                  ...        0 min,  2.582 sec
     gradient                   ...        0 min,  0.089 sec
 * total energy  :  -116.9872865 Eh     change        0.7155721E-03 Eh
   gradient norm :     0.0219770 Eh/α   predicted    -0.4017189E-03 (-156.14%)
   displ. norm   :     0.1126866 α      lambda       -0.1838186E-02
   maximum displ.:     0.0492955 α      in ANC's #43, #33, #35, ...

........................................................................
.............................. CYCLE   70 ..............................
........................................................................

 iter      E             dE          RMSdq      gap      omega  full diag
   1   -117.8735853 -0.117874E+03  0.760E-02    0.17       0.0  T
   2   -114.5932722  0.328031E+01  0.323E+00    0.13       1.0  T
   3   -117.6628888 -0.306962E+01  0.881E-01    0.19       1.0  T
   4   -117.8725727 -0.209684E+00  0.982E-02    0.17       1.0  T
   5   -117.7156988  0.156874E+00  0.751E-01    0.18       1.0  T
   6   -117.8691311 -0.153432E+00  0.150E-01    0.17       1.0  T
   7   -117.8715914 -0.246033E-02  0.116E-01    0.17       1.0  T
   8   -117.8744281 -0.283669E-02  0.600E-02    0.17       1.0  T
   9   -117.8749807 -0.552581E-03  0.373E-02    0.17       1.0  T
  10   -117.8752480 -0.267257E-03  0.213E-02    0.17       1.0  T
  11   -117.8753531 -0.105140E-03  0.769E-03    0.17       1.6  T
  12   -117.8753651 -0.119446E-04  0.448E-03    0.17       2.7  T
  13   -117.8753658 -0.728840E-06  0.414E-03    0.17       3.0  T
  14   -117.8753692 -0.344254E-05  0.212E-03    0.17       5.8  T
  15   -117.8753703 -0.111985E-05  0.693E-04    0.17      17.6  T
  16   -117.8753705 -0.113830E-06  0.232E-04    0.17      52.6  T
  17   -117.8753705 -0.418937E-08  0.193E-04    0.17      63.4  T
  18   -117.8753705 -0.678500E-08  0.113E-04    0.17     107.7  T
     SCC iter.                  ...        0 min,  2.218 sec
     gradient                   ...        0 min,  0.118 sec
 * total energy  :  -116.9882536 Eh     change       -0.9670073E-03 Eh
   gradient norm :     0.0084435 Eh/α   predicted    -0.9307643E-03 (  -3.75%)
   displ. norm   :     0.0427536 α      lambda        0.3642830E-04
   maximum displ.:     0.0151902 α      in ANC's #27, #43, #26, ...

........................................................................
.............................. CYCLE   71 ..............................
........................................................................

 iter      E             dE          RMSdq      gap      omega  full diag
   1   -117.8724540 -0.117872E+03  0.106E-02    0.17       0.0  T
   2   -117.8451561  0.272979E-01  0.316E-01    0.16       1.0  T
   3   -117.8711421 -0.259860E-01  0.660E-02    0.17       1.0  T
   4   -117.8715502 -0.408126E-03  0.557E-02    0.17       1.0  T
   5   -117.8703342  0.121604E-02  0.871E-02    0.17       1.0  T
   6   -117.8722822 -0.194804E-02  0.264E-02    0.17       1.0  T
   7   -117.8719312  0.351065E-03  0.438E-02    0.17       1.0  T
   8   -117.8724260 -0.494803E-03  0.135E-02    0.17       1.0  T
   9   -117.8724695 -0.435569E-04  0.540E-03    0.17       2.3  T
  10   -117.8724737 -0.421050E-05  0.342E-03    0.17       3.6  T
  11   -117.8724767 -0.300056E-05  0.108E-03    0.17      11.3  T
  12   -117.8724770 -0.286341E-06  0.294E-04    0.17      41.5  T
  13   -117.8724770 -0.173881E-07  0.174E-04    0.17      70.1  T
  14   -117.8724771 -0.476467E-08  0.118E-04    0.17     103.6  T
     SCC iter.                  ...        0 min,  1.817 sec
     gradient                   ...        0 min,  0.135 sec
 * total energy  :  -116.9882431 Eh     change        0.1041450E-04 Eh
   gradient norm :     0.0079731 Eh/α   predicted     0.1824256E-04 (  75.17%)
   displ. norm   :     0.0944475 α      lambda       -0.1289738E-03
   maximum displ.:     0.0373480 α      in ANC's #27, #26, #19, ...

........................................................................
.............................. CYCLE   72 ..............................
........................................................................

 iter      E             dE          RMSdq      gap      omega  full diag
   1   -117.8736227 -0.117874E+03  0.130E-02    0.17       0.0  T
   2   -117.8127888  0.608338E-01  0.467E-01    0.17       1.0  T
   3   -117.8706209 -0.578320E-01  0.984E-02    0.17       1.0  T
   4   -117.8732304 -0.260953E-02  0.381E-02    0.17       1.0  T
   5   -117.8734454 -0.214962E-03  0.295E-02    0.17       1.0  T
   6   -117.8720911  0.135421E-02  0.752E-02    0.17       1.0  T
   7   -117.8735451 -0.145394E-02  0.208E-02    0.17       1.0  T
   8   -117.8735870 -0.418945E-04  0.169E-02    0.17       1.0  T
   9   -117.8736632 -0.762520E-04  0.440E-03    0.17       2.8  T
  10   -117.8736655 -0.226489E-05  0.314E-03    0.17       3.9  T
  11   -117.8736680 -0.249626E-05  0.101E-03    0.17      12.1  T
  12   -117.8736682 -0.236247E-06  0.303E-04    0.17      40.3  T
  13   -117.8736683 -0.196113E-07  0.158E-04    0.17      77.5  T
  14   -117.8736683 -0.516134E-08  0.865E-05    0.17     141.3  T
     SCC iter.                  ...        0 min,  1.823 sec
     gradient                   ...        0 min,  0.112 sec
 * total energy  :  -116.9883378 Eh     change       -0.9468409E-04 Eh
   gradient norm :     0.0047784 Eh/α   predicted    -0.6506306E-04 ( -31.28%)
   displ. norm   :     0.2364496 α      lambda       -0.1625201E-03
   maximum displ.:     0.0900126 α      in ANC's #27, #19, #26, ...

........................................................................
.............................. CYCLE   73 ..............................
........................................................................

 iter      E             dE          RMSdq      gap      omega  full diag
   1   -117.8737679 -0.117874E+03  0.116E-02    0.17       0.0  T
   2   -117.8214159  0.523520E-01  0.430E-01    0.17       1.0  T
   3   -117.8718958 -0.504799E-01  0.777E-02    0.17       1.0  T
   4   -117.8734501 -0.155434E-02  0.344E-02    0.17       1.0  T
   5   -117.8736454 -0.195227E-03  0.246E-02    0.17       1.0  T
   6   -117.8725403  0.110510E-02  0.675E-02    0.17       1.0  T
   7   -117.8736594 -0.111910E-02  0.220E-02    0.17       1.0  T
   8   -117.8733545  0.304871E-03  0.395E-02    0.17       1.0  T
   9   -117.8737902 -0.435740E-03  0.601E-03    0.17       2.0  T
  10   -117.8737971 -0.687893E-05  0.333E-03    0.17       3.7  T
  11   -117.8737998 -0.269937E-05  0.115E-03    0.17      10.7  T
  12   -117.8738001 -0.292844E-06  0.521E-04    0.17      23.5  T
  13   -117.8738002 -0.680378E-07  0.173E-04    0.17      70.7  T
  14   -117.8738002 -0.781650E-08  0.662E-05    0.17     184.6  T
     SCC iter.                  ...        0 min,  1.820 sec
     gradient                   ...        0 min,  0.085 sec
 * total energy  :  -116.9884566 Eh     change       -0.1187294E-03 Eh
   gradient norm :     0.0057294 Eh/α   predicted    -0.8580492E-04 ( -27.73%)
   displ. norm   :     0.3379905 α      lambda       -0.2588687E-03
   maximum displ.:     0.1201246 α      in ANC's #19, #17, #6, ...

........................................................................
.............................. CYCLE   74 ..............................
........................................................................

 iter      E             dE          RMSdq      gap      omega  full diag
   1   -117.8736957 -0.117874E+03  0.243E-02    0.17       0.0  T
   2   -117.6219903  0.251705E+00  0.895E-01    0.18       1.0  T
   3   -117.8620280 -0.240038E+00  0.207E-01    0.17       1.0  T
   4   -117.8734725 -0.114445E-01  0.379E-02    0.16       1.0  T
   5   -117.8703665  0.310601E-02  0.110E-01    0.16       1.0  T
   6   -117.8728271 -0.246061E-02  0.618E-02    0.17       1.0  T
   7   -117.8730798 -0.252699E-03  0.521E-02    0.16       1.0  T
   8   -117.8736751 -0.595280E-03  0.249E-02    0.16       1.0  T
   9   -117.8738448 -0.169700E-03  0.715E-03    0.16       1.7  T
  10   -117.8738472 -0.241883E-05  0.597E-03    0.16       2.0  T
  11   -117.8738571 -0.989180E-05  0.139E-03    0.16       8.8  T
  12   -117.8738575 -0.400997E-06  0.592E-04    0.16      20.6  T
  13   -117.8738576 -0.321517E-07  0.462E-04    0.16      26.4  T
  14   -117.8738576 -0.503234E-07  0.211E-04    0.16      57.9  T
  15   -117.8738576 -0.936912E-08  0.100E-04    0.16     122.0  T
  16   -117.8738576 -0.225920E-08  0.440E-05    0.16     277.6  T
     SCC iter.                  ...        0 min,  2.016 sec
     gradient                   ...        0 min,  0.087 sec
 * total energy  :  -116.9886164 Eh     change       -0.1598271E-03 Eh
   gradient norm :     0.0049610 Eh/α   predicted    -0.1442218E-03 (  -9.76%)
   displ. norm   :     0.5341853 α      lambda       -0.2705190E-03
   maximum displ.:     0.2200669 α      in ANC's #19, #6, #17, ...

........................................................................
.............................. CYCLE   75 ..............................
........................................................................

 iter      E             dE          RMSdq      gap      omega  full diag
   1   -117.8656344 -0.117866E+03  0.494E-02    0.16       0.0  T
   2   -117.1474867  0.718148E+00  0.160E+00    0.17       1.0  T
   3   -117.8452314 -0.697745E+00  0.261E-01    0.17       1.0  T
   4   -117.8427212  0.251016E-02  0.280E-01    0.15       1.0  T
   5   -117.8605548 -0.178336E-01  0.143E-01    0.16       1.0  T
   6   -117.8204391  0.401158E-01  0.403E-01    0.15       1.0  T
   7   -117.8652638 -0.448247E-01  0.570E-02    0.16       1.0  T
   8   -117.8640000  0.126376E-02  0.879E-02    0.16       1.0  T
   9   -117.8661509 -0.215087E-02  0.729E-03    0.16       1.7  T
  10   -117.8660814  0.694677E-04  0.162E-02    0.16       1.0  T
  11   -117.8661511 -0.696925E-04  0.589E-03    0.16       2.1  T
  12   -117.8661606 -0.943012E-05  0.841E-04    0.16      14.5  T
  13   -117.8661604  0.212439E-06  0.116E-03    0.16      10.6  T
  14   -117.8661605 -0.165977E-06  0.889E-04    0.16      13.7  T
  15   -117.8661607 -0.145277E-06  0.538E-04    0.16      22.7  T
  16   -117.8661607 -0.732191E-07  0.220E-04    0.16      55.6  T
  17   -117.8661608 -0.124832E-07  0.781E-05    0.16     156.3  T
  18   -117.8661608 -0.165488E-08  0.240E-05    0.16     508.3  T
     SCC iter.                  ...        0 min,  2.381 sec
     gradient                   ...        0 min,  0.105 sec
 * total energy  :  -116.9884346 Eh     change        0.1817398E-03 Eh
   gradient norm :     0.0237175 Eh/α   predicted    -0.1738572E-03 (-195.66%)
   displ. norm   :     0.2066098 α      lambda       -0.8657133E-03
   maximum displ.:     0.0973211 α      in ANC's #27, #29, #26, ...

........................................................................
.............................. CYCLE   76 ..............................
........................................................................

 iter      E             dE          RMSdq      gap      omega  full diag
   1   -117.8731217 -0.117873E+03  0.599E-02    0.17       0.0  T
   2   -115.7077111  0.216541E+01  0.265E+00    0.15       1.0  T
   3   -117.8550656 -0.214735E+01  0.256E-01    0.16       1.0  T
   4   -117.8473589  0.770670E-02  0.307E-01    0.16       1.0  T
   5   -117.8670299 -0.196711E-01  0.165E-01    0.16       1.0  T
   6   -117.8371489  0.298811E-01  0.361E-01    0.17       1.0  T
   7   -117.8715293 -0.343805E-01  0.940E-02    0.16       1.0  T
   8   -117.8726540 -0.112469E-02  0.685E-02    0.17       1.0  T
   9   -117.8738188 -0.116475E-02  0.258E-02    0.16       1.0  T
  10   -117.8740060 -0.187228E-03  0.694E-03    0.16       1.8  T
  11   -117.8740174 -0.114614E-04  0.238E-03    0.16       5.1  T
  12   -117.8740182 -0.711952E-06  0.154E-03    0.16       7.9  T
  13   -117.8740184 -0.222854E-06  0.123E-03    0.16       9.9  T
  14   -117.8740187 -0.279417E-06  0.733E-04    0.16      16.7  T
  15   -117.8740187 -0.840474E-07  0.483E-04    0.16      25.3  T
  16   -117.8740188 -0.348624E-07  0.335E-04    0.16      36.5  T
  17   -117.8740188 -0.153050E-07  0.240E-04    0.16      50.8  T
  18   -117.8740188 -0.116695E-07  0.127E-04    0.16      96.5  T
  19   -117.8740188 -0.442057E-08  0.200E-05    0.16     611.2  T
     SCC iter.                  ...        0 min,  2.439 sec
     gradient                   ...        0 min,  0.094 sec
 * total energy  :  -116.9887865 Eh     change       -0.3518444E-03 Eh
   gradient norm :     0.0028646 Eh/α   predicted    -0.4513327E-03 (  28.28%)
   displ. norm   :     0.1564869 α      lambda       -0.8527249E-04
   maximum displ.:     0.0719599 α      in ANC's #19, #5, #6, ...

........................................................................
.............................. CYCLE   77 ..............................
........................................................................

 iter      E             dE          RMSdq      gap      omega  full diag
   1   -117.8739855 -0.117874E+03  0.178E-02    0.16       0.0  T
   2   -117.7475265  0.126459E+00  0.647E-01    0.17       1.0  T
   3   -117.8678178 -0.120291E+00  0.150E-01    0.16       1.0  T
   4   -117.8737557 -0.593793E-02  0.337E-02    0.16       1.0  T
   5   -117.8721334  0.162233E-02  0.825E-02    0.16       1.0  T
   6   -117.8738480 -0.171466E-02  0.290E-02    0.16       1.0  T
   7   -117.8739646 -0.116618E-03  0.202E-02    0.16       1.0  T
   8   -117.8740623 -0.976958E-04  0.748E-03    0.16       1.6  T
   9   -117.8740702 -0.785384E-05  0.546E-03    0.16       2.2  T
  10   -117.8740761 -0.587283E-05  0.296E-03    0.16       4.1  T
  11   -117.8740777 -0.162082E-05  0.168E-03    0.16       7.3  T
  12   -117.8740784 -0.765518E-06  0.297E-04    0.16      41.2  T
  13   -117.8740785 -0.238151E-07  0.454E-05    0.16     269.1  T
  14   -117.8740785  0.997289E-09  0.699E-05    0.16     174.8  T
     SCC iter.                  ...        0 min,  1.814 sec
     gradient                   ...        0 min,  0.093 sec
 * total energy  :  -116.9888657 Eh     change       -0.7923536E-04 Eh
   gradient norm :     0.0016182 Eh/α   predicted    -0.4368061E-04 ( -44.87%)
   displ. norm   :     1.0144772 α      lambda       -0.3232266E-03
   maximum displ.:     0.4640494 α      in ANC's #19, #5, #6, ...

........................................................................
.............................. CYCLE   78 ..............................
........................................................................

 iter      E             dE          RMSdq      gap      omega  full diag
   1   -117.8629041 -0.117863E+03  0.954E-02    0.15       0.0  T
   2   -115.5702264  0.229268E+01  0.283E+00    0.18       1.0  T
   3   -117.8098596 -0.223963E+01  0.443E-01    0.16       1.0  T
   4   -117.8258765 -0.160169E-01  0.368E-01    0.16       1.0  T
   5   -117.7566583  0.692182E-01  0.599E-01    0.16       1.0  T
   6   -117.8542126 -0.975543E-01  0.202E-01    0.16       1.0  T
   7   -117.7614618  0.927508E-01  0.608E-01    0.14       1.0  T
   8   -117.8649515 -0.103490E+00  0.361E-02    0.16       1.0  T
   9   -117.8649855 -0.340718E-04  0.327E-02    0.16       1.0  T
  10   -117.8651575 -0.171959E-03  0.209E-02    0.16       1.0  T
  11   -117.8652531 -0.956002E-04  0.889E-03    0.16       1.4  T
  12   -117.8652762 -0.231048E-04  0.148E-03    0.16       8.2  T
  13   -117.8652762  0.541067E-07  0.145E-03    0.16       8.4  T
  14   -117.8652766 -0.452827E-06  0.744E-04    0.16      16.4  T
  15   -117.8652767 -0.957733E-07  0.447E-04    0.16      27.3  T
  16   -117.8652768 -0.520507E-07  0.159E-04    0.16      76.6  T
  17   -117.8652768 -0.436069E-08  0.986E-05    0.16     123.9  T
     SCC iter.                  ...        0 min,  2.200 sec
     gradient                   ...        0 min,  0.139 sec
 * total energy  :  -116.9886262 Eh     change        0.2395474E-03 Eh
   gradient norm :     0.0295065 Eh/α   predicted    -0.2355397E-03 (-198.33%)
   displ. norm   :     0.2449261 α      lambda       -0.9215826E-03
   maximum displ.:     0.1260296 α      in ANC's #19, #18, #6, ...

........................................................................
.............................. CYCLE   79 ..............................
........................................................................

 iter      E             dE          RMSdq      gap      omega  full diag
   1   -117.8719404 -0.117872E+03  0.412E-02    0.17       0.0  T
   2   -117.3280764  0.543864E+00  0.138E+00    0.16       1.0  T
   3   -117.8500917 -0.522015E+00  0.268E-01    0.16       1.0  T
   4   -117.8596378 -0.954608E-02  0.211E-01    0.17       1.0  T
   5   -117.8558353  0.380247E-02  0.243E-01    0.16       1.0  T
   6   -117.8624982 -0.666288E-02  0.188E-01    0.16       1.0  T
   7   -117.8689387 -0.644049E-02  0.108E-01    0.16       1.0  T
   8   -117.8718870 -0.294829E-02  0.376E-02    0.16       1.0  T
   9   -117.8722153 -0.328355E-03  0.161E-02    0.16       1.0  T
  10   -117.8722856 -0.702902E-04  0.544E-03    0.16       2.2  T
  11   -117.8722905 -0.490566E-05  0.331E-03    0.16       3.7  T
  12   -117.8722932 -0.262918E-05  0.115E-03    0.16      10.6  T
  13   -117.8722935 -0.327074E-06  0.349E-04    0.16      35.0  T
  14   -117.8722935 -0.243512E-07  0.176E-04    0.16      69.5  T
  15   -117.8722935 -0.528047E-08  0.105E-04    0.16     116.6  T
     SCC iter.                  ...        0 min,  1.980 sec
     gradient                   ...        0 min,  0.106 sec
 * total energy  :  -116.9891015 Eh     change       -0.4753481E-03 Eh
   gradient norm :     0.0061249 Eh/α   predicted    -0.4884331E-03 (   2.75%)
   displ. norm   :     0.0804220 α      lambda       -0.5788264E-04
   maximum displ.:     0.0405238 α      in ANC's #5, #6, #18, ...

........................................................................
.............................. CYCLE   80 ..............................
........................................................................

 iter      E             dE          RMSdq      gap      omega  full diag
   1   -117.8735599 -0.117874E+03  0.705E-03    0.16       0.0  T
   2   -117.8611893  0.123705E-01  0.209E-01    0.17       1.0  T
   3   -117.8730437 -0.118544E-01  0.429E-02    0.16       1.0  T
   4   -117.8728389  0.204829E-03  0.496E-02    0.16       1.0  T
   5   -117.8731547 -0.315778E-03  0.385E-02    0.16       1.0  T
   6   -117.8733210 -0.166345E-03  0.298E-02    0.16       1.0  T
   7   -117.8735279 -0.206868E-03  0.124E-02    0.16       1.0  T
   8   -117.8735325 -0.456120E-05  0.111E-02    0.16       1.1  T
   9   -117.8735692 -0.367821E-04  0.216E-03    0.16       5.7  T
  10   -117.8735694 -0.199526E-06  0.184E-03    0.16       6.7  T
  11   -117.8735701 -0.663283E-06  0.100E-03    0.16      12.2  T
  12   -117.8735704 -0.291824E-06  0.133E-04    0.16      92.0  T
  13   -117.8735704 -0.312089E-08  0.721E-05    0.16     169.4  T
     SCC iter.                  ...        0 min,  1.681 sec
     gradient                   ...        0 min,  0.099 sec
 * total energy  :  -116.9891483 Eh     change       -0.4673217E-04 Eh
   gradient norm :     0.0023496 Eh/α   predicted    -0.2913264E-04 ( -37.66%)
   displ. norm   :     0.2297283 α      lambda       -0.9822578E-04
   maximum displ.:     0.1112730 α      in ANC's #5, #6, #18, ...

   *** GEOMETRY OPTIMIZATION CONVERGED AFTER 80 ITERATIONS ***

------------------------------------------------------------------------
 total energy gain   :        -0.5690573 Eh     -357.0888 kcal/mol
 total RMSD          :         2.0644476 a0        1.0925 Å
 total power (kW/mol):       -18.6757468 (step)   -7.3933 (real)
------------------------------------------------------------------------

 ANCopt (total)                0 d,  0 h,  3 min, 22.084 sec
 optimizer setup                ...        0 min,  0.000 sec (  0.000%)
 model hessian                  ...        0 min,  0.112 sec (  0.055%)
 ANC generation                 ...        0 min,  0.113 sec (  0.056%)
 coordinate transformation      ...        0 min,  0.014 sec (  0.007%)
 single point calculation       ...        3 min, 21.515 sec ( 99.719%)
 optimization log               ...        0 min,  0.027 sec (  0.013%)
 hessian update                 ...        0 min,  0.038 sec (  0.019%)
 rational function              ...        0 min,  0.107 sec (  0.053%)

================
 final structure:
================
67
 xtb: 6.6.1 (unknown)
C           53.09240903568234       14.47991569875017       53.95443803309890
C           53.38612661520003       15.59966440593598       52.95802413015237
S           54.74494102384686       15.14722990022103       51.83715201444603
H           52.31054497894678       14.77183281353296       54.66254002368015
H           52.76788049068306       13.57957324782585       53.42408044426625
H           53.99787543933010       14.23800839705862       54.51641204349470
H           52.46458517521657       15.85521741717411       52.41718703536245
H           53.69944588407946       16.49634858133831       53.50857275851445
C           49.16363857010599        9.66653663573266       50.79354600841823
C           49.40229390277800       11.13884656853664       50.46777703927695
S           50.06793051892144       11.34237557264796       48.78573477055815
H           48.72517533549861        9.54371833484097       51.78871214385337
H           48.48300801935191        9.23073155312818       50.05779282143635
H           50.10795768240555        9.11494539179750       50.75384000114678
H           48.44554996878399       11.67487185133766       50.50959131944025
H           50.06406015284849       11.58007237845826       51.22588715966010
C           57.67764715290473        8.20409742991787       46.81215425506460
C           56.41032202869688        7.42265213152639       46.47009504974192
S           55.04670918508157        8.51264332056390       45.95855504953779
H           58.50015876110940        7.53055442677106       47.07342511388920
H           57.98270752334633        8.81130578070949       45.95559344249793
H           57.49075433386722        8.87532376759499       47.65849934815626
H           56.62131205257192        6.75750116939597       45.62234044127616
H           56.13049759388435        6.78746141485559       47.32122044004657
C           57.60090447215300        8.84831915630601       51.66063326358652
C           56.33315002154939        8.11951692358653       52.10206312870738
S           54.91405478305291        9.24378625971318       52.28937806189450
H           57.82855039963763        9.65428800676737       52.36315817256526
H           58.45695331179936        8.16660230968875       51.62186485848100
H           57.45680922256027        9.28983910510663       50.66771017862582
H           56.12028596020426        7.29879152590630       51.40341382251498
H           56.50963410954685        7.66929319980285       53.08808912012780
C           54.91241353217529       16.46149789657939       47.26642463086743
C           54.42734547908992       15.02045342318316       47.18450146402053
S           55.34603397330502       14.02979982258671       48.42113494825544
H           54.68226873525342       16.88454671682782       48.24691988207736
H           55.99537155438581       16.49901612805228       47.12897274401748
H           54.44052983150755       17.08523696680662       46.50138882065264
H           53.34260319495925       14.98660199765582       47.33632097857546
H           54.64433482928216       14.61699198658884       46.18832447812523
C           49.54491043649179       18.57309997743122       50.33964793436656
C           50.45766497216192       18.21144753500472       49.16093338308705
C           51.01215642015755       16.83349482013944       49.31507889225768
N           50.28135822118414       15.71314399155015       49.00672964304567
C           51.03223238696606       14.62461607537849       49.31035917962859
N           52.19788785791705       14.99952562357690       49.79273419391289
C           52.19792077954707       16.37032938215432       49.80492870959522
H           48.71390429807622       17.86983777479904       50.40413174341039
H           50.10374797077026       18.53886510999229       51.27602587127559
H           49.14323767538494       19.57699655457012       50.20846762552369
H           49.88573270002505       18.28357732395683       48.23037490469694
H           51.28135335869108       18.92976768433214       49.10809083587386
H           49.34383333685878       15.71700752625085       48.64946839897467
H           50.68383497867454       13.60138498433153       49.15512923645912
H           53.04892472576766       16.93309411093094       50.15787554319493
Fe          52.23010051445817       10.68912383016587       48.84439759837456
Fe          54.00993700156418       13.78956764976146       50.23910301662820
Fe          54.26127596921405        9.64393420722191       47.73379746235413
Fe          54.23356293338630        9.94633586315875       50.25665974431760
S           55.88392729215072       10.40338255415726       48.95826044590942
S           52.91157277067178        8.67354917276993       49.12143834424516
S           53.15170753239369       11.84458859528959       50.53369408509425
S           53.16925105187667       11.39534838823817       46.95511547083162
Fe          54.43022549115754       12.02679519447938       48.63171357958808
C           52.75414367748615       12.02554382324345       45.26118187832925
O           51.70985852073387       11.57027205046060       44.79248710774218
O           53.56771849066892       12.83419137218485       44.80859610127666

 Bond Distances (Angstroems)
 ---------------------------
C1-C2=1.5274         C1-H4=1.0945         C1-H5=1.0942         C1-H6=1.0928         C2-C1=1.5274         C2-S3=1.8186         
C2-H7=1.0987         C2-H8=1.0979         S3-C2=1.8186         S3-Fe57=2.2220       H4-C1=1.0945         H5-C1=1.0942         
H6-C1=1.0928         H7-C2=1.0987         H8-C2=1.0979         C9-C10=1.5267        C9-H12=1.0944        C9-H13=1.0929        
C9-H14=1.0943        C10-C9=1.5267        C10-S11=1.8204       C10-H15=1.0975       C10-H16=1.0988       S11-C10=1.8204       
S11-Fe56=2.2595      H12-C9=1.0944        H13-C9=1.0929        H14-C9=1.0943        H15-C10=1.0975       H16-C10=1.0988       
C17-C18=1.5277       C17-H20=1.0947       C17-H21=1.0934       C17-H22=1.0963       C18-C17=1.5277       C18-S19=1.8191       
C18-H23=1.0980       C18-H24=1.0983       S19-C18=1.8191       S19-Fe58=2.2468      H20-C17=1.0947       H21-C17=1.0934       
H22-C17=1.0963       H23-C18=1.0980       H24-C18=1.0983       C25-C26=1.5275       C25-H28=1.0931       C25-H29=1.0950       
C25-H30=1.0962       C26-C25=1.5275       C26-S27=1.8201       C26-H31=1.0986       C26-H32=1.0982       S27-C26=1.8201       
S27-Fe59=2.2558      H28-C25=1.0931       H29-C25=1.0950       H30-C25=1.0962       H31-C26=1.0986       H32-C26=1.0982       
C33-C34=1.5227       C33-H36=1.0924       C33-H37=1.0923       C33-H38=1.0941       C34-C33=1.5227       C34-S35=1.8316       
C34-H39=1.0958       C34-H40=1.0965       S35-C34=1.8316       S35-Fe57=2.2689      S35-Fe64=2.2125      H36-C33=1.0924       
H37-C33=1.0923       H38-C33=1.0941       H39-C34=1.0958       H40-C34=1.0965       C41-C42=1.5340       C41-H48=1.0906       
C41-H49=1.0910       C41-H50=1.0892       C42-C41=1.5340       C42-C43=1.4933       C42-H51=1.0946       C42-H52=1.0942       
C43-C42=1.4933       C43-N44=1.3727       C43-C47=1.3640       N44-C43=1.3727       N44-C45=1.3568       N44-H53=1.0033       
C45-N44=1.3568       C45-N46=1.3161       C45-H54=1.0920       N46-C45=1.3161       N46-C47=1.3709       N46-Fe57=2.2241      
C47-C43=1.3640       C47-N46=1.3709       C47-H55=1.0796       H48-C41=1.0906       H49-C41=1.0910       H50-C41=1.0892       
H51-C42=1.0946       H52-C42=1.0942       H53-N44=1.0033       H54-C45=1.0920       H55-C47=1.0796       Fe56-S11=2.2595      
Fe56-Fe58=2.5400     Fe56-Fe59=2.5613     Fe56-S61=2.1456      Fe56-S62=2.2446      Fe56-S63=2.2249      Fe56-Fe64=2.5836     
Fe57-S3=2.2220       Fe57-S35=2.2689      Fe57-N46=2.2241      Fe57-S62=2.1462      Fe57-Fe64=2.4223     Fe58-S19=2.2468      
Fe58-Fe56=2.5400     Fe58-Fe59=2.5411     Fe58-S60=2.1700      Fe58-S61=2.1654      Fe58-S63=2.2060      Fe58-Fe64=2.5520     
Fe59-S27=2.2558      Fe59-Fe56=2.5613     Fe59-Fe58=2.5411     Fe59-S60=2.1491      Fe59-S61=2.1579      Fe59-S62=2.2024      
Fe59-Fe64=2.6472     S60-Fe58=2.1700      S60-Fe59=2.1491      S60-Fe64=2.2035      S61-Fe56=2.1456      S61-Fe58=2.1654      
S61-Fe59=2.1579      S62-Fe56=2.2446      S62-Fe57=2.1462      S62-Fe59=2.2024      S62-Fe64=2.2990      S63-Fe56=2.2249      
S63-Fe58=2.2060      S63-Fe64=2.1908      S63-C65=1.8544       Fe64-S35=2.2125      Fe64-Fe56=2.5836     Fe64-Fe57=2.4223     
Fe64-Fe58=2.5520     Fe64-Fe59=2.6472     Fe64-S60=2.2035      Fe64-S62=2.2990      Fe64-S63=2.1908      C65-S63=1.8544       
C65-O66=1.2319       C65-O67=1.2331       O66-C65=1.2319       O67-C65=1.2331       
 C  H  Rav=1.0944 sigma=0.0037  Rmin=1.0796  Rmax=1.0988    32
 C  C  Rav=1.5029 sigma=0.0538  Rmin=1.3640  Rmax=1.5340     8
 N  H  Rav=1.0033 sigma=0.0000  Rmin=1.0033  Rmax=1.0033     1
 N  C  Rav=1.3541 sigma=0.0228  Rmin=1.3161  Rmax=1.3727     4
 O  C  Rav=1.2325 sigma=0.0006  Rmin=1.2319  Rmax=1.2331     2
 S  C  Rav=1.8274 sigma=0.0129  Rmin=1.8186  Rmax=1.8544     6
 Fe N  Rav=2.2241 sigma=0.0000  Rmin=2.2241  Rmax=2.2241     1
 Fe S  Rav=2.2090 sigma=0.0445  Rmin=2.1456  Rmax=2.2990    19
 Fe Fe Rav=2.5496 sigma=0.0623  Rmin=2.4223  Rmax=2.6472     7

 selected bond angles (degree)
 --------------------
H4-C1-C2=111.34                H5-C1-C2=110.12                H5-C1-H4=108.73                H6-C1-C2=109.78                
H6-C1-H4=108.56                H6-C1-H5=108.23                S3-C2-C1=111.31                H7-C2-C1=109.29                
H7-C2-S3=112.41                H8-C2-C1=109.06                H8-C2-S3=107.40                H8-C2-H7=107.23                
Fe57-S3-C2=110.37              H12-C9-C10=111.40              H13-C9-C10=109.77              H13-C9-H12=108.54              
H14-C9-C10=110.09              H14-C9-H12=108.79              H14-C9-H13=108.18              S11-C10-C9=111.23              
H15-C10-C9=109.06              H15-C10-S11=107.42             H16-C10-C9=109.52              H16-C10-S11=111.86             
H16-C10-H15=107.62             

 selected dihedral angles (degree)
 ---------------------------------
S3-C2-C1-H4=177.03            S3-C2-C1-H5=297.72            S3-C2-C1-H6= 56.79            H7-C2-C1-H4=301.78            
H7-C2-C1-H5= 62.47            H7-C2-C1-H6=181.54            H8-C2-C1-H4= 58.71            H8-C2-C1-H5=179.40            
H8-C2-C1-H6=298.47            Fe57-S3-C2-C1= 78.85          Fe57-S3-C2-H7=315.87          Fe57-S3-C2-H8=198.16          
S11-C10-C9-H12=182.33         S11-C10-C9-H13=302.57         S11-C10-C9-H14= 61.55         H15-C10-C9-H12=300.63         
H15-C10-C9-H13= 60.87         H15-C10-C9-H14=179.85         H16-C10-C9-H12= 58.16         H16-C10-C9-H13=178.40         
H16-C10-C9-H14=297.38         
           -------------------------------------------------
          |                Final Singlepoint                |
           -------------------------------------------------

          ...................................................
          :                      SETUP                      :
          :.................................................:
          :  # basis functions                 286          :
          :  # atomic orbitals                 272          :
          :  # shells                          148          :
          :  # electrons                       216          :
          :  # halogen bonds                     0          :
          :  max. iterations                   250          :
          :  Hamiltonian                  GFN1-xTB          :
          :  restarted?                      false          :
          :  GBSA solvation                   true          :
          :  PC potential                    false          :
          :  electronic temp.          300.0000000     K    :
          :  accuracy                    1.0000000          :
          :  -> integral cutoff          0.2500000E+02      :
          :  -> integral neglect         0.1000000E-07      :
          :  -> SCF convergence          0.1000000E-05 Eh   :
          :  -> wf. convergence          0.2000000E-04 e    :
          :  Broyden damping             0.4000000          :
          ...................................................

 iter      E             dE          RMSdq      gap      omega  full diag
   1   -117.8735704 -0.117874E+03  0.318E-05    0.16       0.0  T
   2   -117.8735700  0.424000E-06  0.119E-03    0.16      10.3  T
   3   -117.8735704 -0.403836E-06  0.269E-04    0.16      45.4  T
   4   -117.8735704 -0.197678E-07  0.506E-05    0.16     241.5  T
   5   -117.8735704  0.157308E-08  0.882E-05    0.16     138.5  T

   *** convergence criteria satisfied after 5 iterations ***

         #    Occupation            Energy/Eh            Energy/eV
      -------------------------------------------------------------
         1        2.0000           -0.7872259             -21.4215
       ...           ...                  ...                  ...
       102        2.0000           -0.2493561              -6.7853
       103        2.0000           -0.2460764              -6.6961
       104        2.0000           -0.2451051              -6.6696
       105        1.9997           -0.2428147              -6.6073
       106        1.9988           -0.2416022              -6.5743
       107        1.9943           -0.2401244              -6.5341
       108        1.9221           -0.2376092              -6.4657 (HOMO)
       109        0.0850           -0.2316039              -6.3023 (LUMO)
       110        0.0002           -0.2256678              -6.1407
       111        0.0000           -0.2235505              -6.0831
       112        0.0000           -0.2205342              -6.0010
       113                         -0.2184513              -5.9444
       ...                                ...                  ...
       272                         15.7058591             427.3782
      -------------------------------------------------------------
                  HL-Gap            0.0060053 Eh            0.1634 eV
             Fermi-level           -0.2345632 Eh           -6.3828 eV

 SCC (total)                   0 d,  0 h,  0 min,  0.950 sec
 SCC setup                      ...        0 min,  0.002 sec (  0.240%)
 Dispersion                     ...        0 min,  0.001 sec (  0.080%)
 classical contributions        ...        0 min,  0.000 sec (  0.020%)
 integral evaluation            ...        0 min,  0.034 sec (  3.601%)
 iterations                     ...        0 min,  0.746 sec ( 78.493%)
 molecular gradient             ...        0 min,  0.129 sec ( 13.544%)
 printout                       ...        0 min,  0.038 sec (  4.014%)

         :::::::::::::::::::::::::::::::::::::::::::::::::::::
         ::                     SUMMARY                     ::
         :::::::::::::::::::::::::::::::::::::::::::::::::::::
         :: total energy            -116.989148251547 Eh    ::
         :: total w/o Gsasa/hb      -116.985544388088 Eh    ::
         :: gradient norm              0.002351370344 Eh/a0 ::
         :: HOMO-LUMO gap              0.163412245101 eV    ::
         ::.................................................::
         :: SCC energy              -117.873570396918 Eh    ::
         :: -> electrostatic           0.706525683396 Eh    ::
         :: -> Gsolv                  -0.375914123125 Eh    ::
         ::    -> Gelec               -0.372310259666 Eh    ::
         ::    -> Gsasa               -0.004897160758 Eh    ::
         ::    -> Ghb                 -0.002952309372 Eh    ::
         ::    -> Gshift               0.004245606671 Eh    ::
         :: repulsion energy           0.951158101289 Eh    ::
         :: dispersion energy         -0.066735955919 Eh    ::
         :: halogen bond corr.         0.000000000000 Eh    ::
         :: add. restraining           0.000000000000 Eh    ::
         :: total charge              -2.999999999999 e     ::
         :::::::::::::::::::::::::::::::::::::::::::::::::::::

           -------------------------------------------------
          |                Property Printout                |
           -------------------------------------------------

    * Orbital Energies and Occupations

         #    Occupation            Energy/Eh            Energy/eV
      -------------------------------------------------------------
         1        2.0000           -0.7872259             -21.4215
       ...           ...                  ...                  ...
        96        2.0000           -0.2614411              -7.1142
        97        2.0000           -0.2589075              -7.0452
        98        2.0000           -0.2559900              -6.9658
        99        2.0000           -0.2540423              -6.9128
       100        2.0000           -0.2532483              -6.8912
       101        2.0000           -0.2515692              -6.8455
       102        2.0000           -0.2493561              -6.7853
       103        2.0000           -0.2460764              -6.6961
       104        2.0000           -0.2451051              -6.6696
       105        1.9997           -0.2428147              -6.6073
       106        1.9988           -0.2416022              -6.5743
       107        1.9943           -0.2401244              -6.5341
       108        1.9221           -0.2376092              -6.4657 (HOMO)
       109        0.0850           -0.2316039              -6.3023 (LUMO)
       110        0.0002           -0.2256678              -6.1407
       111        0.0000           -0.2235505              -6.0831
       112        0.0000           -0.2205342              -6.0010
       113                         -0.2184513              -5.9444
       114                         -0.2109056              -5.7390
       115                         -0.2022232              -5.5028
       116                         -0.2016990              -5.4885
       117                         -0.1973977              -5.3715
       118                         -0.1940352              -5.2800
       119                         -0.1870920              -5.0910
       ...                                ...                  ...
       272                         15.7058591             427.3782
      -------------------------------------------------------------
                  HL-Gap            0.0060053 Eh            0.1634 eV
             Fermi-level           -0.2345632 Eh           -6.3828 eV

  Mulliken/CM5 charges         n(s)   n(p)   n(d)
     1C    -0.06358 -0.21172   1.004  3.060  0.000
     2C     0.02104 -0.07301   1.025  2.954  0.000
     3S    -0.32332 -0.41281   1.894  4.438 -0.009
     4H    -0.00806  0.04261   1.008  0.000  0.000
     5H     0.00744  0.05984   0.993  0.000  0.000
     6H    -0.00520  0.04697   1.005  0.000  0.000
     7H    -0.01760  0.04039   1.018  0.000  0.000
     8H    -0.03321  0.02208   1.033  0.000  0.000
     9C    -0.06574 -0.21402   1.005  3.061  0.000
    10C     0.02137 -0.07331   1.025  2.954  0.000
    11S    -0.31056 -0.39958   1.901  4.420 -0.010
    12H    -0.00701  0.04366   1.007  0.000  0.000
    13H    -0.00586  0.04628   1.006  0.000  0.000
    14H     0.01045  0.06295   0.990  0.000  0.000
    15H    -0.03164  0.02365   1.032  0.000  0.000
    16H    -0.01468  0.04059   1.015  0.000  0.000
    17C    -0.06512 -0.21301   1.004  3.061  0.000
    18C     0.02125 -0.07284   1.024  2.955  0.000
    19S    -0.32705 -0.41270   1.895  4.442 -0.010
    20H    -0.01145  0.03922   1.011  0.000  0.000
    21H    -0.00956  0.04253   1.010  0.000  0.000
    22H     0.00400  0.05871   0.996  0.000  0.000
    23H    -0.03509  0.02019   1.035  0.000  0.000
    24H    -0.01811  0.03650   1.018  0.000  0.000
    25C    -0.06442 -0.21234   1.004  3.061  0.000
    26C     0.02323 -0.07083   1.023  2.953  0.000
    27S    -0.32970 -0.41391   1.896  4.444 -0.011
    28H    -0.00885  0.04329   1.009  0.000  0.000
    29H    -0.01236  0.03828   1.012  0.000  0.000
    30H     0.00339  0.05802   0.997  0.000  0.000
    31H    -0.01894  0.03560   1.019  0.000  0.000
    32H    -0.03529  0.02001   1.035  0.000  0.000
    33C    -0.06915 -0.21745   1.004  3.065  0.000
    34C     0.02707 -0.06904   1.029  2.944  0.000
    35S    -0.15933 -0.30771   1.888  4.274 -0.003
    36H     0.00473  0.05795   0.995  0.000  0.000
    37H    -0.00322  0.04926   1.003  0.000  0.000
    38H    -0.00205  0.04881   1.002  0.000  0.000
    39H    -0.00262  0.05681   1.003  0.000  0.000
    40H    -0.00722  0.05211   1.007  0.000  0.000
    41C    -0.07887 -0.22847   1.007  3.072  0.000
    42C    -0.04179 -0.14304   1.023  3.019  0.000
    43C     0.05925  0.11995   1.046  2.894  0.000
    44N    -0.27540 -0.63448   1.429  3.846  0.000
    45C     0.21544  0.31224   0.997  2.787  0.000
    46N    -0.27497 -0.52023   1.532  3.743  0.000
    47C     0.06088  0.08498   1.019  2.920  0.000
    48H     0.02559  0.07882   0.974  0.000  0.000
    49H     0.02642  0.07869   0.974  0.000  0.000
    50H     0.02983  0.08126   0.970  0.000  0.000
    51H     0.02741  0.08464   0.973  0.000  0.000
    52H     0.02832  0.08404   0.972  0.000  0.000
    53H     0.23803  0.43438   0.762  0.000  0.000
    54H     0.01913  0.09493   0.981  0.000  0.000
    55H     0.01089  0.07726   0.989  0.000  0.000
    56Fe   -0.03142  0.23899   0.137  0.942  6.953
    57Fe   -0.04912  0.21704   0.163  0.896  6.991
    58Fe   -0.03021  0.25315   0.144  0.965  6.921
    59Fe   -0.02818  0.25886   0.153  0.966  6.910
    60S    -0.10146 -0.33159   1.868  4.252 -0.019
    61S    -0.13420 -0.36692   1.865  4.287 -0.018
    62S     0.00816 -0.25723   1.858  4.148 -0.015
    63S    -0.00353 -0.21469   1.864  4.139  0.001
    64Fe   -0.01490  0.25081   0.113  0.942  6.960
    65C     0.60901  0.68647   0.964  2.427  0.000
    66O    -0.69004 -0.72763   1.748  4.942  0.000
    67O    -0.68228 -0.72427   1.747  4.936  0.000

Wiberg/Mayer (AO) data.
largest (>0.10) Wiberg bond orders for each atom

 ---------------------------------------------------------------------------
     #   Z sym  total        # sym  WBO       # sym  WBO       # sym  WBO
 ---------------------------------------------------------------------------
     1   6 C    3.993 --     2 C    1.017     6 H    0.988     4 H    0.986
                             5 H    0.984
     2   6 C    3.988 --     1 C    1.017     8 H    0.986     7 H    0.981
                             3 S    0.965
     3  16 S    1.969 --     2 C    0.965    57 Fe   0.805
     4   1 H    1.010 --     1 C    0.986
     5   1 H    1.026 --     1 C    0.984
     6   1 H    1.027 --     1 C    0.988
     7   1 H    1.022 --     2 C    0.981
     8   1 H    1.032 --     2 C    0.986
     9   6 C    3.993 --    10 C    1.018    13 H    0.988    12 H    0.986
                            14 H    0.981
    10   6 C    3.989 --     9 C    1.018    15 H    0.987    16 H    0.984
                            11 S    0.969
    11  16 S    2.056 --    10 C    0.969    56 Fe   0.710
    12   1 H    1.009 --     9 C    0.986
    13   1 H    1.026 --     9 C    0.988
    14   1 H    1.027 --     9 C    0.981
    15   1 H    1.030 --    10 C    0.987
    16   1 H    1.024 --    10 C    0.984
    17   6 C    3.990 --    18 C    1.017    21 H    0.989    20 H    0.986
                            22 H    0.973
    18   6 C    3.988 --    17 C    1.017    23 H    0.986    24 H    0.985
                            19 S    0.967
    19  16 S    1.980 --    18 C    0.967    58 Fe   0.741
    20   1 H    1.010 --    17 C    0.986
    21   1 H    1.026 --    17 C    0.989
    22   1 H    1.049 --    17 C    0.973
    23   1 H    1.030 --    18 C    0.986
    24   1 H    1.019 --    18 C    0.985
    25   6 C    3.990 --    26 C    1.017    28 H    0.988    29 H    0.986
                            30 H    0.973
    26   6 C    3.987 --    25 C    1.017    32 H    0.986    31 H    0.985
                            27 S    0.968
    27  16 S    1.998 --    26 C    0.968    59 Fe   0.734
    28   1 H    1.026 --    25 C    0.988
    29   1 H    1.010 --    25 C    0.986
    30   1 H    1.049 --    25 C    0.973
    31   1 H    1.019 --    26 C    0.985
    32   1 H    1.030 --    26 C    0.986
    33   6 C    3.993 --    34 C    1.021    37 H    0.988    38 H    0.985
                            36 H    0.985
    34   6 C    3.990 --    33 C    1.021    40 H    0.983    39 H    0.981
                            35 S    0.930
    35  16 S    2.359 --    34 C    0.930    64 Fe   0.644    57 Fe   0.601
    36   1 H    1.023 --    33 C    0.985
    37   1 H    1.025 --    33 C    0.988
    38   1 H    1.008 --    33 C    0.985
    39   1 H    1.018 --    34 C    0.981
    40   1 H    1.042 --    34 C    0.983
    41   6 C    3.997 --    42 C    1.000    48 H    0.989    49 H    0.989
                            50 H    0.988
    42   6 C    3.998 --    43 C    1.015    41 C    1.000    52 H    0.978
                            51 H    0.975
    43   6 C    3.919 --    47 C    1.574    44 N    1.151    42 C    1.015
                            45 C    0.103
    44   7 N    3.461 --    45 C    1.221    43 C    1.151    53 H    0.910
    45   6 C    3.908 --    46 N    1.512    44 N    1.221    54 H    0.935
                            43 C    0.103
    46   7 N    3.246 --    45 C    1.512    47 C    1.245    57 Fe   0.326
    47   6 C    3.963 --    43 C    1.574    46 N    1.245    55 H    0.973
    48   1 H    1.007 --    41 C    0.989
    49   1 H    1.008 --    41 C    0.989
    50   1 H    1.004 --    41 C    0.988
    51   1 H    1.006 --    42 C    0.975
    52   1 H    1.007 --    42 C    0.978
    53   1 H    0.946 --    44 N    0.910
    54   1 H    1.069 --    45 C    0.935
    55   1 H    1.027 --    47 C    0.973
    56  26 Fe   5.358 --    61 S    0.859    58 Fe   0.798    59 Fe   0.725
                            11 S    0.710    62 S    0.620    63 S    0.559
                            64 Fe   0.463    57 Fe   0.321
    57  26 Fe   4.782 --    64 Fe   1.016     3 S    0.805    62 S    0.794
                            35 S    0.601    59 Fe   0.377    46 N    0.326
                            56 Fe   0.321    58 Fe   0.298
    58  26 Fe   5.635 --    60 S    0.827    61 S    0.809    56 Fe   0.798
                            19 S    0.741    59 Fe   0.688    64 Fe   0.622
                            63 S    0.593    57 Fe   0.298
    59  26 Fe   5.658 --    60 S    0.871    61 S    0.823    27 S    0.734
                            56 Fe   0.725    62 S    0.707    58 Fe   0.688
                            64 Fe   0.531    57 Fe   0.377
    60  16 S    2.686 --    59 Fe   0.871    58 Fe   0.827    64 Fe   0.737
    61  16 S    2.618 --    56 Fe   0.859    59 Fe   0.823    58 Fe   0.809
    62  16 S    2.791 --    57 Fe   0.794    59 Fe   0.707    56 Fe   0.620
                            64 Fe   0.552
    63  16 S    2.722 --    65 C    0.731    64 Fe   0.609    58 Fe   0.593
                            56 Fe   0.559
    64  26 Fe   5.473 --    57 Fe   1.016    60 S    0.737    35 S    0.644
                            58 Fe   0.622    63 S    0.609    62 S    0.552
                            59 Fe   0.531    56 Fe   0.463
    65   6 C    3.841 --    66 O    1.519    67 O    1.511    63 S    0.731
    66   8 O    1.795 --    65 C    1.519    67 O    0.169
    67   8 O    1.813 --    65 C    1.511    66 O    0.169
 ---------------------------------------------------------------------------

Topologies differ in total number of bonds
Writing topology from bond orders to xtbtopo.mol

 dipole moment from electron density (au)
     X       Y       Z   
-306.2299 -63.5747-274.3280  total (Debye): 1057.423

           -------------------------------------------------
          |                Geometry Summary                 |
           -------------------------------------------------

      molecular mass/u    :      853.2548442
   center of mass at/Å    :       53.5429295      11.8957520      49.1333760
  moments of inertia/u·Å² :        0.5626312E+04   0.9557345E+04   0.1042618E+05
rotational constants/cm⁻¹ :        0.2996213E-02   0.1763841E-02   0.1616856E-02

 * 68 selected distances

     #   Z          #   Z                                           value/Å
     1   6 C        2   6 C                                       1.5273992
     1   6 C        4   1 H                                       1.0945025
     1   6 C        5   1 H                                       1.0941731
     1   6 C        6   1 H                                       1.0927962
     2   6 C        7   1 H                                       1.0986587
     2   6 C        8   1 H                                       1.0978686
     9   6 C       10   6 C                                       1.5266888
     9   6 C       12   1 H                                       1.0943903
     9   6 C       13   1 H                                       1.0929396
     9   6 C       14   1 H                                       1.0943346
    10   6 C       15   1 H                                       1.0974656
    10   6 C       16   1 H                                       1.0987930
    17   6 C       18   6 C                                       1.5276697
    17   6 C       20   1 H                                       1.0947366
    17   6 C       21   1 H                                       1.0933711
    17   6 C       22   1 H                                       1.0962545
    18   6 C       23   1 H                                       1.0980122
    18   6 C       24   1 H                                       1.0982639
    25   6 C       26   6 C                                       1.5274864
    25   6 C       28   1 H                                       1.0931377
    25   6 C       29   1 H                                       1.0950163
    25   6 C       30   1 H                                       1.0961751
    26   6 C       31   1 H                                       1.0986411
    26   6 C       32   1 H                                       1.0982238
    33   6 C       34   6 C                                       1.5226989
    34   6 C       35  16 S                                       1.8315693
    33   6 C       36   1 H                                       1.0923864
    33   6 C       37   1 H                                       1.0922907
    33   6 C       38   1 H                                       1.0940771
    34   6 C       39   1 H                                       1.0958381
    34   6 C       40   1 H                                       1.0964645
    41   6 C       42   6 C                                       1.5340410
    42   6 C       43   6 C                                       1.4933103
    43   6 C       44   7 N                                       1.3727096
    44   7 N       45   6 C                                       1.3567963
    45   6 C       46   7 N                                       1.3160531
    43   6 C       47   6 C                                       1.3640061
    46   7 N       47   6 C                                       1.3708581
    41   6 C       48   1 H                                       1.0905537
    41   6 C       49   1 H                                       1.0909974
    41   6 C       50   1 H                                       1.0892006
    42   6 C       51   1 H                                       1.0946454
    42   6 C       52   1 H                                       1.0941841
    44   7 N       53   1 H                                       1.0032964 (min)
    45   6 C       54   1 H                                       1.0920069
    47   6 C       55   1 H                                       1.0795756
     3  16 S       57  26 Fe                                      2.2219899
    35  16 S       57  26 Fe                                      2.2688930
    19  16 S       58  26 Fe                                      2.2468224
    27  16 S       59  26 Fe                                      2.2557903
    58  26 Fe      60  16 S                                       2.1700391
    59  26 Fe      60  16 S                                       2.1490546
    56  26 Fe      61  16 S                                       2.1456230
    58  26 Fe      61  16 S                                       2.1653854
    59  26 Fe      61  16 S                                       2.1578629
    56  26 Fe      62  16 S                                       2.2445895
    57  26 Fe      62  16 S                                       2.1462260
    59  26 Fe      62  16 S                                       2.2023904
    56  26 Fe      63  16 S                                       2.2248921
    58  26 Fe      63  16 S                                       2.2059729
    35  16 S       64  26 Fe                                      2.2124821
    57  26 Fe      64  26 Fe                                      2.4223359
    58  26 Fe      64  26 Fe                                      2.5520237 (max)
    60  16 S       64  26 Fe                                      2.2034862
    62  16 S       64  26 Fe                                      2.2989864
    63  16 S       64  26 Fe                                      2.1908363
    65   6 C       66   8 O                                       1.2318600
    65   6 C       67   8 O                                       1.2331460

 * 8 distinct bonds (by element types)

   Z      Z             #   av. dist./Å        max./Å        min./Å
   1 H    6 C          32     1.0943742     1.0987930     1.0795756
   6 C    6 C           8     1.5029126     1.5340410     1.3640061
   1 H    7 N           1     1.0032964     1.0032964     1.0032964
   6 C    7 N           4     1.3541043     1.3727096     1.3160531
   6 C    8 O           2     1.2325030     1.2331460     1.2318600
   6 C   16 S           1     1.8315693     1.8315693     1.8315693
  16 S   26 Fe         18     2.2061846     2.2989864     2.1456230
Note: The following floating-point exceptions are signalling: IEEE_UNDERFLOW_FLAG IEEE_DENORMAL
normal termination of xtb
  26 Fe  26 Fe          2     2.4871798     2.5520237     2.4223359


optimized geometry written to: xtbopt.xyz


           -------------------------------------------------
          | TOTAL ENERGY             -116.989148251547 Eh   |
          | GRADIENT NORM               0.002351370344 Eh/α |
          | HOMO-LUMO GAP               0.163412245101 eV   |
           -------------------------------------------------

------------------------------------------------------------------------
 * finished run on 2026/09/12 at 19:35:45.652     
------------------------------------------------------------------------
 total:
 * wall-time:     0 d,  0 h,  3 min, 29.346 sec
 *  cpu-time:     0 d,  0 h,  4 min, 58.222 sec
 * ratio c/w:     1.425 speedup
 SCF:
 * wall-time:     0 d,  0 h,  0 min,  6.243 sec
 *  cpu-time:     0 d,  0 h,  0 min,  7.390 sec
 * ratio c/w:     1.184 speedup
 ANC optimizer:
 * wall-time:     0 d,  0 h,  3 min, 23.040 sec
 *  cpu-time:     0 d,  0 h,  4 min, 50.451 sec
 * ratio c/w:     1.431 speedup

