67
 energy: -117.205172423440 gnorm: 0.002752489970 xtb: 6.6.1 (unknown)
C           52.89050382673810       14.84710153143952       53.79128955218420
C           53.22653729349721       16.06750397291284       52.93696972303909
S           54.04261381202676       15.62439893638668       51.37136802673205
H           52.43867348419448       15.13973495191013       54.74477898365200
H           52.19162127342305       14.19467264703920       53.25909769229812
H           53.79960617174179       14.27675763331901       54.00018182926676
H           52.31253083318800       16.65611972659052       52.77191445049458
H           53.92170258240870       16.70996592510063       53.49358864161084
C           48.02635325581581        8.64886609129273       49.11742340956339
C           49.01383461702022        9.65671735409918       49.70371253325151
S           49.92361810612738       10.43106652504531       48.32640822188997
H           47.45745491560729        8.13125419096466       49.89611258176664
H           47.32375615577065        9.16328827538620       48.45728336578214
H           48.56264429340785        7.90598449794197       48.52179377286188
H           48.45112080873218       10.42050910010459       50.25922808365897
H           49.67192024388978        9.14429687702529       50.41726139306194
C           57.76062366975095        8.22748810017363       46.98790486415002
C           56.56247943884972        7.30859991417662       46.75052824070228
S           55.11001388721020        8.21176674382947       46.12858041227746
H           58.64233887604747        7.66132774162173       47.30729789091027
H           58.00594448233595        8.76093869381016       46.06504062898664
H           57.52025969397503        8.97009569432980       47.75910619876315
H           56.83350689482569        6.56730675398700       45.98524914228299
H           56.34128479587424        6.75242731414049       47.67313500388393
C           57.55999941569336        9.31386938096039       51.76216434792426
C           56.30345109868067        8.68139253387413       52.36061036253048
S           54.88443587521480        9.82094306595188       52.38173004253161
H           57.83480442386437       10.20491531888909       52.33352521357116
H           58.40450359137454        8.61577233014572       51.77975463556887
H           57.37530472869773        9.61727469044498       50.72374405433138
H           56.07552674578803        7.74821081863194       51.82486170829636
H           56.51168715440856        8.41040313596143       53.40525199570114
C           54.75128759820566       16.73343152984519       47.54943094226392
C           54.68331679983901       15.27270940345385       47.11663633840563
S           54.92672792100524       14.21726664883108       48.58852092700701
H           53.96837362566642       16.95115401727962       48.28200040018679
H           55.71569356969508       16.93514678201707       48.02202864387750
H           54.63300840358901       17.41249692009038       46.69882692287916
H           53.73071577584609       15.08071654745013       46.60505119506099
H           55.49665831856070       15.07454579128021       46.40618811253444
C           51.67954438156119       18.97279121012834       50.63269668323598
C           50.57935050493717       18.30283533851937       49.79538102282794
C           50.79902474566810       16.82728700411652       49.68400627226296
N           50.48727458446469       15.96174355817988       50.73799085202033
C           51.04152010979396       14.68042631432248       50.36136563149707
N           51.36686699503152       14.74403840137661       49.01525083321034
C           51.28983244376406       16.07295370981029       48.66745248638119
H           51.61819359540557       18.64352472575307       51.67172433077817
H           52.66692151098970       18.70965484975452       50.24435110778694
H           51.56946522190427       20.05786443095728       50.61028063916835
H           49.60729583166116       18.51706964680904       50.25703018716934
H           50.57480776130095       18.74863737652009       48.79308603445839
H           50.57441238909782       16.30257168237725       51.68599442818697
H           50.40689056611419       13.84381466870308       50.68327866248806
H           51.52749062417479       16.41297001827677       47.66372503787630
Fe          52.12074640935513       10.46503904935956       48.77152920449220
Fe          52.95884604685356       14.20586893747673       50.01008843806470
Fe          54.30540763277249        9.54126016450334       47.79581880437602
Fe          54.18298940976680       10.22594735220762       50.24645821527838
S           55.86966881571297       10.57966555756531       48.91756123017713
S           53.07694200925791        8.61017877000257       49.32038428530870
S           52.86352105614779       12.03129850956543       50.22059822445046
S           53.10199788203516       11.18048631673218       46.86842753202355
Fe          54.35668944548564       12.05239734920443       48.52779903453215
C           52.85761256433982       11.24566190449953       45.05056412182774
O           51.92546922401634       10.55514963893649       44.61420986506158
O           53.62600077972177       12.01483814746911       44.45426771907643
