31
 energy: -68.895494522145 gnorm: 0.002846993417 xtb: 6.6.1 (unknown)
Fe           0.51966080143094        0.84104989119749        0.74262285902902
Fe           0.74178429749589       -0.92715668531962       -1.02263834239345
Fe          -1.20076637049723        0.70829962442024       -1.10870669191473
Fe          -1.14201778348811       -1.06382501652548        0.67580050416024
S           -1.59725085697367        1.01363805029816        0.98126960580354
S            0.96406733461424       -1.24286130675155        1.07570555874193
S            0.88061725894851        1.17484431781212       -1.36097111329103
S           -1.34386659801425       -1.40429076574177       -1.42633598431762
S            1.77428016306933        2.24056244404285        2.02815200578283
C            4.48171520141317        1.97404349783926        2.35715974211075
H            4.53299587827293        2.72026843481116        3.14926533948335
H            5.43371816817995        1.94105941452421        1.82978567825745
H            4.27581116477762        1.01053458150909        2.82108209400099
S            2.07743915279080       -2.15879678969723       -2.27497239617359
C            3.79744326634185       -1.72538467159777       -1.87496274252833
H            4.02317452253527       -0.68387182478562       -2.11544954515860
H            4.44235921658629       -2.36305338889519       -2.48223113759183
H            4.03392267502736       -1.90369119882213       -0.82279281575362
S           -2.38496791719707        2.00113938185763       -2.46799253376461
C           -4.13131176893845        1.92391808243707       -1.96634826751989
H           -4.55282986234409        0.92538316494973       -2.10340663070694
H           -4.68227991884382        2.61740416331531       -2.60531753442125
H           -4.27832773451214        2.22725729085512       -0.92654793064835
S           -2.21186905527507       -2.45944930127809        2.02435712342065
C           -3.98785007108550       -2.07788769465663        1.97920614828447
H           -4.48106026648971       -2.74700703547522        2.68757812408823
H           -4.41992597129550       -2.25107818785079        0.99088186927916
H           -4.19799229387569       -1.04821146406611        2.27861365595059
C            3.37853918673729        2.34469075323065        1.39033228769302
O            3.62145430239558        2.81297482074391        0.27936308961784
O            1.96383284816606        1.76111793741286        3.48766909037772
