    28
 geometry
 Fe                    0.87234680     0.96675255     0.97226796
 Fe                    0.86218981    -0.97415019    -0.96992353
 Fe                   -0.86151801     0.97472977    -0.96947328
 Fe                   -0.87219221    -0.96671899     0.97104378
 S                    -1.30753707     1.28995656     1.28452695
 S                     1.30751797    -1.29060115     1.28424988
 S                     1.32059685     1.27805621    -1.28219879
 S                    -1.31970180    -1.27708173    -1.28330925
 S                     1.93313076     2.38781730     2.39338066
 C                     3.74935508     2.18419725     2.19133881
 H                     4.27854661     2.88216769     2.88092990
 H                     4.07172698     2.41250697     1.15275170
 H                     4.07171206     1.14849940     2.43240883
 S                     1.90970620    -2.39660618    -2.39706483
 C                     3.72638718    -2.19931720    -2.19229855
 H                     4.05071071    -1.16140954    -2.41979364
 H                     4.25499846    -2.88956383    -2.88999590
 H                     4.04694852    -2.44242536    -1.15686102
 S                    -1.90994183     2.39721059    -2.39590659
 C                    -3.72640306     2.19885543    -2.19159166
 H                    -4.04949929     1.16060112    -2.42058487
 H                    -4.25539848     2.88884401    -2.88846329
 H                    -4.04691840     2.43951615    -1.15512231
 S                    -1.93381550    -2.38796905     2.39113674
 C                    -3.75003220    -2.18377219     2.19198956
 H                    -4.27842052    -2.88167551     2.88121708
 H                    -4.07334761    -2.41175266     1.15329800
 H                    -4.07114796    -1.14666737     2.43204765
