31
 energy: -68.888308058361 gnorm: 0.003004960973 xtb: 6.6.1 (unknown)
Fe           0.87872854976568        1.38276289418132        0.39053923421717
Fe           0.76880131668635       -0.56916814888986       -1.29158691353745
Fe          -1.15556580669256        1.01798034799272       -1.07504734730980
Fe          -0.72519333891264       -0.67140117763043        0.78140205094001
S           -1.18875113293819        1.43884930835706        1.00580783736203
S            1.42050229837973       -0.68728649198573        0.76628291237434
S            0.85642691976794        1.53754491968646       -1.72674374540608
S           -1.29035247389967       -1.07946250979864       -1.30611810097872
S            2.12520398508324        2.64428252622383        1.65809415160394
C            3.71612217869757        1.80537732999337        1.91851661893826
H            4.20205255472410        2.27655786163040        2.77491344833170
H            4.36800027000900        1.91808242835440        1.04974068994186
H            3.59362482745303        0.74038326611286        2.12959370192997
S            2.20938454799133       -1.75128045295661       -2.45708636335099
C            3.44655380029708       -2.47540206262092       -1.33771349431109
H            4.27303544789288       -1.77632994476246       -1.18249691874348
H            3.84028993405839       -3.37615763780010       -1.81214010605467
H            3.03071575111523       -2.74523047652164       -0.36411463767982
S           -2.55230136642401        2.33529592665794       -2.16718832357798
C           -4.19205549649839        2.29939790646151       -1.38197971858954
H           -4.63807103664091        1.30263305142696       -1.41226232346436
H           -4.83491310959296        2.98018829698693       -1.94315720296610
H           -4.15452563315350        2.63886084930896       -0.34484550440616
S           -1.17424753319681       -1.46001516592540        2.85444669948241
C           -3.25852684514477       -2.37372779248846        1.24764547252487
H           -3.78259582757106       -3.08839350137743        1.88615049116652
H           -3.44078938667814       -2.63854403179022        0.20620237576240
H           -3.64631177922475       -1.37473054300164        1.45050551137211
C           -1.76448165733131       -2.46574978603696        1.54263249079182
O           -2.42465839991081       -0.78348714942057        3.47497901401835
O           -1.10425402783592       -3.43915161020817        1.13382689955384
