67
 energy: -116.989148251547 gnorm: 0.002351370344 xtb: 6.6.1 (unknown)
C           53.09240903568234       14.47991569875017       53.95443803309890
C           53.38612661520003       15.59966440593598       52.95802413015237
S           54.74494102384686       15.14722990022103       51.83715201444603
H           52.31054497894678       14.77183281353296       54.66254002368015
H           52.76788049068306       13.57957324782585       53.42408044426625
H           53.99787543933010       14.23800839705862       54.51641204349470
H           52.46458517521657       15.85521741717411       52.41718703536245
H           53.69944588407946       16.49634858133831       53.50857275851445
C           49.16363857010599        9.66653663573266       50.79354600841823
C           49.40229390277800       11.13884656853664       50.46777703927695
S           50.06793051892144       11.34237557264796       48.78573477055815
H           48.72517533549861        9.54371833484097       51.78871214385337
H           48.48300801935191        9.23073155312818       50.05779282143635
H           50.10795768240555        9.11494539179750       50.75384000114678
H           48.44554996878399       11.67487185133766       50.50959131944025
H           50.06406015284849       11.58007237845826       51.22588715966010
C           57.67764715290473        8.20409742991787       46.81215425506460
C           56.41032202869688        7.42265213152639       46.47009504974192
S           55.04670918508157        8.51264332056390       45.95855504953779
H           58.50015876110940        7.53055442677106       47.07342511388920
H           57.98270752334633        8.81130578070949       45.95559344249793
H           57.49075433386722        8.87532376759499       47.65849934815626
H           56.62131205257192        6.75750116939597       45.62234044127616
H           56.13049759388435        6.78746141485559       47.32122044004657
C           57.60090447215300        8.84831915630601       51.66063326358652
C           56.33315002154939        8.11951692358653       52.10206312870738
S           54.91405478305291        9.24378625971318       52.28937806189450
H           57.82855039963763        9.65428800676737       52.36315817256526
H           58.45695331179936        8.16660230968875       51.62186485848100
H           57.45680922256027        9.28983910510663       50.66771017862582
H           56.12028596020426        7.29879152590630       51.40341382251498
H           56.50963410954685        7.66929319980285       53.08808912012780
C           54.91241353217529       16.46149789657939       47.26642463086743
C           54.42734547908992       15.02045342318316       47.18450146402053
S           55.34603397330502       14.02979982258671       48.42113494825544
H           54.68226873525342       16.88454671682782       48.24691988207736
H           55.99537155438581       16.49901612805228       47.12897274401748
H           54.44052983150755       17.08523696680662       46.50138882065264
H           53.34260319495925       14.98660199765582       47.33632097857546
H           54.64433482928216       14.61699198658884       46.18832447812523
C           49.54491043649179       18.57309997743122       50.33964793436656
C           50.45766497216192       18.21144753500472       49.16093338308705
C           51.01215642015755       16.83349482013944       49.31507889225768
N           50.28135822118414       15.71314399155015       49.00672964304567
C           51.03223238696606       14.62461607537849       49.31035917962859
N           52.19788785791705       14.99952562357690       49.79273419391289
C           52.19792077954707       16.37032938215432       49.80492870959522
H           48.71390429807622       17.86983777479904       50.40413174341039
H           50.10374797077026       18.53886510999229       51.27602587127559
H           49.14323767538494       19.57699655457012       50.20846762552369
H           49.88573270002505       18.28357732395683       48.23037490469694
H           51.28135335869108       18.92976768433214       49.10809083587386
H           49.34383333685878       15.71700752625085       48.64946839897467
H           50.68383497867454       13.60138498433153       49.15512923645912
H           53.04892472576766       16.93309411093094       50.15787554319493
Fe          52.23010051445817       10.68912383016587       48.84439759837456
Fe          54.00993700156418       13.78956764976146       50.23910301662820
Fe          54.26127596921405        9.64393420722191       47.73379746235413
Fe          54.23356293338630        9.94633586315875       50.25665974431760
S           55.88392729215072       10.40338255415726       48.95826044590942
S           52.91157277067178        8.67354917276993       49.12143834424516
S           53.15170753239369       11.84458859528959       50.53369408509425
S           53.16925105187667       11.39534838823817       46.95511547083162
Fe          54.43022549115754       12.02679519447938       48.63171357958808
C           52.75414367748615       12.02554382324345       45.26118187832925
O           51.70985852073387       11.57027205046060       44.79248710774218
O           53.56771849066892       12.83419137218485       44.80859610127666
