28
 energy: -57.362491343584 gnorm: 0.002945559031 xtb: 6.6.1 (unknown)
Fe           0.91005180954757        0.88866376568415        0.89486124608892
Fe           0.90183630282193       -0.89713344805442       -0.89204973208246
Fe          -0.90158893669340        0.89662211910848       -0.89054478649522
Fe          -0.91015540751631       -0.88795555904264        0.89302352596089
S           -1.20765493335564        1.21281473369459        1.20903817765217
S            1.20739189454999       -1.21258368530052        1.20783800878708
S            1.21864197519005        1.20158480125673       -1.20504301186537
S           -1.21849567152027       -1.20159661254084       -1.20668218020284
S            1.95473105432770        2.28583322889482        2.29628027499645
C            3.76189980411635        2.14263635282643        2.15070892440619
H            4.20092894447750        2.85416210379775        2.85371610400321
H            4.11972369285417        2.39180937842119        1.14769751053818
H            4.12177829585161        1.14299615180964        2.41037564627322
S            1.93630196461204       -2.30130956997162       -2.29412008901001
C            3.74405894968986       -2.16130781035012       -2.15236485096429
H            4.10453436978654       -1.15909810963850       -2.40103269409769
H            4.18059310581783       -2.86505460570658       -2.86473812366897
H            4.10389162301675       -2.42271415004095       -1.15313676751308
S           -1.93605960454013        2.30182530613355       -2.29211831033852
C           -3.74388341811027        2.16039460293401       -2.15167698274708
H           -4.10338314000136        1.15820742531840       -2.40186049088334
H           -4.18074909162280        2.86476119215339       -2.86331649972879
H           -4.10438947367104        2.42007709703153       -1.15223343377916
S           -1.95478209829339       -2.28625150062121        2.29386393409123
C           -3.76210990928123       -2.14180524551676        2.15064916670987
H           -4.20096356050940       -2.85295674498216        2.85422910216396
H           -4.12124828202134       -2.39077011136673        1.14805158899390
H           -4.12090020952279       -1.14185105591909        2.41058473270099
