    28
 geometry
 Fe                    0.87079046     0.96600565     0.97090387
 Fe                    0.86272494    -0.97296086    -0.97020977
 Fe                   -0.86248983     0.97379670    -0.96969288
 Fe                   -0.87096006    -0.96683345     0.97070637
 S                    -1.29965054     1.29345586     1.28952510
 S                     1.29993098    -1.29299865     1.28795081
 S                     1.31075542     1.28244717    -1.28620057
 S                    -1.31075639    -1.28179725    -1.28790841
 S                     1.97842670     2.36385516     2.36986486
 C                     3.78049918     2.11526210     2.12437194
 H                     4.33138806     2.79991284     2.80296303
 H                     4.07726333     2.36481014     1.07851174
 H                     4.08127910     1.07219267     2.38187110
 S                     1.96259077    -2.38079310    -2.37018614
 C                     3.76372961    -2.13590657    -2.12636937
 H                     4.06232725    -1.08861415    -2.37091530
 H                     4.31039222    -2.81592756    -2.81433863
 H                     4.06218254    -2.39022773    -1.07982230
 S                    -1.96125547     2.38326966    -2.36886117
 C                    -3.76269341     2.13430116    -2.12444642
 H                    -4.06219016     1.08790252    -2.37068662
 H                    -4.31168751     2.81606268    -2.81263242
 H                    -4.06316675     2.38710839    -1.08212106
 S                    -1.97641347    -2.36610047     2.37037535
 C                    -3.77923921    -2.11181941     2.12255280
 H                    -4.33314800    -2.79557119     2.80394812
 H                    -4.07905953    -2.36443348     1.07798407
 H                    -4.08157015    -1.07639878     2.38286191
