    28
 geometry
 Fe                    0.87199871     0.96675455     0.97226556
 Fe                    0.86213614    -0.97403628    -0.96994415
 Fe                   -0.86176469     0.97463981    -0.96947703
 Fe                   -0.87207953    -0.96684273     0.97122186
 S                    -1.30662036     1.29032217     1.28524435
 S                     1.30648798    -1.29082302     1.28476689
 S                     1.31914545     1.27863059    -1.28256674
 S                    -1.31859256    -1.27770898    -1.28368435
 S                     1.93943112     2.38488570     2.39022512
 C                     3.75392703     2.17433257     2.18189644
 H                     4.28407499     2.87177016     2.87102198
 H                     4.07190526     2.40830712     1.14280021
 H                     4.07248357     1.13827715     2.42786696
 S                     1.91724369    -2.39435192    -2.39340247
 C                     3.73218895    -2.19123904    -2.18318000
 H                     4.05156277    -1.15172521    -2.41514106
 H                     4.26068687    -2.88011857    -2.88146503
 H                     4.04806749    -2.43722943    -1.14585300
 S                    -1.91717714     2.39565283    -2.39221560
 C                    -3.73169331     2.18833351    -2.18177411
 H                    -4.05072758     1.15015783    -2.41594045
 H                    -4.26108139     2.88034312    -2.87827538
 H                    -4.04853781     2.43480210    -1.14558009
 S                    -1.93932805    -2.38558008     2.38890207
 C                    -3.75346940    -2.17242369     2.17908757
 H                    -4.28387168    -2.86839045     2.87244765
 H                    -4.07378507    -2.40797607     1.14220914
 H                    -4.07261140    -1.13876371     2.42854366
