    28
 geometry
 Fe                    0.87201053     0.96279883     0.96642370
 Fe                    0.86544225    -0.96994474    -0.96862690
 Fe                   -0.86500536     0.97185406    -0.96797167
 Fe                   -0.87147330    -0.96420147     0.96794728
 S                    -1.28790309     1.30018415     1.29706452
 S                     1.28963222    -1.29823025     1.29407756
 S                     1.29940173     1.28907384    -1.29401624
 S                    -1.29971134    -1.28801758    -1.29571997
 S                     2.03691415     2.32899363     2.34083726
 C                     3.81978944     2.02387027     2.03489099
 H                     4.42641434     2.68586420     2.69172093
 H                     4.09538571     2.25725603     0.98022147
 H                     4.10286936     0.97057678     2.26944962
 S                     2.02800472    -2.35779938    -2.33635765
 C                     3.80888796    -2.05115455    -2.03365132
 H                     4.08844929    -0.99592065    -2.26682422
 H                     4.41333002    -2.70707291    -2.69998521
 H                     4.09626195    -2.28060855    -0.98151184
 S                    -2.02774302     2.36238062    -2.33256019
 C                    -3.81021250     2.04654540    -2.03801915
 H                    -4.08782981     0.99252790    -2.26546332
 H                    -4.41456315     2.71092325    -2.69682560
 H                    -4.09573070     2.27842317    -0.98463806
 S                    -2.03631523    -2.32866868     2.34492359
 C                    -3.82160313    -2.02968058     2.03003216
 H                    -4.42936541    -2.68093389     2.69665635
 H                    -4.09610470    -2.25513967     0.97707160
 H                    -4.09923290    -0.97389918     2.27085432
