    28
 geometry
 Fe                    0.87552306     0.95952110     0.96318989
 Fe                    0.86910761    -0.96785312    -0.96592811
 Fe                   -0.86881893     0.96970358    -0.96539154
 Fe                   -0.87548692    -0.96136408     0.96470993
 S                    -1.28578050     1.30252164     1.29913556
 S                     1.28685446    -1.30160502     1.29679036
 S                     1.29767840     1.29152381    -1.29748724
 S                    -1.29796484    -1.29044009    -1.29911675
 S                     2.05763412     2.31720848     2.33404166
 C                     3.83843842     1.99854351     2.00889724
 H                     4.46234182     2.65397440     2.66082498
 H                     4.10353050     2.20353194     0.95027339
 H                     4.11021975     0.94080355     2.21444987
 S                     2.05042291    -2.34914847    -2.32509128
 C                     3.83143765    -2.02332022    -2.01012855
 H                     4.09789298    -0.96622376    -2.21652794
 H                     4.45372964    -2.67875426    -2.66232215
 H                     4.10772205    -2.22964089    -0.95428905
 S                    -2.05056166     2.34979860    -2.32504540
 C                    -3.83200217     2.02649070    -2.00701286
 H                    -4.09635508     0.96772388    -2.21772829
 H                    -4.45437164     2.67350533    -2.66670821
 H                    -4.10719555     2.22752187    -0.95035514
 S                    -2.05859840    -2.32137723     2.33341337
 C                    -3.83983535    -1.99489705     2.01461906
 H                    -4.46530868    -2.66006292     2.65460708
 H                    -4.10370319    -2.20315257     0.95394823
 H                    -4.10655041    -0.93453265     2.21423187
