    28
 geometry
 Fe                    0.88034661     0.95563506     0.95921267
 Fe                    0.87565410    -0.96435571    -0.96265150
 Fe                   -0.87453797     0.96453065    -0.95998159
 Fe                   -0.87899607    -0.95638936     0.96001259
 S                    -1.28062623     1.30570227     1.30028884
 S                     1.27649798    -1.31009573     1.30856547
 S                     1.28295428     1.30524745    -1.30802077
 S                    -1.29428015    -1.29071137    -1.30158750
 S                     2.12238080     2.29011993     2.30779722
 C                     3.88667772     1.90384296     1.91663578
 H                     4.54631422     2.54242606     2.55251241
 H                     4.11390383     2.11992087     0.84526523
 H                     4.12333585     0.83418286     2.12690186
 S                     2.12212868    -2.32704332    -2.29727574
 C                     3.88675322    -1.93993973    -1.91323161
 H                     4.11473688    -0.86684874    -2.13537247
 H                     4.54317105    -2.57130493    -2.56148334
 H                     4.12759976    -2.14256053    -0.84298634
 S                    -2.11756229     2.32350227    -2.28290632
 C                    -3.88293669     1.92778603    -1.92188554
 H                    -4.11505656     0.86542910    -2.13324869
 H                    -4.54018139     2.57917780    -2.54697666
 H                    -4.13005930     2.14257896    -0.85760433
 S                    -2.12079860    -2.28348158     2.30830048
 C                    -3.88488999    -1.91722101     1.90268494
 H                    -4.54667905    -2.52327966     2.56672811
 H                    -4.11372596    -2.11622012     0.83974377
 H                    -4.12212469    -0.85063043     2.13056304
