      -----------------------------------------------------------      
     |                   =====================                   |     
     |                           x T B                           |     
     |                   =====================                   |     
     |                         S. Grimme                         |     
     |          Mulliken Center for Theoretical Chemistry        |     
     |                    University of Bonn                     |     
      -----------------------------------------------------------      

   * xtb version 6.6.1 (unknown) compiled by 'builduser@buildhost' on 2023-08-07

   xtb is free software: you can redistribute it and/or modify it under
   the terms of the GNU Lesser General Public License as published by
   the Free Software Foundation, either version 3 of the License, or
   (at your option) any later version.
   
   xtb is distributed in the hope that it will be useful,
   but WITHOUT ANY WARRANTY; without even the implied warranty of
   MERCHANTABILITY or FITNESS FOR A PARTICULAR PURPOSE.  See the
   GNU Lesser General Public License for more details.
   
   Cite this work as:
   * C. Bannwarth, E. Caldeweyher, S. Ehlert, A. Hansen, P. Pracht,
     J. Seibert, S. Spicher, S. Grimme, WIREs Comput. Mol. Sci., 2020, 11,
     e01493. DOI: 10.1002/wcms.1493
   
   for GFN2-xTB:
   * C. Bannwarth, S. Ehlert and S. Grimme., J. Chem. Theory Comput., 2019,
     15, 1652-1671. DOI: 10.1021/acs.jctc.8b01176
   for GFN1-xTB:
   * S. Grimme, C. Bannwarth, P. Shushkov, J. Chem. Theory Comput., 2017,
     13, 1989-2009. DOI: 10.1021/acs.jctc.7b00118
   for GFN0-xTB:
   * P. Pracht, E. Caldeweyher, S. Ehlert, S. Grimme, ChemRxiv, 2019, preprint.
     DOI: 10.26434/chemrxiv.8326202.v1
   for GFN-FF:
   * S. Spicher and S. Grimme, Angew. Chem. Int. Ed., 2020, 59, 15665-15673.
     DOI: 10.1002/anie.202004239
   
   for ALPB and GBSA implicit solvation:
   * S. Ehlert, M. Stahn, S. Spicher, S. Grimme, J. Chem. Theory Comput.,
     2021, 17, 4250-4261. DOI: 10.1021/acs.jctc.1c00471
   
   for DFT-D4:
   * E. Caldeweyher, C. Bannwarth and S. Grimme, J. Chem. Phys., 2017,
     147, 034112. DOI: 10.1063/1.4993215
   * E. Caldeweyher, S. Ehlert, A. Hansen, H. Neugebauer, S. Spicher,
     C. Bannwarth and S. Grimme, J. Chem. Phys., 2019, 150, 154122.
     DOI: 10.1063/1.5090222
   * E. Caldeweyher, J.-M. Mewes, S. Ehlert and S. Grimme, Phys. Chem. Chem. Phys.
     2020, 22, 8499-8512. DOI: 10.1039/D0CP00502A
   
   for sTDA-xTB:
   * S. Grimme and C. Bannwarth, J. Chem. Phys., 2016, 145, 054103.
     DOI: 10.1063/1.4959605
   
   in the mass-spec context:
   * V. Asgeirsson, C. Bauer and S. Grimme, Chem. Sci., 2017, 8, 4879.
     DOI: 10.1039/c7sc00601b
   * J. Koopman and S. Grimme, ACS Omega 2019, 4, 12, 15120-15133.
     DOI: 10.1021/acsomega.9b02011
   
   for metadynamics refer to:
   * S. Grimme, J. Chem. Theory Comput., 2019, 155, 2847-2862
     DOI: 10.1021/acs.jctc.9b00143
   
   for SPH calculations refer to:
   * S. Spicher and S. Grimme, J. Chem. Theory Comput., 2021, 17, 1701-1714
     DOI: 10.1021/acs.jctc.0c01306
   
   with help from (in alphabetical order)
   P. Atkinson, C. Bannwarth, F. Bohle, G. Brandenburg, E. Caldeweyher
   M. Checinski, S. Dohm, S. Ehlert, S. Ehrlich, I. Gerasimov, C. Hölzer
   A. Katbashev, J. Koopman, C. Lavigne, S. Lehtola, F. März, M. Müller,
   F. Musil, H. Neugebauer, J. Pisarek, C. Plett, P. Pracht, F. Pultar,
   J. Seibert, P. Shushkov, S. Spicher, M. Stahn, M. Steiner, T. Strunk,
   J. Stückrath, T. Rose, and J. Unsleber
   
 * started run on 2026/09/12 at 20:13:21.858     

           -------------------------------------------------
          |                Calculation Setup                |
           -------------------------------------------------

          program call               : xtb start.xyz --gfn 1 --chrg -2 --uhf 0 --alpb water --opt loose --input constrain.inp
          coordinate file            : start.xyz
          omp threads                :                     8

   ID    Z sym.   atoms
    1   26 Fe     1-4
    2   16 S      5-9, 14, 19, 24
    3    6 C      10, 15, 20, 25, 29
    4    1 H      11-13, 16-18, 21-23, 26-28
    5    8 O      30, 31
constraining bond 4 29 to    2.2000000 Å, actual value:    2.2000002 Å
constraining bond 29 30 to    1.1600000 Å, actual value:    1.1600001 Å
constraining bond 29 31 to    1.1600000 Å, actual value:    1.1600001 Å

molecular fragmentation (1/2 indicates fragments):
1111111122222222222222211111111
# atoms in fragment 1/2:    16    15
 fragment masses (1/2) :      442.75      141.30
CMA distance (Bohr)    :   4.090
constraining FC (au)   :  0.1000

           -------------------------------------------------
          |                 G F N 1 - x T B                 |
           -------------------------------------------------

        Reference                      10.1021/acs.jctc.7b00118
      * Hamiltonian:
        H0-scaling (s, p, d)           1.850000    2.250000    2.000000
        zeta-weighting                 0.000000
      * Dispersion:
        s8                             2.400000
        a1                             0.630000
        a2                             5.000000
        s9                             0.000000
      * Repulsion:
        kExp                           1.500000
        rExp                           1.000000
      * Coulomb:
        alpha                          2.000000
        third order                    atomic
        anisotropic                    false
      * Halogen bond correction:
        rad-scale                      1.300000
        damping                        0.440000

      * Solvation model:               ALPB
        Solvent                        water
        Parameter file                 internal GFN1-xTB/ALPB
        Dielectric constant                8.0200E+01
        Reference state                gsolv [1 M gas/solution]
        Free energy shift                  4.2456E-03 Eh       2.6642E+00 kcal/mol
        Temperature                        2.9815E+02 K
        Density                            1.0000E+00 kg/L
        Solvent mass                       1.8000E+01 g/mol
        Interaction kernel             P16
        Born radius scaling (c1)           1.9452E+00
        Born radii integrator          GBOBC
        Born offset                        0.0000E+00 a0       0.0000E+00 AA
        H-bond correction              true
        Ion screening                  false
        Surface tension                    1.0000E-05 Eh       1.5569E+01 dyn/cm
        Grid points                               230 per atom

          ...................................................
          :                      SETUP                      :
          :.................................................:
          :  # basis functions                 172          :
          :  # atomic orbitals                 160          :
          :  # shells                           74          :
          :  # electrons                       126          :
          :  # halogen bonds                     0          :
          :  max. iterations                   250          :
          :  Hamiltonian                  GFN1-xTB          :
          :  restarted?                      false          :
          :  GBSA solvation                   true          :
          :  PC potential                    false          :
          :  electronic temp.          300.0000000     K    :
          :  accuracy                    1.0000000          :
          :  -> integral cutoff          0.2500000E+02      :
          :  -> integral neglect         0.1000000E-07      :
          :  -> SCF convergence          0.1000000E-05 Eh   :
          :  -> wf. convergence          0.2000000E-04 e    :
          :  Broyden damping             0.4000000          :
          ...................................................

 iter      E             dE          RMSdq      gap      omega  full diag
   1    -42.2415867 -0.422416E+02  0.189E+01    0.37       0.0  T
   2    119.8393378  0.162081E+03  0.339E+01    0.01       1.0  T
   3    -54.6695702 -0.174509E+03  0.122E+01    0.10       1.0  T
   4     16.7477797  0.714173E+02  0.221E+01    0.39       1.0  T
   5    -60.0196598 -0.767674E+02  0.103E+01    0.12       1.0  T
   6    -28.6040436  0.314156E+02  0.156E+01    0.24       1.0  T
   7    -30.3305061 -0.172646E+01  0.160E+01    0.25       1.0  T
   8    -54.7624099 -0.244319E+02  0.964E+00    0.41       1.0  T
   9    -60.6558663 -0.589346E+01  0.757E+00    0.19       1.0  T
  10    -67.0227775 -0.636691E+01  0.350E+00    0.13       1.0  T
  11    -63.7653751  0.325740E+01  0.611E+00    0.16       1.0  T
  12    -56.7035679  0.706181E+01  0.921E+00    0.22       1.0  T
  13    -62.9222571 -0.621869E+01  0.647E+00    0.03       1.0  T
  14    -65.6171006 -0.269484E+01  0.461E+00    0.06       1.0  T
  15    -65.3322721  0.284829E+00  0.490E+00    0.07       1.0  T
  16    -66.7941734 -0.146190E+01  0.357E+00    0.18       1.0  T
  17    -67.2351718 -0.440998E+00  0.304E+00    0.19       1.0  T
  18    -67.7047030 -0.469531E+00  0.243E+00    0.13       1.0  T
  19    -67.6578299  0.468731E-01  0.259E+00    0.06       1.0  T
  20    -68.1969538 -0.539124E+00  0.115E+00    0.16       1.0  T
  21    -68.2323607 -0.354069E-01  0.967E-01    0.17       1.0  T
  22    -68.3080426 -0.756819E-01  0.554E-01    0.18       1.0  T
  23    -68.2965506  0.114921E-01  0.631E-01    0.14       1.0  T
  24    -68.3343558 -0.378053E-01  0.291E-01    0.14       1.0  T
  25    -68.3389431 -0.458723E-02  0.197E-01    0.15       1.0  T
  26    -68.3368318  0.211129E-02  0.240E-01    0.15       1.0  T
  27    -68.3417543 -0.492254E-02  0.129E-01    0.16       1.0  T
  28    -68.3426334 -0.879111E-03  0.953E-02    0.16       1.0  T
  29    -68.3435500 -0.916544E-03  0.364E-02    0.16       1.0  T
  30    -68.3436969 -0.146925E-03  0.927E-03    0.16       1.9  T
  31    -68.3437065 -0.957501E-05  0.191E-03    0.16       9.4  T
  32    -68.3437063  0.200991E-06  0.234E-03    0.16       7.7  T
  33    -68.3437069 -0.625567E-06  0.407E-04    0.16      44.1  T
  34    -68.3437069 -0.152820E-07  0.167E-04    0.16     107.7  T
  35    -68.3437069 -0.313558E-08  0.447E-05    0.16     402.0  T

   *** convergence criteria satisfied after 35 iterations ***

         #    Occupation            Energy/Eh            Energy/eV
      -------------------------------------------------------------
         1        2.0000           -1.1211064             -30.5069
       ...           ...                  ...                  ...
        57        2.0000           -0.2441615              -6.6440
        58        2.0000           -0.2439963              -6.6395
        59        2.0000           -0.2381092              -6.4793
        60        2.0000           -0.2358309              -6.4173
        61        2.0000           -0.2337230              -6.3599
        62        2.0000           -0.2291834              -6.2364
        63        1.8748           -0.2159618              -5.8766 (HOMO)
        64        0.0690           -0.2102249              -5.7205 (LUMO)
        65        0.0363           -0.2095993              -5.7035
        66        0.0199           -0.2090214              -5.6878
        67        0.0000           -0.2002732              -5.4497
        68                         -0.1965496              -5.3484
       ...                                ...                  ...
       160                         71.7666681            1952.8704
      -------------------------------------------------------------
                  HL-Gap            0.0057369 Eh            0.1561 eV
             Fermi-level           -0.2133906 Eh           -5.8067 eV

 SCC (total)                   0 d,  0 h,  0 min,  1.027 sec
 SCC setup                      ...        0 min,  0.003 sec (  0.280%)
 Dispersion                     ...        0 min,  0.000 sec (  0.036%)
 classical contributions        ...        0 min,  0.000 sec (  0.026%)
 integral evaluation            ...        0 min,  0.016 sec (  1.586%)
 iterations                     ...        0 min,  0.963 sec ( 93.767%)
 molecular gradient             ...        0 min,  0.035 sec (  3.417%)
 printout                       ...        0 min,  0.009 sec (  0.882%)

         :::::::::::::::::::::::::::::::::::::::::::::::::::::
         ::                     SUMMARY                     ::
         :::::::::::::::::::::::::::::::::::::::::::::::::::::
         :: total energy              -3.604222080041 Eh    ::
         :: total w/o Gsasa/hb        -3.601384172011 Eh    ::
         :: gradient norm            282.172104048050 Eh/a0 ::
         :: HOMO-LUMO gap              0.156107813350 eV    ::
         ::.................................................::
         :: SCC energy               -68.343706934487 Eh    ::
         :: -> electrostatic           0.414850940645 Eh    ::
         :: -> Gsolv                  -0.166939096310 Eh    ::
         ::    -> Gelec               -0.164101188280 Eh    ::
         ::    -> Gsasa               -0.006196859510 Eh    ::
         ::    -> Ghb                 -0.000886655191 Eh    ::
         ::    -> Gshift               0.004245606671 Eh    ::
         :: repulsion energy          64.769871867405 Eh    ::
         :: dispersion energy         -0.030387012959 Eh    ::
         :: halogen bond corr.         0.000000000000 Eh    ::
         :: add. restraining           0.000000000000 Eh    ::
         :: total charge              -2.000000000000 e     ::
         :::::::::::::::::::::::::::::::::::::::::::::::::::::

      ----------------------------------------------------------- 
     |                   =====================                   |
     |                        A N C O P T                        |
     |                   =====================                   |
     |               Approximate Normal Coordinate               |
     |                Rational Function Optimizer                |
      ----------------------------------------------------------- 

          ...................................................
          :                      SETUP                      :
          :.................................................:
          :   optimization level             loose          :
          :   max. optcycles                   200          :
          :   ANC micro-cycles                  20          :
          :   degrees of freedom                87          :
          :.................................................:
          :   RF solver                   davidson          :
          :   write xtbopt.log                true          :
          :   linear?                        false          :
          :   energy convergence         0.5000000E-04 Eh   :
          :   grad. convergence          0.4000000E-02 Eh/α :
          :   maxmium RF displ.          1.0000000          :
          :   Hlow (freq-cutoff)         0.1000000E-01      :
          :   Hmax (freq-cutoff)         5.0000000          :
          :   S6 in model hess.         20.0000000          :
          ...................................................

generating ANC from model Hessian ...
Using Lindh-Hessian (1995)
 Shifting diagonal of input Hessian by    9.9737158677258558E-003
 Lowest  eigenvalues of input Hessian
    0.000000    0.000000    0.000000    0.000000    0.000000    0.000000
    0.010000    0.010017    0.010041    0.010143    0.010384    0.011014
    0.011160    0.011224    0.011293    0.011326    0.011845    0.012070
 Highest eigenvalues
    5.528444    7.564097   13.535668   29.212264   47.507235  319.746454


........................................................................
.............................. CYCLE    1 ..............................
........................................................................

 iter      E             dE          RMSdq      gap      omega  full diag
   1    -68.3437069 -0.683437E+02  0.132E-05    0.16       0.0  T
   2    -68.3437069  0.184508E-07  0.374E-04    0.16      48.1  T
   3    -68.3437069 -0.183843E-07  0.263E-05    0.16     682.1  T
   4    -68.3437069  0.191420E-10  0.285E-05    0.16     630.9  T
     SCC iter.                  ...        0 min,  0.102 sec
     gradient                   ...        0 min,  0.030 sec
 * total energy  :    -3.6042221 Eh     change       -0.1248708E-09 Eh
   gradient norm :   282.1721042 Eh/α   predicted     0.0000000E+00 (-100.00%)
   displ. norm   :     0.9911815 α      lambda       -0.2796838E+03
   maximum displ.:     0.9450442 α      in ANC's #86, #85, #81, ...

........................................................................
.............................. CYCLE    2 ..............................
........................................................................

 iter      E             dE          RMSdq      gap      omega  full diag
   1    -68.4164392 -0.684164E+02  0.338E+00    0.34       0.0  T
   2    -52.0479759  0.163685E+02  0.110E+01    0.42       1.0  T
   3    -60.5126112 -0.846464E+01  0.787E+00    0.16       1.0  T
   4    -34.1008535  0.264118E+02  0.147E+01    0.19       1.0  T
   5    -65.5640204 -0.314632E+02  0.459E+00    0.24       1.0  T
   6    -62.1187692  0.344525E+01  0.729E+00    0.18       1.0  T
   7    -56.6910606  0.542771E+01  0.931E+00    0.34       1.0  T
   8    -65.4600371 -0.876898E+01  0.498E+00    0.09       1.0  T
   9    -66.4733440 -0.101331E+01  0.432E+00    0.14       1.0  T
  10    -66.2698116  0.203532E+00  0.439E+00    0.10       1.0  T
  11    -67.3053261 -0.103551E+01  0.326E+00    0.13       1.0  T
  12    -68.2688597 -0.963534E+00  0.172E+00    0.20       1.0  T
  13    -68.2480550  0.208047E-01  0.174E+00    0.19       1.0  T
  14    -68.4876203 -0.239565E+00  0.109E+00    0.19       1.0  T
  15    -68.5769500 -0.893297E-01  0.697E-01    0.17       1.0  T
  16    -68.6138045 -0.368545E-01  0.428E-01    0.18       1.0  T
  17    -68.6290243 -0.152198E-01  0.234E-01    0.19       1.0  T
  18    -68.6285902  0.434101E-03  0.232E-01    0.19       1.0  T
  19    -68.6314859 -0.289568E-02  0.170E-01    0.19       1.0  T
  20    -68.6344167 -0.293083E-02  0.727E-02    0.19       1.0  T
  21    -68.6348907 -0.473980E-03  0.379E-02    0.19       1.0  T
  22    -68.6350606 -0.169896E-03  0.546E-03    0.19       3.3  T
  23    -68.6350627 -0.218735E-05  0.341E-03    0.19       5.3  T
  24    -68.6350639 -0.117263E-05  0.144E-03    0.19      12.5  T
  25    -68.6350641 -0.165410E-06  0.832E-04    0.19      21.6  T
  26    -68.6350641 -0.633789E-07  0.392E-04    0.19      45.9  T
  27    -68.6350642 -0.157740E-07  0.138E-04    0.19     130.0  T
  28    -68.6350642 -0.217132E-08  0.309E-05    0.19     581.2  T
     SCC iter.                  ...        0 min,  0.721 sec
     gradient                   ...        0 min,  0.049 sec
 * total energy  :   -67.0887022 Eh     change       -0.6348448E+02 Eh
   gradient norm :     5.2185332 Eh/α   predicted    -0.2772283E+03 ( 336.69%)
   displ. norm   :     0.3541849 α      lambda       -0.3556716E+00
   maximum displ.:     0.2002580 α      in ANC's #81, #79, #48, ...

........................................................................
.............................. CYCLE    3 ..............................
........................................................................

 iter      E             dE          RMSdq      gap      omega  full diag
   1    -68.6062685 -0.686063E+02  0.889E-01    0.19       0.0  T
   2    -36.9400250  0.316662E+02  0.141E+01    0.50       1.0  T
   3    -66.3687071 -0.294287E+02  0.438E+00    0.26       1.0  T
   4    -65.5082509  0.860456E+00  0.490E+00    0.11       1.0  T
   5    -68.6769189 -0.316867E+01  0.699E-01    0.13       1.0  T
   6    -68.7062223 -0.293034E-01  0.570E-01    0.15       1.0  T
   7    -68.4308443  0.275378E+00  0.153E+00    0.15       1.0  T
   8    -68.6754100 -0.244566E+00  0.711E-01    0.15       1.0  T
   9    -68.7393687 -0.639587E-01  0.142E-01    0.15       1.0  T
  10    -68.7405399 -0.117120E-02  0.632E-02    0.15       1.0  T
  11    -68.7378417  0.269816E-02  0.154E-01    0.15       1.0  T
  12    -68.7400955 -0.225375E-02  0.789E-02    0.15       1.0  T
  13    -68.7402953 -0.199815E-03  0.685E-02    0.15       1.0  T
  14    -68.7403119 -0.166200E-04  0.671E-02    0.15       1.0  T
  15    -68.7404658 -0.153902E-03  0.567E-02    0.15       1.0  T
  16    -68.7408179 -0.352100E-03  0.174E-02    0.15       1.0  T
  17    -68.7408377 -0.197857E-04  0.118E-02    0.15       1.5  T
  18    -68.7408518 -0.141043E-04  0.430E-03    0.15       4.2  T
  19    -68.7408537 -0.187991E-05  0.140E-03    0.15      12.8  T
  20    -68.7408538 -0.134562E-06  0.773E-04    0.15      23.2  T
  21    -68.7408538 -0.425873E-07  0.405E-04    0.15      44.4  T
  22    -68.7408539 -0.150531E-07  0.229E-04    0.15      78.3  T
  23    -68.7408539 -0.534385E-08  0.519E-05    0.15     346.0  T
  24    -68.7408539 -0.211969E-09  0.223E-05    0.15     805.0  T
     SCC iter.                  ...        0 min,  0.644 sec
     gradient                   ...        0 min,  0.028 sec
 * total energy  :   -67.3758487 Eh     change       -0.2871465E+00 Eh
   gradient norm :     4.6892858 Eh/α   predicted    -0.2001519E+00 ( -30.30%)
   displ. norm   :     0.4099712 α      lambda       -0.4284979E+00
   maximum displ.:     0.3317691 α      in ANC's #81, #79, #48, ...

........................................................................
.............................. CYCLE    4 ..............................
........................................................................

 iter      E             dE          RMSdq      gap      omega  full diag
   1    -68.4234186 -0.684234E+02  0.171E+00    0.23       0.0  T
   2    -48.8337786  0.195896E+02  0.115E+01    0.17       1.0  T
   3    -64.7431995 -0.159094E+02  0.569E+00    0.27       1.0  T
   4    -59.3390006  0.540420E+01  0.825E+00    0.13       1.0  T
   5    -65.0494378 -0.571044E+01  0.531E+00    0.14       1.0  T
   6    -68.4793170 -0.342988E+01  0.175E+00    0.24       1.0  T
   7    -68.3021112  0.177206E+00  0.205E+00    0.10       1.0  T
   8    -68.5020635 -0.199952E+00  0.164E+00    0.10       1.0  T
   9    -68.6246712 -0.122608E+00  0.141E+00    0.13       1.0  T
  10    -68.6134665  0.112047E-01  0.143E+00    0.13       1.0  T
  11    -68.7015482 -0.880818E-01  0.110E+00    0.14       1.0  T
  12    -68.8593715 -0.157823E+00  0.279E-01    0.12       1.0  T
  13    -68.8338546  0.255169E-01  0.543E-01    0.13       1.0  T
  14    -68.8470631 -0.132085E-01  0.418E-01    0.12       1.0  T
  15    -68.8659823 -0.189192E-01  0.415E-02    0.12       1.0  T
  16    -68.8649212  0.106104E-02  0.104E-01    0.12       1.0  T
  17    -68.8662037 -0.128249E-02  0.815E-03    0.12       2.2  T
  18    -68.8661578  0.459474E-04  0.205E-02    0.12       1.0  T
  19    -68.8662103 -0.525297E-04  0.301E-03    0.12       6.0  T
  20    -68.8662111 -0.847984E-06  0.113E-03    0.12      15.9  T
  21    -68.8662112 -0.453575E-07  0.983E-04    0.12      18.3  T
  22    -68.8662112 -0.663493E-07  0.669E-04    0.12      26.9  T
  23    -68.8662113 -0.527476E-07  0.602E-05    0.12     298.5  T
  24    -68.8662113 -0.211813E-09  0.448E-05    0.12     401.2  T
     SCC iter.                  ...        0 min,  0.664 sec
     gradient                   ...        0 min,  0.038 sec
 * total energy  :   -67.7191761 Eh     change       -0.3433275E+00 Eh
   gradient norm :     3.6328949 Eh/α   predicted    -0.2502593E+00 ( -27.11%)
   displ. norm   :     0.4666448 α      lambda       -0.3841788E+00
   maximum displ.:     0.4084966 α      in ANC's #81, #79, #86, ...

........................................................................
.............................. CYCLE    5 ..............................
........................................................................

 iter      E             dE          RMSdq      gap      omega  full diag
   1    -68.7422973 -0.687423E+02  0.131E+00    0.29       0.0  T
   2    -41.4082546  0.273340E+02  0.134E+01    0.23       1.0  T
   3    -64.7504633 -0.233422E+02  0.602E+00    0.13       1.0  T
   4    -68.5183758 -0.376791E+01  0.193E+00    0.37       1.0  T
   5    -63.2404006  0.527798E+01  0.658E+00    0.06       1.0  T
   6    -68.7687776 -0.552838E+01  0.127E+00    0.42       1.0  T
   7    -67.3228534  0.144592E+01  0.353E+00    0.26       1.0  T
   8    -68.8012445 -0.147839E+01  0.111E+00    0.30       1.0  T
   9    -68.9602890 -0.159044E+00  0.200E-01    0.27       1.0  T
  10    -68.9524773  0.781169E-02  0.304E-01    0.29       1.0  T
  11    -68.9222920  0.301852E-01  0.564E-01    0.28       1.0  T
  12    -68.9586615 -0.363695E-01  0.195E-01    0.29       1.0  T
  13    -68.9632345 -0.457297E-02  0.744E-02    0.30       1.0  T
  14    -68.9628021  0.432376E-03  0.914E-02    0.29       1.0  T
  15    -68.9632488 -0.446651E-03  0.675E-02    0.29       1.0  T
  16    -68.9636555 -0.406742E-03  0.320E-02    0.29       1.0  T
  17    -68.9637287 -0.731333E-04  0.184E-02    0.29       1.0  T
  18    -68.9637426 -0.139427E-04  0.141E-02    0.29       1.3  T
  19    -68.9637494 -0.674618E-05  0.114E-02    0.29       1.6  T
  20    -68.9637588 -0.946723E-05  0.649E-03    0.29       2.8  T
  21    -68.9637625 -0.369076E-05  0.193E-03    0.29       9.3  T
  22    -68.9637629 -0.387045E-06  0.712E-04    0.29      25.2  T
  23    -68.9637630 -0.610486E-07  0.118E-04    0.29     152.3  T
  24    -68.9637630 -0.803340E-10  0.108E-04    0.29     166.9  T
     SCC iter.                  ...        0 min,  0.675 sec
     gradient                   ...        0 min,  0.030 sec
 * total energy  :   -67.9956787 Eh     change       -0.2765026E+00 Eh
   gradient norm :     2.5532919 Eh/α   predicted    -0.2339184E+00 ( -15.40%)
   displ. norm   :     0.3325769 α      lambda       -0.1669198E+00
   maximum displ.:     0.2653239 α      in ANC's #81, #48, #63, ...

........................................................................
.............................. CYCLE    6 ..............................
........................................................................

 iter      E             dE          RMSdq      gap      omega  full diag
   1    -68.9297437 -0.689297E+02  0.676E-01    0.37       0.0  T
   2    -40.6765546  0.282532E+02  0.134E+01    0.10       1.0  T
   3    -68.7413880 -0.280648E+02  0.153E+00    0.25       1.0  T
   4    -68.7684698 -0.270818E-01  0.132E+00    0.36       1.0  T
   5    -67.3322857  0.143618E+01  0.349E+00    0.34       1.0  T
   6    -68.9730242 -0.164074E+01  0.395E-01    0.43       1.0  T
   7    -68.9194237  0.536005E-01  0.729E-01    0.34       1.0  T
   8    -68.8293574  0.900663E-01  0.110E+00    0.33       1.0  T
   9    -68.9776017 -0.148244E+00  0.306E-01    0.34       1.0  T
  10    -68.9776352 -0.335150E-04  0.301E-01    0.37       1.0  T
  11    -68.9882765 -0.106413E-01  0.118E-01    0.40       1.0  T
  12    -68.9867123  0.156415E-02  0.159E-01    0.41       1.0  T
  13    -68.9867921 -0.797833E-04  0.154E-01    0.41       1.0  T
  14    -68.9892072 -0.241515E-02  0.677E-02    0.42       1.0  T
  15    -68.9897997 -0.592508E-03  0.106E-02    0.42       1.7  T
  16    -68.9898058 -0.601558E-05  0.823E-03    0.42       2.2  T
  17    -68.9898131 -0.733012E-05  0.270E-03    0.42       6.6  T
  18    -68.9898139 -0.772064E-06  0.110E-03    0.42      16.4  T
  19    -68.9898139 -0.827642E-07  0.641E-04    0.42      28.0  T
  20    -68.9898140 -0.355219E-07  0.269E-04    0.42      66.7  T
  21    -68.9898140 -0.726226E-08  0.546E-05    0.42     329.1  T
  22    -68.9898140 -0.148503E-09  0.397E-05    0.42     452.3  T
     SCC iter.                  ...        0 min,  0.637 sec
     gradient                   ...        0 min,  0.029 sec
 * total energy  :   -68.1162324 Eh     change       -0.1205537E+00 Eh
   gradient norm :     1.8892168 Eh/α   predicted    -0.9269257E-01 ( -23.11%)
   displ. norm   :     0.2616860 α      lambda       -0.9943221E-01
   maximum displ.:     0.1579242 α      in ANC's #81, #48, #86, ...

........................................................................
.............................. CYCLE    7 ..............................
........................................................................

 iter      E             dE          RMSdq      gap      omega  full diag
   1    -68.9795800 -0.689796E+02  0.356E-01    0.40       0.0  T
   2    -53.9219313  0.150576E+02  0.100E+01    0.15       1.0  T
   3    -68.9120083 -0.149901E+02  0.829E-01    0.41       1.0  T
   4    -68.8778640  0.341443E-01  0.966E-01    0.40       1.0  T
   5    -68.1525517  0.725312E+00  0.250E+00    0.41       1.0  T
   6    -68.9901371 -0.837585E+00  0.199E-01    0.44       1.0  T
   7    -68.8782658  0.111871E+00  0.937E-01    0.41       1.0  T
   8    -68.9821780 -0.103912E+00  0.302E-01    0.43       1.0  T
   9    -68.9931832 -0.110052E-01  0.796E-02    0.43       1.0  T
  10    -68.9932034 -0.202050E-04  0.741E-02    0.43       1.0  T
  11    -68.9937189 -0.515466E-03  0.353E-02    0.43       1.0  T
  12    -68.9937567 -0.377834E-04  0.301E-02    0.43       1.0  T
  13    -68.9938034 -0.467432E-04  0.228E-02    0.43       1.0  T
  14    -68.9938474 -0.440271E-04  0.118E-02    0.43       1.5  T
  15    -68.9938624 -0.150042E-04  0.307E-03    0.43       5.8  T
  16    -68.9938634 -0.915610E-06  0.887E-04    0.43      20.2  T
  17    -68.9938634 -0.314253E-07  0.687E-04    0.43      26.1  T
  18    -68.9938634 -0.314198E-07  0.384E-04    0.43      46.7  T
  19    -68.9938634 -0.462710E-08  0.320E-04    0.43      56.1  T
  20    -68.9938634 -0.838124E-08  0.188E-04    0.43      95.7  T
  21    -68.9938634 -0.358791E-08  0.809E-05    0.43     222.0  T
     SCC iter.                  ...        0 min,  0.584 sec
     gradient                   ...        0 min,  0.028 sec
 * total energy  :   -68.1918729 Eh     change       -0.7564046E-01 Eh
   gradient norm :     1.4046282 Eh/α   predicted    -0.5312138E-01 ( -29.77%)
   displ. norm   :     0.2481019 α      lambda       -0.1040055E+00
   maximum displ.:     0.1395434 α      in ANC's #48, #86, #81, ...

........................................................................
.............................. CYCLE    8 ..............................
........................................................................

 iter      E             dE          RMSdq      gap      omega  full diag
   1    -68.9902806 -0.689903E+02  0.264E-01    0.42       0.0  T
   2    -68.9728699  0.174107E-01  0.428E-01    0.45       1.0  T
   3    -68.2528762  0.719994E+00  0.238E+00    0.33       1.0  T
   4    -68.9067925 -0.653916E+00  0.844E-01    0.43       1.0  T
   5    -68.9418702 -0.350777E-01  0.624E-01    0.44       1.0  T
   6    -68.9780075 -0.361373E-01  0.357E-01    0.42       1.0  T
   7    -68.9895617 -0.115542E-01  0.157E-01    0.42       1.0  T
   8    -68.8859183  0.103643E+00  0.899E-01    0.45       1.0  T
   9    -68.9925094 -0.106591E+00  0.413E-02    0.43       1.0  T
  10    -68.9926455 -0.136116E-03  0.197E-02    0.43       1.0  T
  11    -68.9926807 -0.351901E-04  0.781E-03    0.43       2.3  T
  12    -68.9926848 -0.417284E-05  0.475E-03    0.43       3.8  T
  13    -68.9926862 -0.141347E-05  0.266E-03    0.43       6.8  T
  14    -68.9926868 -0.540416E-06  0.139E-03    0.43      13.0  T
  15    -68.9926869 -0.105306E-06  0.883E-04    0.43      20.3  T
  16    -68.9926870 -0.635323E-07  0.447E-04    0.43      40.2  T
  17    -68.9926870 -0.205360E-07  0.113E-04    0.43     158.9  T
  18    -68.9926870 -0.129884E-08  0.401E-05    0.43     447.6  T
     SCC iter.                  ...        0 min,  0.509 sec
     gradient                   ...        0 min,  0.039 sec
 * total energy  :   -68.2737325 Eh     change       -0.8185959E-01 Eh
   gradient norm :     0.9499824 Eh/α   predicted    -0.5520379E-01 ( -32.56%)
   displ. norm   :     0.2915479 α      lambda       -0.1444874E+00
   maximum displ.:     0.1608481 α      in ANC's #82, #86, #48, ...

........................................................................
.............................. CYCLE    9 ..............................
........................................................................

 iter      E             dE          RMSdq      gap      omega  full diag
   1    -68.9742610 -0.689743E+02  0.594E-01    0.45       0.0  T
   2    -64.0927375  0.488152E+01  0.610E+00    0.14       1.0  T
   3    -68.6457975 -0.455306E+01  0.171E+00    0.45       1.0  T
   4    -66.5080769  0.213772E+01  0.433E+00    0.28       1.0  T
   5    -68.5858602 -0.207778E+01  0.176E+00    0.37       1.0  T
   6    -68.9702847 -0.384424E+00  0.498E-01    0.45       1.0  T
   7    -68.9536391  0.166456E-01  0.669E-01    0.41       1.0  T
   8    -68.9916592 -0.380201E-01  0.303E-01    0.42       1.0  T
   9    -68.9861454  0.551380E-02  0.358E-01    0.43       1.0  T
  10    -68.9989750 -0.128296E-01  0.149E-01    0.43       1.0  T
  11    -69.0014784 -0.250347E-02  0.678E-02    0.43       1.0  T
  12    -69.0000094  0.146899E-02  0.126E-01    0.44       1.0  T
  13    -69.0002249 -0.215455E-03  0.119E-01    0.44       1.0  T
  14    -69.0017270 -0.150214E-02  0.465E-02    0.43       1.0  T
  15    -69.0019695 -0.242422E-03  0.177E-02    0.43       1.0  T
  16    -69.0019855 -0.160648E-04  0.128E-02    0.43       1.4  T
  17    -69.0020015 -0.159332E-04  0.517E-03    0.43       3.5  T
  18    -69.0020037 -0.220413E-05  0.305E-03    0.43       5.9  T
  19    -69.0020047 -0.102033E-05  0.898E-04    0.43      20.0  T
  20    -69.0020047 -0.657713E-07  0.518E-04    0.43      34.7  T
  21    -69.0020048 -0.251582E-07  0.262E-04    0.43      68.5  T
  22    -69.0020048 -0.826415E-08  0.520E-05    0.43     345.2  T
  23    -69.0020048 -0.282014E-09  0.173E-05    0.43    1035.9  T
     SCC iter.                  ...        0 min,  0.646 sec
     gradient                   ...        0 min,  0.059 sec
 * total energy  :   -68.3874908 Eh     change       -0.1137583E+00 Eh
   gradient norm :     0.5327548 Eh/α   predicted    -0.7838516E-01 ( -31.09%)
   displ. norm   :     0.4179375 α      lambda       -0.1695407E+00
   maximum displ.:     0.2437925 α      in ANC's #82, #81, #86, ...

........................................................................
.............................. CYCLE   10 ..............................
........................................................................

 iter      E             dE          RMSdq      gap      omega  full diag
   1    -68.8798823 -0.688799E+02  0.115E+00    0.40       0.0  T
   2    -45.5472908  0.233326E+02  0.122E+01    0.09       1.0  T
   3    -60.9933484 -0.154461E+02  0.775E+00    0.25       1.0  T
   4    -66.3949267 -0.540158E+01  0.457E+00    0.11       1.0  T
   5    -68.2933398 -0.189841E+01  0.237E+00    0.36       1.0  T
   6    -68.5594098 -0.266070E+00  0.192E+00    0.41       1.0  T
   7    -68.9254443 -0.366034E+00  0.972E-01    0.47       1.0  T
   8    -68.9253764  0.679110E-04  0.979E-01    0.43       1.0  T
   9    -68.9052644  0.201120E-01  0.104E+00    0.43       1.0  T
  10    -68.9935298 -0.882654E-01  0.585E-01    0.43       1.0  T
  11    -69.0289343 -0.354046E-01  0.327E-01    0.45       1.0  T
  12    -69.0351124 -0.617803E-02  0.216E-01    0.45       1.0  T
  13    -69.0340640  0.104841E-02  0.214E-01    0.45       1.0  T
  14    -69.0366715 -0.260750E-02  0.159E-01    0.45       1.0  T
  15    -69.0393850 -0.271351E-02  0.612E-02    0.45       1.0  T
  16    -69.0395921 -0.207143E-03  0.495E-02    0.46       1.0  T
  17    -69.0398188 -0.226675E-03  0.194E-02    0.46       1.0  T
  18    -69.0398576 -0.388400E-04  0.531E-03    0.46       3.4  T
  19    -69.0398606 -0.301894E-05  0.209E-03    0.46       8.6  T
  20    -69.0398609 -0.235201E-06  0.151E-03    0.46      11.9  T
  21    -69.0398611 -0.199190E-06  0.831E-04    0.46      21.6  T
  22    -69.0398611 -0.638543E-07  0.334E-04    0.46      53.8  T
  23    -69.0398612 -0.127371E-07  0.757E-05    0.46     237.1  T
  24    -69.0398612  0.296836E-09  0.924E-05    0.46     194.4  T
     SCC iter.                  ...        0 min,  0.668 sec
     gradient                   ...        0 min,  0.031 sec
 * total energy  :   -68.5174272 Eh     change       -0.1299365E+00 Eh
   gradient norm :     0.3154077 Eh/α   predicted    -0.9957747E-01 ( -23.36%)
   displ. norm   :     0.4662353 α      lambda       -0.1231204E+00
   maximum displ.:     0.3115439 α      in ANC's #81, #82, #86, ...

........................................................................
.............................. CYCLE   11 ..............................
........................................................................

 iter      E             dE          RMSdq      gap      omega  full diag
   1    -68.7726258 -0.687726E+02  0.156E+00    0.34       0.0  T
   2    -45.2172352  0.235554E+02  0.124E+01    0.02       1.0  T
   3    -54.8112645 -0.959403E+01  0.101E+01    0.20       1.0  T
   4    -66.0420474 -0.112308E+02  0.508E+00    0.15       1.0  T
   5    -68.2897419 -0.224769E+01  0.235E+00    0.31       1.0  T
   6    -68.4346459 -0.144904E+00  0.226E+00    0.41       1.0  T
   7    -68.7172071 -0.282561E+00  0.175E+00    0.46       1.0  T
   8    -68.7012758  0.159313E-01  0.180E+00    0.45       1.0  T
   9    -68.7197164 -0.184406E-01  0.174E+00    0.46       1.0  T
  10    -68.9683460 -0.248630E+00  0.950E-01    0.47       1.0  T
  11    -69.0031279 -0.347819E-01  0.839E-01    0.39       1.0  T
  12    -69.0673179 -0.641899E-01  0.384E-01    0.42       1.0  T
  13    -69.0825986 -0.152808E-01  0.100E-01    0.43       1.0  T
  14    -69.0794197  0.317890E-02  0.185E-01    0.42       1.0  T
  15    -69.0820921 -0.267238E-02  0.110E-01    0.43       1.0  T
  16    -69.0835636 -0.147153E-02  0.352E-02    0.43       1.0  T
  17    -69.0836462 -0.825600E-04  0.221E-02    0.43       1.0  T
  18    -69.0836507 -0.454539E-05  0.202E-02    0.43       1.0  T
  19    -69.0836733 -0.225633E-04  0.145E-02    0.43       1.2  T
  20    -69.0836908 -0.175548E-04  0.782E-03    0.43       2.3  T
  21    -69.0836961 -0.522428E-05  0.399E-03    0.43       4.5  T
  22    -69.0836979 -0.183423E-05  0.510E-04    0.43      35.2  T
  23    -69.0836979 -0.262997E-07  0.189E-04    0.43      95.3  T
  24    -69.0836979 -0.381021E-08  0.598E-05    0.43     300.6  T
     SCC iter.                  ...        0 min,  0.668 sec
     gradient                   ...        0 min,  0.031 sec
 * total energy  :   -68.5997097 Eh     change       -0.8228250E-01 Eh
   gradient norm :     0.2736783 Eh/α   predicted    -0.7494194E-01 (  -8.92%)
   displ. norm   :     0.2841322 α      lambda       -0.4083690E-01
   maximum displ.:     0.1833635 α      in ANC's #81, #82, #84, ...

........................................................................
.............................. CYCLE   12 ..............................
........................................................................

 iter      E             dE          RMSdq      gap      omega  full diag
   1    -69.0006896 -0.690007E+02  0.872E-01    0.36       0.0  T
   2    -57.5280743  0.114726E+02  0.902E+00    0.16       1.0  T
   3    -62.7168870 -0.518881E+01  0.692E+00    0.12       1.0  T
   4    -68.2558016 -0.553891E+01  0.262E+00    0.39       1.0  T
   5    -68.7631984 -0.507397E+00  0.160E+00    0.36       1.0  T
   6    -67.8025722  0.960626E+00  0.309E+00    0.35       1.0  T
   7    -68.9762853 -0.117371E+01  0.974E-01    0.47       1.0  T
   8    -69.0011621 -0.248768E-01  0.858E-01    0.45       1.0  T
   9    -69.0640585 -0.628963E-01  0.486E-01    0.43       1.0  T
  10    -69.0803440 -0.162856E-01  0.368E-01    0.40       1.0  T
  11    -69.0848397 -0.449567E-02  0.305E-01    0.40       1.0  T
  12    -69.0933342 -0.849454E-02  0.152E-01    0.41       1.0  T
  13    -69.0947660 -0.143178E-02  0.114E-01    0.42       1.0  T
  14    -69.0961367 -0.137067E-02  0.198E-02    0.41       1.0  T
  15    -69.0961031  0.336401E-04  0.251E-02    0.41       1.0  T
  16    -69.0961617 -0.585978E-04  0.924E-03    0.41       1.9  T
  17    -69.0961691 -0.745081E-05  0.463E-03    0.41       3.9  T
  18    -69.0961712 -0.212631E-05  0.210E-03    0.41       8.6  T
  19    -69.0961717 -0.440650E-06  0.879E-04    0.41      20.4  T
  20    -69.0961718 -0.765463E-07  0.399E-04    0.41      45.1  T
  21    -69.0961718 -0.142538E-07  0.210E-04    0.41      85.5  T
  22    -69.0961718 -0.348574E-08  0.122E-04    0.41     147.3  T
  23    -69.0961718 -0.175736E-08  0.245E-05    0.41     732.5  T
     SCC iter.                  ...        0 min,  0.603 sec
     gradient                   ...        0 min,  0.027 sec
 * total energy  :   -68.6319722 Eh     change       -0.3226251E-01 Eh
   gradient norm :     0.3017579 Eh/α   predicted    -0.2206694E-01 ( -31.60%)
   displ. norm   :     0.5014523 α      lambda       -0.7150158E-01
   maximum displ.:     0.2829265 α      in ANC's #81, #84, #45, ...

........................................................................
.............................. CYCLE   13 ..............................
........................................................................

 iter      E             dE          RMSdq      gap      omega  full diag
   1    -68.8848823 -0.688849E+02  0.136E+00    0.36       0.0  T
   2    -47.7651939  0.211197E+02  0.117E+01    0.20       1.0  T
   3    -47.9706826 -0.205489E+00  0.122E+01    0.18       1.0  T
   4    -67.2527120 -0.192820E+02  0.425E+00    0.40       1.0  T
   5    -68.5745182 -0.132181E+01  0.196E+00    0.35       1.0  T
   6    -64.2834111  0.429111E+01  0.587E+00    0.22       1.0  T
   7    -68.9994157 -0.471600E+01  0.101E+00    0.48       1.0  T
   8    -68.8543131  0.145103E+00  0.146E+00    0.49       1.0  T
   9    -68.8945356 -0.402225E-01  0.133E+00    0.48       1.0  T
  10    -69.0660515 -0.171516E+00  0.587E-01    0.45       1.0  T
  11    -69.0634180  0.263348E-02  0.646E-01    0.39       1.0  T
  12    -69.0940638 -0.306458E-01  0.388E-01    0.40       1.0  T
  13    -69.1069797 -0.129159E-01  0.192E-01    0.41       1.0  T
  14    -69.1093696 -0.238993E-02  0.126E-01    0.42       1.0  T
  15    -69.1112293 -0.185966E-02  0.248E-02    0.42       1.0  T
  16    -69.1111331  0.961661E-04  0.354E-02    0.42       1.0  T
  17    -69.1112359 -0.102714E-03  0.213E-02    0.42       1.0  T
  18    -69.1112375 -0.165782E-05  0.215E-02    0.42       1.0  T
  19    -69.1112866 -0.490687E-04  0.461E-03    0.42       3.9  T
  20    -69.1112888 -0.222229E-05  0.132E-03    0.42      13.6  T
  21    -69.1112889 -0.123254E-06  0.866E-04    0.42      20.7  T
  22    -69.1112890 -0.540062E-07  0.556E-04    0.42      32.3  T
  23    -69.1112890 -0.263700E-07  0.306E-04    0.42      58.7  T
  24    -69.1112890 -0.961818E-08  0.117E-04    0.42     154.0  T
  25    -69.1112890 -0.162542E-08  0.156E-05    0.42    1154.7  T
     SCC iter.                  ...        0 min,  0.672 sec
     gradient                   ...        0 min,  0.037 sec
 * total energy  :   -68.6962064 Eh     change       -0.6423417E-01 Eh
   gradient norm :     0.2963973 Eh/α   predicted    -0.4474069E-01 ( -30.35%)
   displ. norm   :     0.7651246 α      lambda       -0.1073264E+00
   maximum displ.:     0.3992220 α      in ANC's #81, #84, #18, ...

........................................................................
.............................. CYCLE   14 ..............................
........................................................................

 iter      E             dE          RMSdq      gap      omega  full diag
   1    -68.6556830 -0.686557E+02  0.200E+00    0.33       0.0  T
   2    -41.1841428  0.274715E+02  0.130E+01    0.19       1.0  T
   3    -44.3709063 -0.318676E+01  0.130E+01    0.18       1.0  T
   4    -65.1362882 -0.207654E+02  0.636E+00    0.31       1.0  T
   5    -67.3998485 -0.226356E+01  0.346E+00    0.25       1.0  T
   6    -63.6790648  0.372078E+01  0.626E+00    0.20       1.0  T
   7    -68.9439044 -0.526484E+01  0.138E+00    0.45       1.0  T
   8    -68.5802016  0.363703E+00  0.224E+00    0.48       1.0  T
   9    -68.7043291 -0.124127E+00  0.196E+00    0.49       1.0  T
  10    -68.9612567 -0.256928E+00  0.124E+00    0.48       1.0  T
  11    -69.1167580 -0.155501E+00  0.495E-01    0.41       1.0  T
  12    -69.1248075 -0.804950E-02  0.418E-01    0.41       1.0  T
  13    -69.0898353  0.349722E-01  0.675E-01    0.40       1.0  T
  14    -69.1105841 -0.207488E-01  0.525E-01    0.40       1.0  T
  15    -69.1394822 -0.288981E-01  0.177E-01    0.42       1.0  T
  16    -69.1424005 -0.291836E-02  0.871E-02    0.42       1.0  T
  17    -69.1422055  0.195083E-03  0.960E-02    0.42       1.0  T
  18    -69.1432100 -0.100450E-02  0.297E-02    0.43       1.0  T
  19    -69.1431832  0.267382E-04  0.328E-02    0.43       1.0  T
  20    -69.1433098 -0.126609E-03  0.627E-03    0.43       2.9  T
  21    -69.1433132 -0.338585E-05  0.363E-03    0.43       5.0  T
  22    -69.1433145 -0.130485E-05  0.101E-03    0.43      17.7  T
  23    -69.1433146 -0.102750E-06  0.286E-04    0.43      62.8  T
  24    -69.1433146 -0.956094E-08  0.761E-05    0.43     236.0  T
  25    -69.1433146 -0.211884E-09  0.495E-05    0.43     362.5  T
     SCC iter.                  ...        0 min,  0.715 sec
     gradient                   ...        0 min,  0.029 sec
 * total energy  :   -68.7403749 Eh     change       -0.4416845E-01 Eh
   gradient norm :     0.2878533 Eh/α   predicted    -0.8507852E-01 (  92.62%)
   displ. norm   :     0.2423175 α      lambda       -0.4328772E-01
   maximum displ.:     0.1591020 α      in ANC's #81, #84, #68, ...

........................................................................
.............................. CYCLE   15 ..............................
........................................................................

 iter      E             dE          RMSdq      gap      omega  full diag
   1    -69.1073065 -0.691073E+02  0.541E-01    0.47       0.0  T
   2    -44.2782809  0.248290E+02  0.125E+01    0.16       1.0  T
   3    -69.0632403 -0.247850E+02  0.767E-01    0.45       1.0  T
   4    -66.9209277  0.214231E+01  0.403E+00    0.27       1.0  T
   5    -68.9693423 -0.204841E+01  0.113E+00    0.40       1.0  T
   6    -69.1141798 -0.144837E+00  0.429E-01    0.46       1.0  T
   7    -69.1328759 -0.186961E-01  0.216E-01    0.44       1.0  T
   8    -69.1377116 -0.483571E-02  0.988E-02    0.44       1.0  T
   9    -69.1368630  0.848574E-03  0.131E-01    0.44       1.0  T
  10    -69.1387539 -0.189092E-02  0.279E-02    0.44       1.0  T
  11    -69.1388439 -0.899356E-04  0.637E-03    0.45       2.8  T
  12    -69.1388313  0.125383E-04  0.112E-02    0.45       1.6  T
  13    -69.1388419 -0.105380E-04  0.642E-03    0.45       2.8  T
  14    -69.1388445 -0.262069E-05  0.437E-03    0.45       4.1  T
  15    -69.1388463 -0.183514E-05  0.187E-03    0.45       9.6  T
  16    -69.1388466 -0.264567E-06  0.108E-03    0.45      16.6  T
  17    -69.1388467 -0.732012E-07  0.729E-04    0.45      24.6  T
  18    -69.1388467 -0.489036E-07  0.369E-04    0.45      48.6  T
  19    -69.1388467 -0.163203E-07  0.830E-05    0.45     216.3  T
  20    -69.1388467 -0.656399E-09  0.374E-05    0.45     480.6  T
     SCC iter.                  ...        0 min,  0.548 sec
     gradient                   ...        0 min,  0.042 sec
 * total energy  :   -68.7611755 Eh     change       -0.2080067E-01 Eh
   gradient norm :     0.1502098 Eh/α   predicted    -0.2291404E-01 (  10.16%)
   displ. norm   :     0.3582103 α      lambda       -0.1748332E-01
   maximum displ.:     0.1801405 α      in ANC's #18, #19, #20, ...

........................................................................
.............................. CYCLE   16 ..............................
........................................................................

 iter      E             dE          RMSdq      gap      omega  full diag
   1    -69.1430178 -0.691430E+02  0.252E-01    0.44       0.0  T
   2    -66.8561446  0.228687E+01  0.419E+00    0.36       1.0  T
   3    -69.0769028 -0.222076E+01  0.789E-01    0.44       1.0  T
   4    -68.8636117  0.213291E+00  0.147E+00    0.42       1.0  T
   5    -69.1178877 -0.254276E+00  0.514E-01    0.43       1.0  T
   6    -69.0978116  0.200761E-01  0.620E-01    0.43       1.0  T
   7    -69.1416353 -0.438237E-01  0.242E-01    0.44       1.0  T
   8    -69.1472415 -0.560623E-02  0.120E-01    0.44       1.0  T
   9    -69.1488205 -0.157898E-02  0.551E-02    0.45       1.0  T
  10    -69.1479561  0.864388E-03  0.975E-02    0.45       1.0  T
  11    -69.1487781 -0.822000E-03  0.547E-02    0.45       1.0  T
  12    -69.1491389 -0.360808E-03  0.184E-02    0.45       1.0  T
  13    -69.1491215  0.174445E-04  0.213E-02    0.45       1.0  T
  14    -69.1491626 -0.411230E-04  0.102E-02    0.45       1.8  T
  15    -69.1491736 -0.110208E-04  0.403E-03    0.45       4.5  T
  16    -69.1491756 -0.194099E-05  0.553E-04    0.45      32.5  T
  17    -69.1491756 -0.272717E-07  0.292E-04    0.45      61.5  T
  18    -69.1491756 -0.576976E-08  0.168E-04    0.45     107.1  T
  19    -69.1491756 -0.315229E-08  0.542E-05    0.45     331.4  T
     SCC iter.                  ...        0 min,  0.520 sec
     gradient                   ...        0 min,  0.039 sec
 * total energy  :   -68.7755942 Eh     change       -0.1441864E-01 Eh
   gradient norm :     0.1347185 Eh/α   predicted    -0.9863909E-02 ( -31.59%)
   displ. norm   :     0.5016090 α      lambda       -0.2414504E-01
   maximum displ.:     0.1559802 α      in ANC's #19, #27, #46, ...

........................................................................
.............................. CYCLE   17 ..............................
........................................................................

 iter      E             dE          RMSdq      gap      omega  full diag
   1    -69.1116928 -0.691117E+02  0.546E-01    0.42       0.0  T
   2    -63.2852083  0.582648E+01  0.658E+00    0.14       1.0  T
   3    -68.5690193 -0.528381E+01  0.221E+00    0.39       1.0  T
   4    -68.6738994 -0.104880E+00  0.191E+00    0.41       1.0  T
   5    -69.0734800 -0.399581E+00  0.747E-01    0.41       1.0  T
   6    -69.0681684  0.531161E-02  0.768E-01    0.42       1.0  T
   7    -69.1315219 -0.633535E-01  0.346E-01    0.43       1.0  T
   8    -69.1454862 -0.139643E-01  0.155E-01    0.45       1.0  T
   9    -69.1339930  0.114932E-01  0.339E-01    0.45       1.0  T
  10    -69.1386265 -0.463347E-02  0.272E-01    0.45       1.0  T
  11    -69.1220533  0.165731E-01  0.469E-01    0.42       1.0  T
  12    -69.1369928 -0.149395E-01  0.301E-01    0.43       1.0  T
  13    -69.1470333 -0.100405E-01  0.788E-02    0.44       1.0  T
  14    -69.1476965 -0.663135E-03  0.257E-02    0.44       1.0  T
  15    -69.1477737 -0.772532E-04  0.320E-03    0.44       5.6  T
  16    -69.1477745 -0.812120E-06  0.195E-03    0.44       9.2  T
  17    -69.1477747 -0.153813E-06  0.159E-03    0.44      11.3  T
  18    -69.1477750 -0.273222E-06  0.604E-04    0.44      29.7  T
  19    -69.1477750 -0.437022E-07  0.955E-05    0.44     188.1  T
  20    -69.1477750 -0.378222E-09  0.764E-05    0.44     235.2  T
     SCC iter.                  ...        0 min,  0.584 sec
     gradient                   ...        0 min,  0.034 sec
 * total energy  :   -68.7888572 Eh     change       -0.1326300E-01 Eh
   gradient norm :     0.0809191 Eh/α   predicted    -0.1511208E-01 (  13.94%)
   displ. norm   :     0.5254393 α      lambda       -0.9972317E-02
   maximum displ.:     0.3214377 α      in ANC's #18, #19, #14, ...

........................................................................
.............................. CYCLE   18 ..............................
........................................................................

 iter      E             dE          RMSdq      gap      omega  full diag
   1    -69.1455408 -0.691455E+02  0.351E-01    0.42       0.0  T
   2    -64.8538048  0.429174E+01  0.568E+00    0.27       1.0  T
   3    -68.7651367 -0.391133E+01  0.177E+00    0.43       1.0  T
   4    -68.7974242 -0.322875E-01  0.166E+00    0.40       1.0  T
   5    -69.1109451 -0.313521E+00  0.635E-01    0.41       1.0  T
   6    -68.8024015  0.308544E+00  0.163E+00    0.36       1.0  T
   7    -69.1542591 -0.351858E+00  0.181E-01    0.43       1.0  T
   8    -69.1578047 -0.354561E-02  0.668E-02    0.43       1.0  T
   9    -69.1574806  0.324107E-03  0.863E-02    0.44       1.0  T
  10    -69.1571811  0.299520E-03  0.967E-02    0.44       1.0  T
  11    -69.1582129 -0.103177E-02  0.355E-02    0.44       1.0  T
  12    -69.1583562 -0.143298E-03  0.161E-02    0.43       1.1  T
  13    -69.1583447  0.114902E-04  0.183E-02    0.43       1.0  T
  14    -69.1583657 -0.209715E-04  0.123E-02    0.43       1.5  T
  15    -69.1583806 -0.149207E-04  0.529E-03    0.43       3.4  T
  16    -69.1583837 -0.311685E-05  0.138E-03    0.43      13.1  T
  17    -69.1583839 -0.215929E-06  0.362E-04    0.43      49.6  T
  18    -69.1583839 -0.143901E-07  0.143E-04    0.43     125.3  T
  19    -69.1583839 -0.197382E-08  0.696E-05    0.43     258.1  T
     SCC iter.                  ...        0 min,  0.491 sec
     gradient                   ...        0 min,  0.036 sec
 * total energy  :   -68.7943750 Eh     change       -0.5517847E-02 Eh
   gradient norm :     0.0871222 Eh/α   predicted    -0.6362702E-02 (  15.31%)
   displ. norm   :     0.3702767 α      lambda       -0.4570747E-02
   maximum displ.:     0.1613560 α      in ANC's #14, #19, #4, ...

........................................................................
.............................. CYCLE   19 ..............................
........................................................................

 iter      E             dE          RMSdq      gap      omega  full diag
   1    -69.1601949 -0.691602E+02  0.115E-01    0.42       0.0  T
   2    -68.0698954  0.109030E+01  0.286E+00    0.39       1.0  T
   3    -69.1470541 -0.107716E+01  0.348E-01    0.43       1.0  T
   4    -69.1180608  0.289934E-01  0.574E-01    0.42       1.0  T
   5    -69.1581801 -0.401193E-01  0.177E-01    0.42       1.0  T
   6    -69.1252329  0.329472E-01  0.526E-01    0.41       1.0  T
   7    -69.1610876 -0.358546E-01  0.677E-02    0.42       1.0  T
   8    -69.1616322 -0.544600E-03  0.223E-02    0.43       1.0  T
   9    -69.1616382 -0.601383E-05  0.196E-02    0.43       1.0  T
  10    -69.1616766 -0.383897E-04  0.928E-03    0.43       1.9  T
  11    -69.1616755  0.106285E-05  0.924E-03    0.43       1.9  T
  12    -69.1616844 -0.886944E-05  0.415E-03    0.43       4.3  T
  13    -69.1616863 -0.191190E-05  0.146E-03    0.43      12.3  T
  14    -69.1616865 -0.242667E-06  0.462E-04    0.43      38.9  T
  15    -69.1616866 -0.251116E-07  0.117E-04    0.43     153.7  T
  16    -69.1616866  0.424592E-09  0.125E-04    0.43     144.0  T
     SCC iter.                  ...        0 min,  0.426 sec
     gradient                   ...        0 min,  0.039 sec
 * total energy  :   -68.7983928 Eh     change       -0.4017751E-02 Eh
   gradient norm :     0.0747134 Eh/α   predicted    -0.2598726E-02 ( -35.32%)
   displ. norm   :     0.5824221 α      lambda       -0.8871375E-02
   maximum displ.:     0.2305639 α      in ANC's #19, #14, #6, ...

........................................................................
.............................. CYCLE   20 ..............................
........................................................................

 iter      E             dE          RMSdq      gap      omega  full diag
   1    -69.1585064 -0.691585E+02  0.254E-01    0.39       0.0  T
   2    -62.3088927  0.684961E+01  0.697E+00    0.23       1.0  T
   3    -68.8133624 -0.650447E+01  0.165E+00    0.39       1.0  T
   4    -69.0846359 -0.271274E+00  0.791E-01    0.38       1.0  T
   5    -69.1119717 -0.273358E-01  0.656E-01    0.39       1.0  T
   6    -69.0868995  0.250723E-01  0.787E-01    0.38       1.0  T
   7    -69.1637907 -0.768912E-01  0.138E-01    0.39       1.0  T
   8    -69.1660402 -0.224952E-02  0.438E-02    0.39       1.0  T
   9    -69.1659960  0.441934E-04  0.462E-02    0.39       1.0  T
  10    -69.1660741 -0.781171E-04  0.388E-02    0.39       1.0  T
  11    -69.1661505 -0.763425E-04  0.292E-02    0.39       1.0  T
  12    -69.1662395 -0.890774E-04  0.123E-02    0.39       1.5  T
  13    -69.1662549 -0.153851E-04  0.558E-03    0.39       3.2  T
  14    -69.1662577 -0.280406E-05  0.289E-03    0.39       6.2  T
  15    -69.1662585 -0.780528E-06  0.140E-03    0.39      12.8  T
  16    -69.1662587 -0.224161E-06  0.300E-04    0.39      59.8  T
  17    -69.1662587 -0.786747E-08  0.166E-04    0.39     108.2  T
  18    -69.1662587 -0.277407E-08  0.687E-05    0.39     261.3  T
     SCC iter.                  ...        0 min,  0.472 sec
     gradient                   ...        0 min,  0.031 sec
 * total energy  :   -68.8054584 Eh     change       -0.7065621E-02 Eh
   gradient norm :     0.0473976 Eh/α   predicted    -0.5940378E-02 ( -15.93%)
   displ. norm   :     0.5715873 α      lambda       -0.6920711E-02
   maximum displ.:     0.2073960 α      in ANC's #19, #14, #6, ...
 * RMSD in coord.:     0.7834274 α      energy gain  -0.6520124E+02 Eh

generating ANC from model Hessian ...
Using Lindh-Hessian (1995)
 Shifting diagonal of input Hessian by    1.2573444243081853E-002
 Lowest  eigenvalues of input Hessian
    0.010000    0.012472    0.000000    0.000000    0.000000    0.000000
    0.000000    0.000000    0.012616    0.012640    0.012756    0.013035
    0.013356    0.013648    0.013763    0.013882    0.013915    0.014075
 Highest eigenvalues
    1.083576    1.083581    1.090014    1.142179    2.041587    2.993803


........................................................................
.............................. CYCLE   21 ..............................
........................................................................

 iter      E             dE          RMSdq      gap      omega  full diag
   1    -69.1619935 -0.691620E+02  0.281E-01    0.36       0.0  T
   2    -59.6494012  0.951259E+01  0.809E+00    0.11       1.0  T
   3    -68.6745526 -0.902515E+01  0.195E+00    0.35       1.0  T
   4    -69.0952553 -0.420703E+00  0.764E-01    0.36       1.0  T
   5    -68.9524277  0.142828E+00  0.129E+00    0.35       1.0  T
   6    -69.1392079 -0.186780E+00  0.515E-01    0.36       1.0  T
   7    -69.1677800 -0.285721E-01  0.179E-01    0.36       1.0  T
   8    -69.1712799 -0.349986E-02  0.656E-02    0.36       1.0  T
   9    -69.1716111 -0.331288E-03  0.419E-02    0.36       1.0  T
  10    -69.1716954 -0.842506E-04  0.329E-02    0.36       1.0  T
  11    -69.1716778  0.176231E-04  0.343E-02    0.36       1.0  T
  12    -69.1717855 -0.107681E-03  0.177E-02    0.36       1.0  T
  13    -69.1718142 -0.286966E-04  0.914E-03    0.36       2.0  T
  14    -69.1718223 -0.814125E-05  0.412E-03    0.36       4.4  T
  15    -69.1718235 -0.121692E-05  0.264E-03    0.36       6.8  T
  16    -69.1718242 -0.740487E-06  0.886E-04    0.36      20.3  T
  17    -69.1718243 -0.744017E-07  0.415E-04    0.36      43.3  T
  18    -69.1718243 -0.194086E-07  0.106E-04    0.36     169.4  T
  19    -69.1718243 -0.129339E-08  0.197E-05    0.36     912.8  T
     SCC iter.                  ...        0 min,  0.496 sec
     gradient                   ...        0 min,  0.033 sec
 * total energy  :   -68.8107958 Eh     change       -0.5337421E-02 Eh
   gradient norm :     0.0296265 Eh/α   predicted     0.0000000E+00 (-100.00%)
   displ. norm   :     0.3045246 α      lambda       -0.4575974E-02
   maximum displ.:     0.1554891 α      in ANC's #22, #17, #12, ...

........................................................................
.............................. CYCLE   22 ..............................
........................................................................

 iter      E             dE          RMSdq      gap      omega  full diag
   1    -69.1748209 -0.691748E+02  0.122E-01    0.36       0.0  T
   2    -67.4886814  0.168614E+01  0.349E+00    0.25       1.0  T
   3    -69.1688279 -0.168015E+01  0.257E-01    0.36       1.0  T
   4    -69.1425198  0.263082E-01  0.509E-01    0.36       1.0  T
   5    -69.1626186 -0.200988E-01  0.330E-01    0.36       1.0  T
   6    -69.1729182 -0.102996E-01  0.164E-01    0.36       1.0  T
   7    -69.1715590  0.135919E-02  0.195E-01    0.36       1.0  T
   8    -69.1763609 -0.480188E-02  0.280E-02    0.36       1.0  T
   9    -69.1764235 -0.625804E-04  0.162E-02    0.36       1.1  T
  10    -69.1764477 -0.242516E-04  0.755E-03    0.36       2.4  T
  11    -69.1764533 -0.556501E-05  0.385E-03    0.36       4.7  T
  12    -69.1764541 -0.831664E-06  0.277E-03    0.36       6.5  T
  13    -69.1764546 -0.525704E-06  0.187E-03    0.36       9.6  T
  14    -69.1764549 -0.284367E-06  0.111E-03    0.36      16.2  T
  15    -69.1764550 -0.707751E-07  0.799E-04    0.36      22.5  T
  16    -69.1764551 -0.622107E-07  0.379E-04    0.36      47.3  T
  17    -69.1764551 -0.152681E-07  0.148E-04    0.36     121.5  T
  18    -69.1764551 -0.252258E-08  0.400E-05    0.36     448.6  T
     SCC iter.                  ...        0 min,  0.481 sec
     gradient                   ...        0 min,  0.029 sec
 * total energy  :   -68.8140298 Eh     change       -0.3234022E-02 Eh
   gradient norm :     0.0153890 Eh/α   predicted    -0.2500179E-02 ( -22.69%)
   displ. norm   :     0.4001890 α      lambda       -0.2930592E-02
   maximum displ.:     0.2064458 α      in ANC's #12, #17, #22, ...

........................................................................
.............................. CYCLE   23 ..............................
........................................................................

 iter      E             dE          RMSdq      gap      omega  full diag
   1    -69.1783159 -0.691783E+02  0.977E-02    0.35       0.0  T
   2    -68.4571896  0.721126E+00  0.234E+00    0.31       1.0  T
   3    -69.1740770 -0.716887E+00  0.218E-01    0.36       1.0  T
   4    -69.1696468  0.443020E-02  0.273E-01    0.36       1.0  T
   5    -69.1558201  0.138267E-01  0.422E-01    0.35       1.0  T
   6    -69.1788162 -0.229961E-01  0.685E-02    0.35       1.0  T
   7    -69.1776316  0.118460E-02  0.115E-01    0.35       1.0  T
   8    -69.1791430 -0.151141E-02  0.425E-02    0.35       1.0  T
   9    -69.1793212 -0.178140E-03  0.208E-02    0.35       1.0  T
  10    -69.1793700 -0.488301E-04  0.633E-03    0.35       2.8  T
  11    -69.1793738 -0.383263E-05  0.308E-03    0.35       5.8  T
  12    -69.1793749 -0.107817E-05  0.110E-03    0.35      16.3  T
  13    -69.1793750 -0.791892E-07  0.684E-04    0.35      26.3  T
  14    -69.1793750 -0.368350E-07  0.410E-04    0.35      43.8  T
  15    -69.1793750 -0.128410E-07  0.242E-04    0.35      74.2  T
  16    -69.1793750 -0.612819E-08  0.712E-05    0.35     252.2  T
  17    -69.1793750 -0.499966E-09  0.188E-05    0.35     956.5  T
     SCC iter.                  ...        0 min,  0.470 sec
     gradient                   ...        0 min,  0.031 sec
 * total energy  :   -68.8163419 Eh     change       -0.2312069E-02 Eh
   gradient norm :     0.0140636 Eh/α   predicted    -0.1699969E-02 ( -26.47%)
   displ. norm   :     0.5965474 α      lambda       -0.3461160E-02
   maximum displ.:     0.3031386 α      in ANC's #12, #17, #1, ...

........................................................................
.............................. CYCLE   24 ..............................
........................................................................

 iter      E             dE          RMSdq      gap      omega  full diag
   1    -69.1802409 -0.691802E+02  0.107E-01    0.33       0.0  T
   2    -68.2758445  0.904396E+00  0.258E+00    0.33       1.0  T
   3    -69.1642224 -0.888378E+00  0.395E-01    0.35       1.0  T
   4    -69.1499532  0.142692E-01  0.491E-01    0.33       1.0  T
   5    -69.1593392 -0.938608E-02  0.415E-01    0.34       1.0  T
   6    -69.1784123 -0.190730E-01  0.155E-01    0.34       1.0  T
   7    -69.1799965 -0.158427E-02  0.110E-01    0.34       1.0  T
   8    -69.1812500 -0.125348E-02  0.472E-02    0.34       1.0  T
   9    -69.1813513 -0.101282E-03  0.359E-02    0.34       1.0  T
  10    -69.1814941 -0.142789E-03  0.122E-02    0.34       1.5  T
  11    -69.1815114 -0.173182E-04  0.332E-03    0.33       5.4  T
  12    -69.1815124 -0.100399E-05  0.149E-03    0.33      12.0  T
  13    -69.1815126 -0.229743E-06  0.653E-04    0.33      27.5  T
  14    -69.1815127 -0.379144E-07  0.359E-04    0.33      50.0  T
  15    -69.1815127 -0.182979E-08  0.330E-04    0.33      54.4  T
  16    -69.1815127 -0.106704E-07  0.153E-04    0.33     117.2  T
  17    -69.1815127 -0.217651E-08  0.799E-05    0.33     224.8  T
     SCC iter.                  ...        0 min,  0.539 sec
     gradient                   ...        0 min,  0.028 sec
 * total energy  :   -68.8193041 Eh     change       -0.2962210E-02 Eh
   gradient norm :     0.0211952 Eh/α   predicted    -0.2346464E-02 ( -20.79%)
   displ. norm   :     0.7035304 α      lambda       -0.4572281E-02
   maximum displ.:     0.3250792 α      in ANC's #17, #12, #27, ...

........................................................................
.............................. CYCLE   25 ..............................
........................................................................

 iter      E             dE          RMSdq      gap      omega  full diag
   1    -69.1806751 -0.691807E+02  0.192E-01    0.32       0.0  T
   2    -64.7703278  0.441035E+01  0.556E+00    0.23       1.0  T
   3    -69.0722832 -0.430196E+01  0.918E-01    0.31       1.0  T
   4    -69.0351073  0.371759E-01  0.107E+00    0.33       1.0  T
   5    -69.1714225 -0.136315E+00  0.367E-01    0.31       1.0  T
   6    -69.1621191  0.930340E-02  0.412E-01    0.31       1.0  T
   7    -69.1672322 -0.511312E-02  0.368E-01    0.33       1.0  T
   8    -69.1822971 -0.150649E-01  0.132E-01    0.32       1.0  T
   9    -69.1838390 -0.154192E-02  0.745E-02    0.32       1.0  T
  10    -69.1843112 -0.472188E-03  0.413E-02    0.32       1.0  T
  11    -69.1844742 -0.162999E-03  0.208E-02    0.32       1.0  T
  12    -69.1845043 -0.301033E-04  0.141E-02    0.32       1.3  T
  13    -69.1845091 -0.479920E-05  0.125E-02    0.32       1.4  T
  14    -69.1845174 -0.837696E-05  0.954E-03    0.32       1.9  T
  15    -69.1845224 -0.500070E-05  0.710E-03    0.32       2.5  T
  16    -69.1845279 -0.550051E-05  0.251E-03    0.31       7.2  T
  17    -69.1845286 -0.674869E-06  0.864E-04    0.31      20.8  T
  18    -69.1845287 -0.800835E-07  0.276E-04    0.31      65.0  T
  19    -69.1845287 -0.775219E-08  0.101E-04    0.31     177.5  T
  20    -69.1845287 -0.119007E-08  0.301E-05    0.32     597.1  T
     SCC iter.                  ...        0 min,  0.514 sec
     gradient                   ...        0 min,  0.039 sec
 * total energy  :   -68.8224482 Eh     change       -0.3144074E-02 Eh
   gradient norm :     0.0315673 Eh/α   predicted    -0.3417678E-02 (   8.70%)
   displ. norm   :     0.3098196 α      lambda       -0.2798964E-02
   maximum displ.:     0.1371104 α      in ANC's #17, #24, #27, ...

........................................................................
.............................. CYCLE   26 ..............................
........................................................................

 iter      E             dE          RMSdq      gap      omega  full diag
   1    -69.1910854 -0.691911E+02  0.124E-01    0.32       0.0  T
   2    -68.3099163  0.881169E+00  0.256E+00    0.21       1.0  T
   3    -69.1463995 -0.836483E+00  0.593E-01    0.33       1.0  T
   4    -69.1584258 -0.120263E-01  0.514E-01    0.31       1.0  T
   5    -69.1901932 -0.317674E-01  0.144E-01    0.32       1.0  T
   6    -69.1886519  0.154136E-02  0.176E-01    0.31       1.0  T
   7    -69.1816294  0.702245E-02  0.295E-01    0.32       1.0  T
   8    -69.1918939 -0.102645E-01  0.789E-02    0.31       1.0  T
   9    -69.1926537 -0.759818E-03  0.199E-02    0.31       1.0  T
  10    -69.1926972 -0.435499E-04  0.546E-03    0.31       3.3  T
  11    -69.1926770  0.202841E-04  0.135E-02    0.31       1.3  T
  12    -69.1926890 -0.120487E-04  0.933E-03    0.31       1.9  T
  13    -69.1926985 -0.948490E-05  0.362E-03    0.31       5.0  T
  14    -69.1927000 -0.149125E-05  0.121E-03    0.31      14.8  T
  15    -69.1927002 -0.182665E-06  0.313E-04    0.31      57.3  T
  16    -69.1927002 -0.558643E-08  0.229E-04    0.31      78.4  T
  17    -69.1927002 -0.616008E-08  0.595E-05    0.31     301.8  T
  18    -69.1927002 -0.437794E-09  0.143E-05    0.31    1258.0  T
     SCC iter.                  ...        0 min,  0.525 sec
     gradient                   ...        0 min,  0.038 sec
 * total energy  :   -68.8244324 Eh     change       -0.1984213E-02 Eh
   gradient norm :     0.0328232 Eh/α   predicted    -0.1533819E-02 ( -22.70%)
   displ. norm   :     0.3715746 α      lambda       -0.3780152E-02
   maximum displ.:     0.1506329 α      in ANC's #24, #22, #17, ...

........................................................................
.............................. CYCLE   27 ..............................
........................................................................

 iter      E             dE          RMSdq      gap      omega  full diag
   1    -69.1950219 -0.691950E+02  0.184E-01    0.32       0.0  T
   2    -66.9609308  0.223409E+01  0.409E+00    0.17       1.0  T
   3    -68.9806516 -0.201972E+01  0.128E+00    0.31       1.0  T
   4    -69.1793835 -0.198732E+00  0.395E-01    0.32       1.0  T
   5    -69.1679658  0.114177E-01  0.488E-01    0.33       1.0  T
   6    -69.1784691 -0.105034E-01  0.403E-01    0.31       1.0  T
   7    -69.1984938 -0.200247E-01  0.664E-02    0.31       1.0  T
   8    -69.1984597  0.341014E-04  0.601E-02    0.31       1.0  T
   9    -69.1987229 -0.263193E-03  0.392E-02    0.31       1.0  T
  10    -69.1988305 -0.107600E-03  0.253E-02    0.31       1.0  T
  11    -69.1988789 -0.484516E-04  0.158E-02    0.31       1.1  T
  12    -69.1989036 -0.247090E-04  0.728E-03    0.31       2.5  T
  13    -69.1989103 -0.668299E-05  0.198E-03    0.31       9.1  T
  14    -69.1989106 -0.300555E-06  0.122E-03    0.31      14.7  T
  15    -69.1989107 -0.751245E-07  0.931E-04    0.31      19.3  T
  16    -69.1989108 -0.906409E-07  0.329E-04    0.31      54.6  T
  17    -69.1989108 -0.124440E-07  0.851E-05    0.31     211.0  T
  18    -69.1989108 -0.766661E-09  0.335E-05    0.31     535.9  T
     SCC iter.                  ...        0 min,  0.490 sec
     gradient                   ...        0 min,  0.038 sec
 * total energy  :   -68.8274789 Eh     change       -0.3046447E-02 Eh
   gradient norm :     0.0330852 Eh/α   predicted    -0.2151037E-02 ( -29.39%)
   displ. norm   :     0.5452648 α      lambda       -0.5268281E-02
   maximum displ.:     0.2412815 α      in ANC's #22, #12, #24, ...

........................................................................
.............................. CYCLE   28 ..............................
........................................................................

 iter      E             dE          RMSdq      gap      omega  full diag
   1    -69.2017712 -0.692018E+02  0.115E-01    0.31       0.0  T
   2    -68.3439940  0.857777E+00  0.251E+00    0.22       1.0  T
   3    -69.1474215 -0.803427E+00  0.653E-01    0.30       1.0  T
   4    -69.1717693 -0.243478E-01  0.486E-01    0.31       1.0  T
   5    -69.1993535 -0.275842E-01  0.172E-01    0.29       1.0  T
   6    -69.1778049  0.215485E-01  0.441E-01    0.30       1.0  T
   7    -69.2008506 -0.230457E-01  0.136E-01    0.30       1.0  T
   8    -69.2023755 -0.152490E-02  0.709E-02    0.30       1.0  T
   9    -69.2027606 -0.385091E-03  0.444E-02    0.30       1.0  T
  10    -69.2029284 -0.167765E-03  0.260E-02    0.30       1.0  T
  11    -69.2030023 -0.739116E-04  0.105E-02    0.30       1.7  T
  12    -69.2030091 -0.685171E-05  0.752E-03    0.30       2.4  T
  13    -69.2030123 -0.319177E-05  0.559E-03    0.30       3.2  T
  14    -69.2030150 -0.270106E-05  0.314E-03    0.30       5.7  T
  15    -69.2030160 -0.981735E-06  0.143E-03    0.30      12.6  T
  16    -69.2030163 -0.233321E-06  0.444E-04    0.30      40.5  T
  17    -69.2030163 -0.226172E-07  0.133E-04    0.30     134.9  T
  18    -69.2030163 -0.201895E-08  0.403E-05    0.30     445.3  T
     SCC iter.                  ...        0 min,  0.487 sec
     gradient                   ...        0 min,  0.039 sec
 * total energy  :   -68.8315830 Eh     change       -0.4104102E-02 Eh
   gradient norm :     0.0341595 Eh/α   predicted    -0.3417308E-02 ( -16.73%)
   displ. norm   :     0.5946009 α      lambda       -0.5008814E-02
   maximum displ.:     0.2329010 α      in ANC's #22, #24, #12, ...

........................................................................
.............................. CYCLE   29 ..............................
........................................................................

 iter      E             dE          RMSdq      gap      omega  full diag
   1    -69.1963992 -0.691964E+02  0.151E-01    0.28       0.0  T
   2    -67.3014877  0.189491E+01  0.369E+00    0.27       1.0  T
   3    -69.1974300 -0.189594E+01  0.127E-01    0.29       1.0  T
   4    -69.0703896  0.127040E+00  0.988E-01    0.28       1.0  T
   5    -69.1974966 -0.127107E+00  0.118E-01    0.29       1.0  T
   6    -69.1701150  0.273816E-01  0.469E-01    0.30       1.0  T
   7    -69.1948853 -0.247703E-01  0.185E-01    0.29       1.0  T
   8    -69.1987708 -0.388549E-02  0.467E-02    0.29       1.0  T
   9    -69.1989352 -0.164360E-03  0.287E-02    0.29       1.0  T
  10    -69.1990218 -0.866730E-04  0.125E-02    0.29       1.4  T
  11    -69.1990394 -0.175577E-04  0.365E-03    0.29       4.9  T
  12    -69.1990407 -0.126950E-05  0.179E-03    0.29      10.1  T
  13    -69.1990409 -0.225828E-06  0.106E-03    0.29      17.0  T
  14    -69.1990410 -0.953976E-07  0.431E-04    0.29      41.7  T
  15    -69.1990410 -0.126246E-07  0.210E-04    0.29      85.4  T
  16    -69.1990410 -0.315568E-08  0.126E-04    0.29     142.3  T
  17    -69.1990410 -0.141635E-08  0.581E-05    0.29     308.9  T
     SCC iter.                  ...        0 min,  0.444 sec
     gradient                   ...        0 min,  0.040 sec
 * total energy  :   -68.8354474 Eh     change       -0.3864423E-02 Eh
   gradient norm :     0.0374180 Eh/α   predicted    -0.3389879E-02 ( -12.28%)
   displ. norm   :     0.5271672 α      lambda       -0.5690656E-02
   maximum displ.:     0.2824667 α      in ANC's #12, #22, #24, ...

........................................................................
.............................. CYCLE   30 ..............................
........................................................................

 iter      E             dE          RMSdq      gap      omega  full diag
   1    -69.1876193 -0.691876E+02  0.310E-01    0.29       0.0  T
   2    -49.9007237  0.192869E+02  0.111E+01    0.09       1.0  T
   3    -68.9270873 -0.190264E+02  0.143E+00    0.32       1.0  T
   4    -69.1308064 -0.203719E+00  0.730E-01    0.28       1.0  T
   5    -69.1866464 -0.558400E-01  0.326E-01    0.29       1.0  T
   6    -69.0872584  0.993879E-01  0.928E-01    0.28       1.0  T
   7    -69.1823437 -0.950852E-01  0.361E-01    0.29       1.0  T
   8    -69.1969127 -0.145691E-01  0.149E-01    0.30       1.0  T
   9    -69.1981701 -0.125737E-02  0.108E-01    0.30       1.0  T
  10    -69.1985067 -0.336606E-03  0.936E-02    0.30       1.0  T
  11    -69.1991751 -0.668358E-03  0.578E-02    0.30       1.0  T
  12    -69.1992994 -0.124303E-03  0.470E-02    0.30       1.0  T
  13    -69.1994614 -0.162028E-03  0.299E-02    0.30       1.0  T
  14    -69.1995611 -0.997062E-04  0.886E-03    0.30       2.0  T
  15    -69.1995695 -0.842109E-05  0.303E-03    0.30       5.9  T
  16    -69.1995704 -0.840312E-06  0.160E-03    0.30      11.2  T
  17    -69.1995706 -0.266708E-06  0.645E-04    0.30      27.9  T
  18    -69.1995707 -0.469435E-07  0.222E-04    0.30      81.0  T
  19    -69.1995707 -0.456255E-08  0.115E-04    0.30     156.5  T
  20    -69.1995707 -0.150656E-08  0.360E-05    0.30     498.6  T
     SCC iter.                  ...        0 min,  0.529 sec
     gradient                   ...        0 min,  0.035 sec
 * total energy  :   -68.8386327 Eh     change       -0.3185360E-02 Eh
   gradient norm :     0.0528468 Eh/α   predicted    -0.3636068E-02 (  14.15%)
   displ. norm   :     0.4838260 α      lambda       -0.6251555E-02
   maximum displ.:     0.1972792 α      in ANC's #17, #24, #23, ...

........................................................................
.............................. CYCLE   31 ..............................
........................................................................

 iter      E             dE          RMSdq      gap      omega  full diag
   1    -69.1735781 -0.691736E+02  0.425E-01    0.28       0.0  T
   2    -44.7002789  0.244733E+02  0.124E+01    0.11       1.0  T
   3    -68.8945494 -0.241943E+02  0.150E+00    0.34       1.0  T
   4    -69.0759654 -0.181416E+00  0.963E-01    0.29       1.0  T
   5    -69.1859558 -0.109990E+00  0.301E-01    0.30       1.0  T
   6    -69.1520072  0.339487E-01  0.584E-01    0.31       1.0  T
   7    -69.1947458 -0.427387E-01  0.145E-01    0.30       1.0  T
   8    -69.1966156 -0.186977E-02  0.609E-02    0.31       1.0  T
   9    -69.1969496 -0.333987E-03  0.311E-02    0.30       1.0  T
  10    -69.1969167  0.328754E-04  0.341E-02    0.30       1.0  T
  11    -69.1970566 -0.139835E-03  0.778E-03    0.30       2.3  T
  12    -69.1970630 -0.645323E-05  0.317E-03    0.30       5.7  T
  13    -69.1970634 -0.370979E-06  0.262E-03    0.30       6.9  T
  14    -69.1970638 -0.438481E-06  0.178E-03    0.30      10.1  T
  15    -69.1970639 -0.971351E-07  0.152E-03    0.30      11.8  T
  16    -69.1970642 -0.241664E-06  0.625E-04    0.30      28.7  T
  17    -69.1970642 -0.319847E-07  0.345E-04    0.30      52.0  T
  18    -69.1970642 -0.132662E-07  0.962E-05    0.30     186.6  T
  19    -69.1970642 -0.101102E-08  0.365E-05    0.30     491.9  T
     SCC iter.                  ...        0 min,  0.517 sec
     gradient                   ...        0 min,  0.033 sec
 * total energy  :   -68.8415611 Eh     change       -0.2928385E-02 Eh
   gradient norm :     0.0416490 Eh/α   predicted    -0.3857482E-02 (  31.73%)
   displ. norm   :     0.3366490 α      lambda       -0.4185024E-02
   maximum displ.:     0.2276051 α      in ANC's #12, #1, #27, ...

........................................................................
.............................. CYCLE   32 ..............................
........................................................................

 iter      E             dE          RMSdq      gap      omega  full diag
   1    -69.1868126 -0.691868E+02  0.334E-01    0.29       0.0  T
   2    -49.4205644  0.197662E+02  0.113E+01    0.13       1.0  T
   3    -68.3683664 -0.189478E+02  0.253E+00    0.33       1.0  T
   4    -69.1316065 -0.763240E+00  0.736E-01    0.31       1.0  T
   5    -69.0085196  0.123087E+00  0.123E+00    0.32       1.0  T
   6    -68.8963272  0.112192E+00  0.153E+00    0.24       1.0  T
   7    -69.1969319 -0.300605E+00  0.179E-01    0.31       1.0  T
   8    -69.2006192 -0.368733E-02  0.621E-02    0.31       1.0  T
   9    -69.2006267 -0.756737E-05  0.606E-02    0.31       1.0  T
  10    -69.2007487 -0.121997E-03  0.501E-02    0.31       1.0  T
  11    -69.2010363 -0.287582E-03  0.156E-02    0.31       1.2  T
  12    -69.2010504 -0.140348E-04  0.112E-02    0.31       1.6  T
  13    -69.2010551 -0.470289E-05  0.940E-03    0.31       1.9  T
  14    -69.2010617 -0.663707E-05  0.609E-03    0.31       2.9  T
  15    -69.2010648 -0.312259E-05  0.369E-03    0.31       4.9  T
  16    -69.2010651 -0.233361E-06  0.341E-03    0.31       5.3  T
  17    -69.2010657 -0.640970E-06  0.253E-03    0.31       7.1  T
  18    -69.2010664 -0.735777E-06  0.639E-04    0.31      28.1  T
  19    -69.2010665 -0.500216E-07  0.106E-04    0.31     169.5  T
  20    -69.2010665 -0.130721E-08  0.338E-05    0.31     530.6  T
     SCC iter.                  ...        0 min,  0.516 sec
     gradient                   ...        0 min,  0.029 sec
 * total energy  :   -68.8441212 Eh     change       -0.2560054E-02 Eh
   gradient norm :     0.0359925 Eh/α   predicted    -0.2329661E-02 (  -9.00%)
   displ. norm   :     0.5566009 α      lambda       -0.4035852E-02
   maximum displ.:     0.3475936 α      in ANC's #12, #1, #22, ...

........................................................................
.............................. CYCLE   33 ..............................
........................................................................

 iter      E             dE          RMSdq      gap      omega  full diag
   1    -69.1949414 -0.691949E+02  0.332E-01    0.30       0.0  T
   2    -49.0683647  0.201266E+02  0.114E+01    0.12       1.0  T
   3    -68.5151600 -0.194468E+02  0.231E+00    0.29       1.0  T
   4    -69.1630091 -0.647849E+00  0.612E-01    0.32       1.0  T
   5    -69.1278092  0.351999E-01  0.798E-01    0.28       1.0  T
   6    -68.7515848  0.376224E+00  0.186E+00    0.32       1.0  T
   7    -69.2005855 -0.449001E+00  0.259E-01    0.31       1.0  T
   8    -69.2062197 -0.563413E-02  0.154E-01    0.31       1.0  T
   9    -69.2068428 -0.623142E-03  0.137E-01    0.31       1.0  T
  10    -69.2072090 -0.366158E-03  0.123E-01    0.31       1.0  T
  11    -69.2082346 -0.102566E-02  0.816E-02    0.31       1.0  T
  12    -69.2088078 -0.573145E-03  0.434E-02    0.31       1.0  T
  13    -69.2089642 -0.156478E-03  0.250E-02    0.31       1.0  T
  14    -69.2089965 -0.322434E-04  0.191E-02    0.31       1.0  T
  15    -69.2090271 -0.306027E-04  0.109E-02    0.31       1.7  T
  16    -69.2090408 -0.137372E-04  0.248E-03    0.31       7.2  T
  17    -69.2090414 -0.623486E-06  0.978E-04    0.31      18.4  T
  18    -69.2090415 -0.578322E-07  0.693E-04    0.31      25.9  T
  19    -69.2090416 -0.575998E-07  0.154E-04    0.31     116.3  T
  20    -69.2090416 -0.239761E-08  0.703E-05    0.31     255.6  T
     SCC iter.                  ...        0 min,  0.533 sec
     gradient                   ...        0 min,  0.031 sec
 * total energy  :   -68.8468114 Eh     change       -0.2690203E-02 Eh
   gradient norm :     0.0201495 Eh/α   predicted    -0.2643093E-02 (  -1.75%)
   displ. norm   :     0.6436229 α      lambda       -0.2776447E-02
   maximum displ.:     0.3977727 α      in ANC's #12, #1, #22, ...

........................................................................
.............................. CYCLE   34 ..............................
........................................................................

 iter      E             dE          RMSdq      gap      omega  full diag
   1    -69.1722452 -0.691722E+02  0.500E-01    0.29       0.0  T
   2    -42.6437958  0.265284E+02  0.128E+01    0.18       1.0  T
   3    -68.5585572 -0.259148E+02  0.224E+00    0.31       1.0  T
   4    -69.0966263 -0.538069E+00  0.924E-01    0.32       1.0  T
   5    -69.1620902 -0.654639E-01  0.618E-01    0.32       1.0  T
   6    -68.5458254  0.616265E+00  0.223E+00    0.22       1.0  T
   7    -69.2038496 -0.658024E+00  0.159E-01    0.31       1.0  T
   8    -69.2052339 -0.138424E-02  0.107E-01    0.32       1.0  T
   9    -69.2055675 -0.333590E-03  0.938E-02    0.31       1.0  T
  10    -69.2062648 -0.697365E-03  0.564E-02    0.31       1.0  T
  11    -69.2066695 -0.404672E-03  0.107E-02    0.31       1.7  T
  12    -69.2066383  0.312132E-04  0.192E-02    0.31       1.0  T
  13    -69.2066495 -0.112007E-04  0.165E-02    0.31       1.1  T
  14    -69.2066771 -0.275818E-04  0.710E-03    0.31       2.5  T
  15    -69.2066834 -0.629593E-05  0.111E-03    0.31      16.1  T
  16    -69.2066834 -0.961973E-07  0.648E-04    0.31      27.7  T
  17    -69.2066835 -0.256720E-07  0.467E-04    0.31      38.5  T
  18    -69.2066835 -0.234456E-07  0.188E-04    0.31      95.7  T
  19    -69.2066835 -0.376259E-08  0.591E-05    0.31     304.1  T
     SCC iter.                  ...        0 min,  0.531 sec
     gradient                   ...        0 min,  0.034 sec
 * total energy  :   -68.8488841 Eh     change       -0.2072685E-02 Eh
   gradient norm :     0.0186002 Eh/α   predicted    -0.1963297E-02 (  -5.28%)
   displ. norm   :     0.6419121 α      lambda       -0.3376727E-02
   maximum displ.:     0.3598228 α      in ANC's #1, #12, #17, ...

........................................................................
.............................. CYCLE   35 ..............................
........................................................................

 iter      E             dE          RMSdq      gap      omega  full diag
   1    -69.1926025 -0.691926E+02  0.379E-01    0.32       0.0  T
   2    -46.7690023  0.224236E+02  0.119E+01    0.17       1.0  T
   3    -68.6291529 -0.218602E+02  0.211E+00    0.30       1.0  T
   4    -69.1418943 -0.512741E+00  0.740E-01    0.36       1.0  T
   5    -69.1413757  0.518533E-03  0.757E-01    0.31       1.0  T
   6    -68.7387027  0.402673E+00  0.189E+00    0.35       1.0  T
   7    -69.2103918 -0.471689E+00  0.130E-01    0.34       1.0  T
   8    -69.2114030 -0.101122E-02  0.711E-02    0.34       1.0  T
   9    -69.2114124 -0.940065E-05  0.695E-02    0.34       1.0  T
  10    -69.2117053 -0.292833E-03  0.478E-02    0.34       1.0  T
  11    -69.2119866 -0.281329E-03  0.106E-02    0.34       1.7  T
  12    -69.2119936 -0.696831E-05  0.813E-03    0.34       2.2  T
  13    -69.2119909  0.264893E-05  0.917E-03    0.34       2.0  T
  14    -69.2119969 -0.597787E-05  0.583E-03    0.34       3.1  T
  15    -69.2120010 -0.407962E-05  0.115E-03    0.34      15.6  T
  16    -69.2120011 -0.140916E-06  0.525E-04    0.34      34.2  T
  17    -69.2120011 -0.145955E-07  0.387E-04    0.34      46.4  T
  18    -69.2120011 -0.133000E-07  0.213E-04    0.34      84.4  T
  19    -69.2120011 -0.425983E-08  0.103E-04    0.34     174.3  T
  20    -69.2120011 -0.102881E-08  0.479E-05    0.34     375.0  T
     SCC iter.                  ...        0 min,  0.574 sec
     gradient                   ...        0 min,  0.056 sec
 * total energy  :   -68.8512250 Eh     change       -0.2340891E-02 Eh
   gradient norm :     0.0134611 Eh/α   predicted    -0.2384059E-02 (   1.84%)
   displ. norm   :     0.7278087 α      lambda       -0.2749103E-02
   maximum displ.:     0.4258189 α      in ANC's #12, #1, #22, ...

........................................................................
.............................. CYCLE   36 ..............................
........................................................................

 iter      E             dE          RMSdq      gap      omega  full diag
   1    -69.1906638 -0.691907E+02  0.343E-01    0.35       0.0  T
   2    -52.7643546  0.164263E+02  0.104E+01    0.16       1.0  T
   3    -67.9257479 -0.151614E+02  0.315E+00    0.30       1.0  T
   4    -69.0047708 -0.107902E+01  0.127E+00    0.40       1.0  T
   5    -69.1812352 -0.176464E+00  0.462E-01    0.36       1.0  T
   6    -68.5920438  0.589191E+00  0.216E+00    0.38       1.0  T
   7    -69.2050206 -0.612977E+00  0.150E-01    0.37       1.0  T
   8    -69.2024696  0.255098E-02  0.192E-01    0.37       1.0  T
   9    -69.2044625 -0.199290E-02  0.148E-01    0.37       1.0  T
  10    -69.2061587 -0.169615E-02  0.945E-02    0.37       1.0  T
  11    -69.2065014 -0.342695E-03  0.793E-02    0.36       1.0  T
  12    -69.2066759 -0.174465E-03  0.696E-02    0.36       1.0  T
  13    -69.2070779 -0.402028E-03  0.391E-02    0.36       1.0  T
  14    -69.2072394 -0.161490E-03  0.164E-02    0.36       1.1  T
  15    -69.2072541 -0.147249E-04  0.123E-02    0.36       1.5  T
  16    -69.2072614 -0.733960E-05  0.979E-03    0.36       1.8  T
  17    -69.2072682 -0.675929E-05  0.646E-03    0.36       2.8  T
  18    -69.2072731 -0.488505E-05  0.123E-03    0.36      14.6  T
  19    -69.2072732 -0.156929E-06  0.446E-04    0.36      40.3  T
  20    -69.2072733 -0.175799E-07  0.243E-04    0.36      73.9  T
  21    -69.2072733 -0.702515E-08  0.281E-05    0.36     639.1  T
  22    -69.2072733 -0.159588E-10  0.256E-05    0.36     701.8  T
     SCC iter.                  ...        0 min,  0.656 sec
     gradient                   ...        0 min,  0.042 sec
 * total energy  :   -68.8532894 Eh     change       -0.2064435E-02 Eh
   gradient norm :     0.0225535 Eh/α   predicted    -0.2102662E-02 (   1.85%)
   displ. norm   :     0.5667522 α      lambda       -0.2505409E-02
   maximum displ.:     0.3696764 α      in ANC's #1, #12, #17, ...

........................................................................
.............................. CYCLE   37 ..............................
........................................................................

 iter      E             dE          RMSdq      gap      omega  full diag
   1    -69.2030916 -0.692031E+02  0.237E-01    0.41       0.0  T
   2    -63.2601877  0.594290E+01  0.657E+00    0.18       1.0  T
   3    -68.9378452 -0.567766E+01  0.144E+00    0.41       1.0  T
   4    -69.1683339 -0.230489E+00  0.583E-01    0.40       1.0  T
   5    -69.1904831 -0.221492E-01  0.393E-01    0.41       1.0  T
   6    -69.0555545  0.134929E+00  0.108E+00    0.41       1.0  T
   7    -69.2093147 -0.153760E+00  0.785E-02    0.41       1.0  T
   8    -69.2090457  0.269005E-03  0.818E-02    0.41       1.0  T
   9    -69.2095107 -0.465053E-03  0.537E-02    0.41       1.0  T
  10    -69.2095827 -0.719492E-04  0.466E-02    0.41       1.0  T
  11    -69.2097843 -0.201655E-03  0.228E-02    0.41       1.0  T
  12    -69.2098288 -0.444741E-04  0.127E-02    0.41       1.4  T
  13    -69.2098467 -0.178862E-04  0.473E-03    0.41       3.8  T
  14    -69.2098495 -0.278330E-05  0.810E-04    0.41      22.2  T
  15    -69.2098495 -0.645098E-07  0.374E-04    0.41      48.0  T
  16    -69.2098496 -0.159553E-07  0.119E-04    0.41     150.3  T
  17    -69.2098496 -0.121723E-08  0.671E-05    0.41     267.7  T
     SCC iter.                  ...        0 min,  0.473 sec
     gradient                   ...        0 min,  0.022 sec
 * total energy  :   -68.8547117 Eh     change       -0.1422292E-02 Eh
   gradient norm :     0.0244299 Eh/α   predicted    -0.1655083E-02 (  16.37%)
   displ. norm   :     0.4080498 α      lambda       -0.2189962E-02
   maximum displ.:     0.2058935 α      in ANC's #12, #1, #9, ...

........................................................................
.............................. CYCLE   38 ..............................
........................................................................

 iter      E             dE          RMSdq      gap      omega  full diag
   1    -69.2055314 -0.692055E+02  0.279E-01    0.42       0.0  T
   2    -59.0607546  0.101448E+02  0.836E+00    0.15       1.0  T
   3    -68.9232286 -0.986247E+01  0.151E+00    0.42       1.0  T
   4    -69.1325595 -0.209331E+00  0.801E-01    0.42       1.0  T
   5    -69.1763942 -0.438348E-01  0.556E-01    0.42       1.0  T
   6    -68.9459987  0.230396E+00  0.142E+00    0.39       1.0  T
   7    -69.2142473 -0.268249E+00  0.767E-02    0.42       1.0  T
   8    -69.2136598  0.587520E-03  0.990E-02    0.42       1.0  T
   9    -69.2144214 -0.761610E-03  0.627E-02    0.42       1.0  T
  10    -69.2146789 -0.257453E-03  0.419E-02    0.42       1.0  T
  11    -69.2147853 -0.106409E-03  0.284E-02    0.41       1.0  T
  12    -69.2148479 -0.626402E-04  0.167E-02    0.41       1.1  T
  13    -69.2148628 -0.149098E-04  0.122E-02    0.41       1.5  T
  14    -69.2148786 -0.158012E-04  0.417E-03    0.41       4.3  T
  15    -69.2148803 -0.165055E-05  0.171E-03    0.41      10.5  T
  16    -69.2148805 -0.250209E-06  0.890E-04    0.41      20.2  T
  17    -69.2148806 -0.791293E-07  0.395E-04    0.41      45.4  T
  18    -69.2148806 -0.189012E-07  0.859E-05    0.41     209.0  T
  19    -69.2148806 -0.626429E-09  0.490E-05    0.41     366.6  T
     SCC iter.                  ...        0 min,  0.537 sec
     gradient                   ...        0 min,  0.046 sec
 * total energy  :   -68.8559225 Eh     change       -0.1210842E-02 Eh
   gradient norm :     0.0218477 Eh/α   predicted    -0.1277301E-02 (   5.49%)
   displ. norm   :     0.2898043 α      lambda       -0.1376276E-02
   maximum displ.:     0.1827856 α      in ANC's #12, #9, #17, ...

........................................................................
.............................. CYCLE   39 ..............................
........................................................................

 iter      E             dE          RMSdq      gap      omega  full diag
   1    -69.2124621 -0.692125E+02  0.181E-01    0.43       0.0  T
   2    -63.7487054  0.546376E+01  0.620E+00    0.14       1.0  T
   3    -69.1238286 -0.537512E+01  0.845E-01    0.41       1.0  T
   4    -69.2069504 -0.831218E-01  0.276E-01    0.42       1.0  T
   5    -69.1431132  0.638371E-01  0.752E-01    0.42       1.0  T
   6    -69.1809385 -0.378252E-01  0.530E-01    0.42       1.0  T
   7    -69.2164092 -0.354707E-01  0.554E-02    0.42       1.0  T
   8    -69.2164379 -0.287116E-04  0.500E-02    0.42       1.0  T
   9    -69.2166748 -0.236899E-03  0.250E-02    0.42       1.0  T
  10    -69.2167347 -0.599037E-04  0.108E-02    0.42       1.7  T
  11    -69.2167460 -0.112627E-04  0.479E-03    0.42       3.8  T
  12    -69.2167466 -0.659733E-06  0.403E-03    0.42       4.5  T
  13    -69.2167479 -0.126859E-05  0.254E-03    0.42       7.1  T
  14    -69.2167485 -0.595436E-06  0.125E-03    0.42      14.4  T
  15    -69.2167486 -0.882986E-07  0.900E-04    0.42      20.0  T
  16    -69.2167486 -0.370986E-07  0.695E-04    0.42      25.9  T
  17    -69.2167487 -0.524019E-07  0.227E-04    0.42      79.1  T
  18    -69.2167487 -0.579850E-08  0.597E-05    0.42     300.9  T
  19    -69.2167487 -0.361112E-09  0.227E-05    0.42     791.6  T
     SCC iter.                  ...        0 min,  0.507 sec
     gradient                   ...        0 min,  0.028 sec
 * total energy  :   -68.8567384 Eh     change       -0.8158314E-03 Eh
   gradient norm :     0.0140427 Eh/α   predicted    -0.7459351E-03 (  -8.57%)
   displ. norm   :     0.3356360 α      lambda       -0.1236451E-02
   maximum displ.:     0.1705013 α      in ANC's #12, #9, #17, ...

........................................................................
.............................. CYCLE   40 ..............................
........................................................................

 iter      E             dE          RMSdq      gap      omega  full diag
   1    -69.2163851 -0.692164E+02  0.187E-01    0.42       0.0  T
   2    -65.7652211  0.345116E+01  0.499E+00    0.19       1.0  T
   3    -68.9580586 -0.319284E+01  0.143E+00    0.43       1.0  T
   4    -69.1914128 -0.233354E+00  0.478E-01    0.41       1.0  T
   5    -69.2061887 -0.147759E-01  0.343E-01    0.42       1.0  T
   6    -69.1618943  0.442945E-01  0.671E-01    0.41       1.0  T
   7    -69.2199960 -0.581017E-01  0.735E-02    0.42       1.0  T
   8    -69.2204631 -0.467185E-03  0.408E-02    0.42       1.0  T
   9    -69.2205815 -0.118321E-03  0.268E-02    0.42       1.0  T
  10    -69.2206474 -0.659782E-04  0.145E-02    0.42       1.2  T
  11    -69.2206558 -0.831989E-05  0.117E-02    0.42       1.5  T
  12    -69.2206663 -0.104912E-04  0.732E-03    0.42       2.5  T
  13    -69.2206700 -0.370416E-05  0.476E-03    0.42       3.8  T
  14    -69.2206727 -0.268976E-05  0.897E-04    0.42      20.0  T
  15    -69.2206727 -0.778629E-07  0.396E-04    0.42      45.4  T
  16    -69.2206727 -0.143549E-07  0.201E-04    0.42      89.5  T
  17    -69.2206727 -0.322696E-08  0.122E-04    0.42     147.4  T
  18    -69.2206727 -0.167749E-08  0.385E-05    0.42     467.1  T
     SCC iter.                  ...        0 min,  0.465 sec
     gradient                   ...        0 min,  0.037 sec
 * total energy  :   -68.8575491 Eh     change       -0.8107666E-03 Eh
   gradient norm :     0.0143673 Eh/α   predicted    -0.6878784E-03 ( -15.16%)
   displ. norm   :     0.5582613 α      lambda       -0.1301752E-02
   maximum displ.:     0.3749609 α      in ANC's #12, #1, #17, ...

........................................................................
.............................. CYCLE   41 ..............................
........................................................................

 iter      E             dE          RMSdq      gap      omega  full diag
   1    -69.2127957 -0.692128E+02  0.123E-01    0.41       0.0  T
   2    -68.0041427  0.120865E+01  0.302E+00    0.34       1.0  T
   3    -69.1899005 -0.118576E+01  0.451E-01    0.40       1.0  T
   4    -69.1896821  0.218433E-03  0.443E-01    0.41       1.0  T
   5    -69.1944921 -0.481002E-02  0.402E-01    0.40       1.0  T
   6    -69.1574324  0.370597E-01  0.656E-01    0.42       1.0  T
   7    -69.2128764 -0.554440E-01  0.122E-01    0.41       1.0  T
   8    -69.2132719 -0.395523E-03  0.106E-01    0.41       1.0  T
   9    -69.2141440 -0.872109E-03  0.647E-02    0.41       1.0  T
  10    -69.2146239 -0.479824E-03  0.203E-02    0.41       1.0  T
  11    -69.2146735 -0.496091E-04  0.247E-03    0.41       7.3  T
  12    -69.2146737 -0.233114E-06  0.199E-03    0.41       9.0  T
  13    -69.2146740 -0.291498E-06  0.132E-03    0.41      13.6  T
  14    -69.2146741 -0.146709E-06  0.743E-04    0.41      24.2  T
  15    -69.2146742 -0.588336E-07  0.294E-04    0.41      61.0  T
  16    -69.2146742 -0.960097E-08  0.105E-04    0.41     170.5  T
  17    -69.2146742 -0.129147E-08  0.312E-05    0.41     576.5  T
     SCC iter.                  ...        0 min,  0.490 sec
     gradient                   ...        0 min,  0.046 sec
 * total energy  :   -68.8582923 Eh     change       -0.7431841E-03 Eh
   gradient norm :     0.0156751 Eh/α   predicted    -0.8537487E-03 (  14.88%)
   displ. norm   :     0.3634045 α      lambda       -0.1196040E-02
   maximum displ.:     0.1714654 α      in ANC's #12, #17, #3, ...

........................................................................
.............................. CYCLE   42 ..............................
........................................................................

 iter      E             dE          RMSdq      gap      omega  full diag
   1    -69.2072190 -0.692072E+02  0.280E-01    0.40       0.0  T
   2    -59.8346898  0.937253E+01  0.813E+00    0.42       1.0  T
   3    -68.5469776 -0.871229E+01  0.225E+00    0.47       1.0  T
   4    -69.1600815 -0.613104E+00  0.659E-01    0.39       1.0  T
   5    -69.1005520  0.595295E-01  0.938E-01    0.38       1.0  T
   6    -69.1619492 -0.613972E-01  0.666E-01    0.40       1.0  T
   7    -69.2148499 -0.529007E-01  0.127E-01    0.41       1.0  T
   8    -69.2165911 -0.174125E-02  0.440E-02    0.41       1.0  T
   9    -69.2166821 -0.909190E-04  0.347E-02    0.41       1.0  T
  10    -69.2167008 -0.187567E-04  0.316E-02    0.41       1.0  T
  11    -69.2167693 -0.684801E-04  0.214E-02    0.41       1.0  T
  12    -69.2168141 -0.448100E-04  0.102E-02    0.41       1.8  T
  13    -69.2168235 -0.944248E-05  0.547E-03    0.41       3.3  T
  14    -69.2168265 -0.293343E-05  0.261E-03    0.41       6.9  T
  15    -69.2168271 -0.587792E-06  0.143E-03    0.41      12.6  T
  16    -69.2168272 -0.175706E-06  0.801E-04    0.41      22.4  T
  17    -69.2168273 -0.707712E-07  0.267E-04    0.41      67.2  T
  18    -69.2168273 -0.821976E-08  0.801E-05    0.41     224.2  T
  19    -69.2168273 -0.636717E-09  0.354E-05    0.41     508.1  T
     SCC iter.                  ...        0 min,  0.499 sec
     gradient                   ...        0 min,  0.036 sec
 * total energy  :   -68.8589992 Eh     change       -0.7069254E-03 Eh
   gradient norm :     0.0139242 Eh/α   predicted    -0.6770068E-03 (  -4.23%)
   displ. norm   :     0.3614636 α      lambda       -0.8786719E-03
   maximum displ.:     0.2388114 α      in ANC's #12, #10, #4, ...
 * RMSD in coord.:     0.9987719 α      energy gain  -0.5354084E-01 Eh

generating ANC from model Hessian ...
Using Lindh-Hessian (1995)
 Shifting diagonal of input Hessian by    1.2536644095576836E-002
 Lowest  eigenvalues of input Hessian
    0.010000    0.000000    0.000000    0.000000    0.000000    0.000000
    0.000000    0.012544    0.012601    0.012619    0.012880    0.012899
    0.013330    0.013467    0.013796    0.013872    0.013932    0.014035
 Highest eigenvalues
    1.082523    1.093493    1.117848    1.184129    2.041513    2.915113


........................................................................
.............................. CYCLE   43 ..............................
........................................................................

 iter      E             dE          RMSdq      gap      omega  full diag
   1    -69.2151460 -0.692151E+02  0.133E-01    0.40       0.0  T
   2    -67.0574081  0.215774E+01  0.401E+00    0.34       1.0  T
   3    -69.1724294 -0.211502E+01  0.586E-01    0.42       1.0  T
   4    -69.1890005 -0.165711E-01  0.461E-01    0.39       1.0  T
   5    -69.1901731 -0.117256E-02  0.457E-01    0.42       1.0  T
   6    -69.2045470 -0.143739E-01  0.322E-01    0.40       1.0  T
   7    -69.2168096 -0.122626E-01  0.582E-02    0.40       1.0  T
   8    -69.2169731 -0.163489E-03  0.441E-02    0.40       1.0  T
   9    -69.2171531 -0.180014E-03  0.242E-02    0.40       1.0  T
  10    -69.2171854 -0.322439E-04  0.177E-02    0.40       1.0  T
  11    -69.2172191 -0.337888E-04  0.737E-03    0.40       2.4  T
  12    -69.2172230 -0.382374E-05  0.472E-03    0.40       3.8  T
  13    -69.2172252 -0.224844E-05  0.220E-03    0.40       8.2  T
  14    -69.2172256 -0.393355E-06  0.131E-03    0.40      13.7  T
  15    -69.2172258 -0.196834E-06  0.335E-04    0.40      53.5  T
  16    -69.2172258 -0.130951E-07  0.813E-05    0.40     220.8  T
  17    -69.2172258 -0.724839E-09  0.230E-05    0.40     780.3  T
     SCC iter.                  ...        0 min,  0.476 sec
     gradient                   ...        0 min,  0.025 sec
 * total energy  :   -68.8596416 Eh     change       -0.6423804E-03 Eh
   gradient norm :     0.0104365 Eh/α   predicted     0.0000000E+00 (-100.00%)
   displ. norm   :     0.1448535 α      lambda       -0.5815270E-03
   maximum displ.:     0.0799412 α      in ANC's #7, #6, #4, ...

........................................................................
.............................. CYCLE   44 ..............................
........................................................................

 iter      E             dE          RMSdq      gap      omega  full diag
   1    -69.2175682 -0.692176E+02  0.939E-02    0.41       0.0  T
   2    -68.3598073  0.857761E+00  0.255E+00    0.32       1.0  T
   3    -69.2135313 -0.853724E+00  0.208E-01    0.41       1.0  T
   4    -69.1959974  0.175339E-01  0.410E-01    0.39       1.0  T
   5    -69.2147072 -0.187099E-01  0.181E-01    0.41       1.0  T
   6    -69.2048852  0.982204E-02  0.322E-01    0.41       1.0  T
   7    -69.2181280 -0.132428E-01  0.660E-02    0.41       1.0  T
   8    -69.2185633 -0.435354E-03  0.285E-02    0.41       1.0  T
   9    -69.2186221 -0.587720E-04  0.187E-02    0.41       1.0  T
  10    -69.2186579 -0.358099E-04  0.836E-03    0.41       2.1  T
  11    -69.2186655 -0.762879E-05  0.311E-03    0.41       5.8  T
  12    -69.2186668 -0.124306E-05  0.276E-04    0.41      65.0  T
  13    -69.2186668 -0.131928E-08  0.223E-04    0.41      80.7  T
  14    -69.2186668 -0.387629E-09  0.204E-04    0.41      87.9  T
  15    -69.2186668 -0.451988E-08  0.744E-05    0.41     241.4  T
  16    -69.2186668 -0.534783E-09  0.334E-05    0.41     537.8  T
     SCC iter.                  ...        0 min,  0.412 sec
     gradient                   ...        0 min,  0.047 sec
 * total energy  :   -68.8600974 Eh     change       -0.4557487E-03 Eh
   gradient norm :     0.0054148 Eh/α   predicted    -0.2968650E-03 ( -34.86%)
   displ. norm   :     0.3650073 α      lambda       -0.8733857E-03
   maximum displ.:     0.2135975 α      in ANC's #7, #6, #4, ...

........................................................................
.............................. CYCLE   45 ..............................
........................................................................

 iter      E             dE          RMSdq      gap      omega  full diag
   1    -69.2174628 -0.692175E+02  0.124E-01    0.42       0.0  T
   2    -67.4833306  0.173413E+01  0.357E+00    0.25       1.0  T
   3    -69.2080522 -0.172472E+01  0.291E-01    0.41       1.0  T
   4    -69.2009926  0.705955E-02  0.377E-01    0.42       1.0  T
   5    -69.2175632 -0.165706E-01  0.131E-01    0.41       1.0  T
   6    -69.2100344  0.752883E-02  0.267E-01    0.43       1.0  T
   7    -69.2185839 -0.854949E-02  0.796E-02    0.42       1.0  T
   8    -69.2191956 -0.611651E-03  0.405E-02    0.42       1.0  T
   9    -69.2193249 -0.129327E-03  0.239E-02    0.42       1.0  T
  10    -69.2193862 -0.612763E-04  0.854E-03    0.42       2.1  T
  11    -69.2193897 -0.357426E-05  0.622E-03    0.42       2.9  T
  12    -69.2193924 -0.262163E-05  0.420E-03    0.42       4.3  T
  13    -69.2193936 -0.120747E-05  0.281E-03    0.42       6.4  T
  14    -69.2193944 -0.878988E-06  0.921E-04    0.42      19.5  T
  15    -69.2193945 -0.988395E-07  0.226E-04    0.42      79.4  T
  16    -69.2193945 -0.534273E-08  0.922E-05    0.42     194.8  T
  17    -69.2193945 -0.985409E-09  0.192E-05    0.42     935.2  T
     SCC iter.                  ...        0 min,  0.471 sec
     gradient                   ...        0 min,  0.051 sec
 * total energy  :   -68.8607248 Eh     change       -0.6274160E-03 Eh
   gradient norm :     0.0071612 Eh/α   predicted    -0.4948735E-03 ( -21.13%)
   displ. norm   :     0.4285813 α      lambda       -0.6842772E-03
   maximum displ.:     0.2486431 α      in ANC's #7, #6, #4, ...

........................................................................
.............................. CYCLE   46 ..............................
........................................................................

 iter      E             dE          RMSdq      gap      omega  full diag
   1    -69.2169673 -0.692170E+02  0.143E-01    0.42       0.0  T
   2    -65.9918609  0.322511E+01  0.478E+00    0.17       1.0  T
   3    -69.2143034 -0.322244E+01  0.211E-01    0.42       1.0  T
   4    -69.1833503  0.309531E-01  0.529E-01    0.43       1.0  T
   5    -69.2026644 -0.193141E-01  0.369E-01    0.41       1.0  T
   6    -69.2155431 -0.128787E-01  0.173E-01    0.43       1.0  T
   7    -69.2177590 -0.221596E-02  0.117E-01    0.42       1.0  T
   8    -69.2190604 -0.130134E-02  0.582E-02    0.42       1.0  T
   9    -69.2193004 -0.239984E-03  0.380E-02    0.42       1.0  T
  10    -69.2193863 -0.859028E-04  0.272E-02    0.42       1.0  T
  11    -69.2194568 -0.705862E-04  0.131E-02    0.42       1.4  T
  12    -69.2194678 -0.110007E-04  0.875E-03    0.42       2.1  T
  13    -69.2194723 -0.449451E-05  0.637E-03    0.42       2.8  T
  14    -69.2194763 -0.398321E-05  0.295E-03    0.42       6.1  T
  15    -69.2194773 -0.995166E-06  0.811E-04    0.42      22.1  T
  16    -69.2194774 -0.762273E-07  0.200E-04    0.42      89.9  T
  17    -69.2194774 -0.376788E-08  0.993E-05    0.42     180.9  T
     SCC iter.                  ...        0 min,  0.457 sec
     gradient                   ...        0 min,  0.031 sec
 * total energy  :   -68.8612429 Eh     change       -0.5181249E-03 Eh
   gradient norm :     0.0112574 Eh/α   predicted    -0.4049867E-03 ( -21.84%)
   displ. norm   :     0.5137809 α      lambda       -0.7754093E-03
   maximum displ.:     0.2948803 α      in ANC's #6, #7, #4, ...

........................................................................
.............................. CYCLE   47 ..............................
........................................................................

 iter      E             dE          RMSdq      gap      omega  full diag
   1    -69.2179003 -0.692179E+02  0.109E-01    0.43       0.0  T
   2    -67.9306396  0.128726E+01  0.307E+00    0.34       1.0  T
   3    -69.2165284 -0.128589E+01  0.150E-01    0.43       1.0  T
   4    -69.1690216  0.475068E-01  0.617E-01    0.41       1.0  T
   5    -69.2158077 -0.467862E-01  0.180E-01    0.43       1.0  T
   6    -69.2179019 -0.209419E-02  0.105E-01    0.43       1.0  T
   7    -69.2129408  0.496116E-02  0.219E-01    0.43       1.0  T
   8    -69.2187116 -0.577086E-02  0.711E-02    0.43       1.0  T
   9    -69.2190254 -0.313735E-03  0.493E-02    0.43       1.0  T
  10    -69.2192138 -0.188484E-03  0.299E-02    0.43       1.0  T
  11    -69.2193047 -0.908384E-04  0.126E-02    0.43       1.4  T
  12    -69.2193217 -0.170620E-04  0.362E-03    0.43       5.0  T
  13    -69.2193230 -0.128518E-05  0.157E-03    0.43      11.5  T
  14    -69.2193233 -0.262078E-06  0.386E-04    0.43      46.5  T
  15    -69.2193233 -0.164024E-07  0.131E-04    0.43     137.6  T
  16    -69.2193233 -0.163291E-08  0.577E-05    0.43     311.5  T
     SCC iter.                  ...        0 min,  0.424 sec
     gradient                   ...        0 min,  0.045 sec
 * total energy  :   -68.8618555 Eh     change       -0.6125728E-03 Eh
   gradient norm :     0.0106609 Eh/α   predicted    -0.4900523E-03 ( -20.00%)
   displ. norm   :     0.4904910 α      lambda       -0.7650825E-03
   maximum displ.:     0.2924455 α      in ANC's #6, #7, #4, ...

........................................................................
.............................. CYCLE   48 ..............................
........................................................................

 iter      E             dE          RMSdq      gap      omega  full diag
   1    -69.2189956 -0.692190E+02  0.117E-01    0.43       0.0  T
   2    -67.8092922  0.140970E+01  0.321E+00    0.30       1.0  T
   3    -69.2102541 -0.140096E+01  0.289E-01    0.44       1.0  T
   4    -69.1881246  0.221294E-01  0.496E-01    0.42       1.0  T
   5    -69.2160039 -0.278793E-01  0.205E-01    0.44       1.0  T
   6    -69.2157150  0.288977E-03  0.191E-01    0.43       1.0  T
   7    -69.2175970 -0.188204E-02  0.154E-01    0.44       1.0  T
   8    -69.2200793 -0.248228E-02  0.663E-02    0.44       1.0  T
   9    -69.2203378 -0.258552E-03  0.474E-02    0.44       1.0  T
  10    -69.2205178 -0.179971E-03  0.275E-02    0.44       1.0  T
  11    -69.2205977 -0.798464E-04  0.110E-02    0.44       1.6  T
  12    -69.2206090 -0.113354E-04  0.513E-03    0.44       3.5  T
  13    -69.2206112 -0.220903E-05  0.291E-03    0.44       6.2  T
  14    -69.2206122 -0.954123E-06  0.788E-04    0.44      22.8  T
  15    -69.2206122 -0.706188E-07  0.242E-04    0.44      74.2  T
  16    -69.2206122 -0.487127E-08  0.130E-04    0.44     138.5  T
  17    -69.2206122 -0.198359E-08  0.161E-05    0.44    1118.9  T
     SCC iter.                  ...        0 min,  0.497 sec
     gradient                   ...        0 min,  0.035 sec
 * total energy  :   -68.8624099 Eh     change       -0.5544722E-03 Eh
   gradient norm :     0.0074794 Eh/α   predicted    -0.4745743E-03 ( -14.41%)
   displ. norm   :     0.4896463 α      lambda       -0.5375536E-03
   maximum displ.:     0.2991098 α      in ANC's #6, #7, #4, ...

........................................................................
.............................. CYCLE   49 ..............................
........................................................................

 iter      E             dE          RMSdq      gap      omega  full diag
   1    -69.2203529 -0.692204E+02  0.768E-02    0.44       0.0  T
   2    -68.5858395  0.634513E+00  0.217E+00    0.45       1.0  T
   3    -69.2188910 -0.633052E+00  0.130E-01    0.44       1.0  T
   4    -69.2057636  0.131275E-01  0.342E-01    0.45       1.0  T
   5    -69.2208428 -0.150793E-01  0.457E-02    0.44       1.0  T
   6    -69.2168777  0.396511E-02  0.179E-01    0.44       1.0  T
   7    -69.2209052 -0.402752E-02  0.402E-02    0.44       1.0  T
   8    -69.2210548 -0.149612E-03  0.196E-02    0.44       1.0  T
   9    -69.2210809 -0.260636E-04  0.121E-02    0.44       1.5  T
  10    -69.2210909 -0.100194E-04  0.785E-03    0.44       2.3  T
  11    -69.2210977 -0.678292E-05  0.277E-03    0.44       6.5  T
  12    -69.2210986 -0.838232E-06  0.701E-04    0.44      25.6  T
  13    -69.2210986 -0.417061E-07  0.371E-04    0.44      48.4  T
  14    -69.2210986 -0.898640E-08  0.257E-04    0.44      70.0  T
  15    -69.2210986 -0.714157E-08  0.103E-04    0.44     174.0  T
  16    -69.2210986 -0.107336E-08  0.473E-05    0.44     379.5  T
     SCC iter.                  ...        0 min,  0.420 sec
     gradient                   ...        0 min,  0.039 sec
 * total energy  :   -68.8628566 Eh     change       -0.4466450E-03 Eh
   gradient norm :     0.0085521 Eh/α   predicted    -0.3332229E-03 ( -25.39%)
   displ. norm   :     0.5628508 α      lambda       -0.6754288E-03
   maximum displ.:     0.3388649 α      in ANC's #6, #4, #7, ...

........................................................................
.............................. CYCLE   50 ..............................
........................................................................

 iter      E             dE          RMSdq      gap      omega  full diag
   1    -69.2220191 -0.692220E+02  0.539E-02    0.45       0.0  T
   2    -68.9682564  0.253763E+00  0.138E+00    0.44       1.0  T
   3    -69.2206968 -0.252440E+00  0.123E-01    0.44       1.0  T
   4    -69.2106199  0.100770E-01  0.299E-01    0.46       1.0  T
   5    -69.2212989 -0.106791E-01  0.946E-02    0.45       1.0  T
   6    -69.2203537  0.945235E-03  0.123E-01    0.45       1.0  T
   7    -69.2223169 -0.196319E-02  0.216E-02    0.45       1.0  T
   8    -69.2223291 -0.122431E-04  0.164E-02    0.45       1.1  T
   9    -69.2223547 -0.255438E-04  0.848E-03    0.45       2.1  T
  10    -69.2223617 -0.705404E-05  0.402E-03    0.45       4.5  T
  11    -69.2223634 -0.162912E-05  0.169E-03    0.45      10.6  T
  12    -69.2223637 -0.284295E-06  0.767E-04    0.45      23.4  T
  13    -69.2223637 -0.509592E-07  0.433E-04    0.45      41.5  T
  14    -69.2223637 -0.133029E-07  0.273E-04    0.45      65.7  T
  15    -69.2223637 -0.755161E-08  0.120E-04    0.45     150.1  T
  16    -69.2223637 -0.126546E-08  0.583E-05    0.45     307.8  T
     SCC iter.                  ...        0 min,  0.473 sec
     gradient                   ...        0 min,  0.028 sec
 * total energy  :   -68.8634362 Eh     change       -0.5796496E-03 Eh
   gradient norm :     0.0081171 Eh/α   predicted    -0.4447033E-03 ( -23.28%)
   displ. norm   :     0.6696016 α      lambda       -0.7902514E-03
   maximum displ.:     0.3896368 α      in ANC's #6, #4, #7, ...

........................................................................
.............................. CYCLE   51 ..............................
........................................................................

 iter      E             dE          RMSdq      gap      omega  full diag
   1    -69.2222704 -0.692223E+02  0.652E-02    0.46       0.0  T
   2    -68.8341773  0.388093E+00  0.171E+00    0.41       1.0  T
   3    -69.2200083 -0.385831E+00  0.151E-01    0.45       1.0  T
   4    -69.2068761  0.131322E-01  0.348E-01    0.47       1.0  T
   5    -69.2208793 -0.140033E-01  0.125E-01    0.46       1.0  T
   6    -69.2174307  0.344859E-02  0.201E-01    0.46       1.0  T
   7    -69.2226556 -0.522485E-02  0.365E-02    0.46       1.0  T
   8    -69.2226779 -0.222789E-04  0.304E-02    0.46       1.0  T
   9    -69.2227495 -0.716794E-04  0.191E-02    0.46       1.0  T
  10    -69.2227845 -0.349561E-04  0.953E-03    0.46       1.9  T
  11    -69.2227957 -0.112420E-04  0.179E-03    0.46      10.0  T
  12    -69.2227960 -0.220138E-06  0.108E-03    0.46      16.7  T
  13    -69.2227961 -0.959398E-07  0.639E-04    0.46      28.1  T
  14    -69.2227961 -0.453311E-07  0.213E-04    0.46      84.2  T
  15    -69.2227961 -0.536862E-08  0.470E-05    0.46     382.3  T
  16    -69.2227961 -0.232305E-09  0.167E-05    0.46    1077.5  T
     SCC iter.                  ...        0 min,  0.419 sec
     gradient                   ...        0 min,  0.030 sec
 * total energy  :   -68.8641039 Eh     change       -0.6676569E-03 Eh
   gradient norm :     0.0065975 Eh/α   predicted    -0.5722870E-03 ( -14.28%)
   displ. norm   :     0.6903132 α      lambda       -0.7046474E-03
   maximum displ.:     0.3827141 α      in ANC's #6, #4, #13, ...

........................................................................
.............................. CYCLE   52 ..............................
........................................................................

 iter      E             dE          RMSdq      gap      omega  full diag
   1    -69.2218699 -0.692219E+02  0.642E-02    0.47       0.0  T
   2    -68.8181944  0.403676E+00  0.174E+00    0.37       1.0  T
   3    -69.2203809 -0.402187E+00  0.127E-01    0.47       1.0  T
   4    -69.2079899  0.123910E-01  0.330E-01    0.45       1.0  T
   5    -69.2212178 -0.132279E-01  0.101E-01    0.47       1.0  T
   6    -69.2195397  0.167811E-02  0.147E-01    0.46       1.0  T
   7    -69.2221874 -0.264772E-02  0.421E-02    0.47       1.0  T
   8    -69.2221877 -0.310150E-06  0.387E-02    0.47       1.0  T
   9    -69.2223081 -0.120406E-03  0.237E-02    0.47       1.0  T
  10    -69.2223699 -0.618214E-04  0.889E-03    0.47       2.0  T
  11    -69.2223797 -0.980157E-05  0.188E-03    0.47       9.5  T
  12    -69.2223801 -0.383484E-06  0.634E-04    0.47      28.3  T
  13    -69.2223801 -0.164888E-07  0.515E-04    0.47      34.9  T
  14    -69.2223802 -0.264564E-07  0.236E-04    0.47      76.0  T
  15    -69.2223802 -0.628323E-08  0.812E-05    0.47     221.1  T
  16    -69.2223802 -0.505509E-09  0.507E-05    0.47     354.3  T
     SCC iter.                  ...        0 min,  0.422 sec
     gradient                   ...        0 min,  0.031 sec
 * total energy  :   -68.8646791 Eh     change       -0.5752315E-03 Eh
   gradient norm :     0.0077646 Eh/α   predicted    -0.5202182E-03 (  -9.56%)
   displ. norm   :     0.6214706 α      lambda       -0.5434278E-03
   maximum displ.:     0.3259178 α      in ANC's #6, #4, #13, ...

........................................................................
.............................. CYCLE   53 ..............................
........................................................................

 iter      E             dE          RMSdq      gap      omega  full diag
   1    -69.2225240 -0.692225E+02  0.748E-02    0.47       0.0  T
   2    -68.6408662  0.581658E+00  0.208E+00    0.35       1.0  T
   3    -69.2150346 -0.574168E+00  0.250E-01    0.48       1.0  T
   4    -69.2185820 -0.354741E-02  0.190E-01    0.46       1.0  T
   5    -69.2098224  0.875962E-02  0.319E-01    0.47       1.0  T
   6    -69.2231353 -0.133129E-01  0.338E-02    0.47       1.0  T
   7    -69.2229505  0.184788E-03  0.528E-02    0.47       1.0  T
   8    -69.2231418 -0.191301E-03  0.296E-02    0.47       1.0  T
   9    -69.2232171 -0.753684E-04  0.171E-02    0.47       1.1  T
  10    -69.2232458 -0.286915E-04  0.811E-03    0.47       2.2  T
  11    -69.2232539 -0.811243E-05  0.185E-03    0.47       9.7  T
  12    -69.2232543 -0.397570E-06  0.351E-04    0.47      51.2  T
  13    -69.2232543 -0.506660E-08  0.275E-04    0.47      65.3  T
  14    -69.2232544 -0.594055E-08  0.162E-04    0.47     111.0  T
  15    -69.2232544 -0.279793E-08  0.486E-05    0.47     369.3  T
     SCC iter.                  ...        0 min,  0.411 sec
     gradient                   ...        0 min,  0.037 sec
 * total energy  :   -68.8650846 Eh     change       -0.4054678E-03 Eh
   gradient norm :     0.0081060 Eh/α   predicted    -0.3766626E-03 (  -7.10%)
   displ. norm   :     0.6887738 α      lambda       -0.4181578E-03
   maximum displ.:     0.3787342 α      in ANC's #6, #4, #13, ...

........................................................................
.............................. CYCLE   54 ..............................
........................................................................

 iter      E             dE          RMSdq      gap      omega  full diag
   1    -69.2169620 -0.692170E+02  0.772E-02    0.47       0.0  T
   2    -68.6314695  0.585493E+00  0.208E+00    0.35       1.0  T
   3    -69.2168300 -0.585361E+00  0.862E-02    0.47       1.0  T
   4    -69.1976127  0.192173E-01  0.390E-01    0.47       1.0  T
   5    -69.2147640 -0.171513E-01  0.157E-01    0.48       1.0  T
   6    -69.2169739 -0.220994E-02  0.731E-02    0.47       1.0  T
   7    -69.2142197  0.275420E-02  0.163E-01    0.48       1.0  T
   8    -69.2175301 -0.331041E-02  0.326E-02    0.47       1.0  T
   9    -69.2176500 -0.119870E-03  0.116E-02    0.47       1.5  T
  10    -69.2176617 -0.116809E-04  0.582E-03    0.47       3.1  T
  11    -69.2176653 -0.360393E-05  0.248E-03    0.47       7.2  T
  12    -69.2176658 -0.548046E-06  0.135E-03    0.47      13.3  T
  13    -69.2176659 -0.922951E-07  0.102E-03    0.47      17.6  T
  14    -69.2176660 -0.996613E-07  0.508E-04    0.47      35.3  T
  15    -69.2176660 -0.199505E-07  0.304E-04    0.47      59.1  T
  16    -69.2176660 -0.695340E-08  0.194E-04    0.47      92.5  T
  17    -69.2176660 -0.407745E-08  0.703E-05    0.47     255.6  T
     SCC iter.                  ...        0 min,  0.451 sec
     gradient                   ...        0 min,  0.034 sec
 * total energy  :   -68.8651491 Eh     change       -0.6445789E-04 Eh
   gradient norm :     0.0150316 Eh/α   predicted    -0.3082799E-03 ( 378.27%)
   displ. norm   :     0.1762363 α      lambda       -0.5761510E-03
   maximum displ.:     0.0855970 α      in ANC's #4, #2, #12, ...

........................................................................
.............................. CYCLE   55 ..............................
........................................................................

 iter      E             dE          RMSdq      gap      omega  full diag
   1    -69.2226053 -0.692226E+02  0.926E-02    0.47       0.0  T
   2    -68.3815046  0.841101E+00  0.249E+00    0.33       1.0  T
   3    -69.1925859 -0.811081E+00  0.489E-01    0.48       1.0  T
   4    -69.2198281 -0.272422E-01  0.175E-01    0.46       1.0  T
   5    -69.2223171 -0.248899E-02  0.117E-01    0.47       1.0  T
   6    -69.2148591  0.745800E-02  0.259E-01    0.46       1.0  T
   7    -69.2235165 -0.865745E-02  0.453E-02    0.47       1.0  T
   8    -69.2236968 -0.180223E-03  0.210E-02    0.47       1.0  T
   9    -69.2237427 -0.458869E-04  0.912E-03    0.47       2.0  T
  10    -69.2237494 -0.679406E-05  0.467E-03    0.47       3.8  T
  11    -69.2237520 -0.251353E-05  0.142E-03    0.47      12.7  T
  12    -69.2237519  0.811954E-07  0.151E-03    0.47      11.9  T
  13    -69.2237521 -0.186374E-06  0.893E-04    0.47      20.1  T
  14    -69.2237521 -0.788445E-07  0.411E-04    0.47      43.7  T
  15    -69.2237522 -0.176389E-07  0.156E-04    0.47     115.3  T
  16    -69.2237522 -0.269766E-08  0.534E-05    0.47     336.6  T
     SCC iter.                  ...        0 min,  0.450 sec
     gradient                   ...        0 min,  0.031 sec
 * total energy  :   -68.8654150 Eh     change       -0.2659701E-03 Eh
   gradient norm :     0.0054530 Eh/α   predicted    -0.2970247E-03 (  11.68%)
   displ. norm   :     0.1838029 α      lambda       -0.1523194E-03
   maximum displ.:     0.0935732 α      in ANC's #4, #13, #6, ...

........................................................................
.............................. CYCLE   56 ..............................
........................................................................

 iter      E             dE          RMSdq      gap      omega  full diag
   1    -69.2235834 -0.692236E+02  0.201E-02    0.47       0.0  T
   2    -69.2080436  0.155398E-01  0.343E-01    0.47       1.0  T
   3    -69.2235154 -0.154718E-01  0.313E-02    0.47       1.0  T
   4    -69.2213752  0.214019E-02  0.131E-01    0.47       1.0  T
   5    -69.2231967 -0.182148E-02  0.586E-02    0.47       1.0  T
   6    -69.2235106 -0.313953E-03  0.298E-02    0.47       1.0  T
   7    -69.2234049  0.105717E-03  0.413E-02    0.47       1.0  T
   8    -69.2236076 -0.202710E-03  0.108E-02    0.47       1.7  T
   9    -69.2236174 -0.974627E-05  0.640E-03    0.47       2.8  T
  10    -69.2236217 -0.434984E-05  0.193E-03    0.47       9.3  T
  11    -69.2236221 -0.389900E-06  0.497E-04    0.47      36.1  T
  12    -69.2236221 -0.182344E-07  0.259E-04    0.47      69.3  T
  13    -69.2236221 -0.573650E-08  0.151E-04    0.47     118.8  T
  14    -69.2236222 -0.217915E-08  0.741E-05    0.47     242.2  T
     SCC iter.                  ...        0 min,  0.363 sec
     gradient                   ...        0 min,  0.046 sec
 * total energy  :   -68.8655011 Eh     change       -0.8606524E-04 Eh
   gradient norm :     0.0053231 Eh/α   predicted    -0.7873601E-04 (  -8.52%)
   displ. norm   :     0.1966403 α      lambda       -0.1179446E-03
   maximum displ.:     0.0995879 α      in ANC's #4, #13, #6, ...

........................................................................
.............................. CYCLE   57 ..............................
........................................................................

 iter      E             dE          RMSdq      gap      omega  full diag
   1    -69.2230109 -0.692230E+02  0.393E-02    0.47       0.0  T
   2    -69.0822966  0.140714E+00  0.103E+00    0.43       1.0  T
   3    -69.2226743 -0.140378E+00  0.645E-02    0.47       1.0  T
   4    -69.2187262  0.394811E-02  0.183E-01    0.47       1.0  T
   5    -69.2228259 -0.409974E-02  0.569E-02    0.47       1.0  T
   6    -69.2218504  0.975477E-03  0.102E-01    0.47       1.0  T
   7    -69.2231109 -0.126046E-02  0.255E-02    0.47       1.0  T
   8    -69.2231903 -0.794085E-04  0.604E-03    0.47       3.0  T
   9    -69.2231937 -0.345410E-05  0.305E-03    0.47       5.9  T
  10    -69.2231946 -0.818882E-06  0.161E-03    0.47      11.1  T
  11    -69.2231949 -0.290616E-06  0.457E-04    0.47      39.3  T
  12    -69.2231949 -0.207894E-07  0.170E-04    0.47     105.5  T
  13    -69.2231949 -0.291736E-08  0.794E-05    0.47     226.3  T
     SCC iter.                  ...        0 min,  0.358 sec
     gradient                   ...        0 min,  0.047 sec
 * total energy  :   -68.8655915 Eh     change       -0.9036775E-04 Eh
   gradient norm :     0.0037827 Eh/α   predicted    -0.6125452E-04 ( -32.22%)
   displ. norm   :     0.2406658 α      lambda       -0.1806386E-03
   maximum displ.:     0.1093975 α      in ANC's #13, #4, #12, ...

........................................................................
.............................. CYCLE   58 ..............................
........................................................................

 iter      E             dE          RMSdq      gap      omega  full diag
   1    -69.2229399 -0.692229E+02  0.553E-02    0.48       0.0  T
   2    -68.9662424  0.256697E+00  0.140E+00    0.40       1.0  T
   3    -69.2215945 -0.255352E+00  0.117E-01    0.48       1.0  T
   4    -69.2134979  0.809661E-02  0.270E-01    0.47       1.0  T
   5    -69.2226136 -0.911576E-02  0.802E-02    0.48       1.0  T
   6    -69.2213680  0.124561E-02  0.121E-01    0.47       1.0  T
   7    -69.2230700 -0.170202E-02  0.416E-02    0.47       1.0  T
   8    -69.2232224 -0.152392E-03  0.224E-02    0.47       1.0  T
   9    -69.2232579 -0.354940E-04  0.147E-02    0.47       1.2  T
  10    -69.2232798 -0.218395E-04  0.675E-03    0.47       2.7  T
  11    -69.2232849 -0.509413E-05  0.214E-03    0.47       8.4  T
  12    -69.2232853 -0.457291E-06  0.952E-04    0.47      18.9  T
  13    -69.2232854 -0.676863E-07  0.609E-04    0.47      29.5  T
  14    -69.2232854 -0.405414E-07  0.234E-04    0.47      76.8  T
  15    -69.2232854 -0.550556E-08  0.107E-04    0.47     168.5  T
  16    -69.2232854 -0.930200E-09  0.643E-05    0.47     279.2  T
     SCC iter.                  ...        0 min,  0.421 sec
     gradient                   ...        0 min,  0.028 sec
 * total energy  :   -68.8657003 Eh     change       -0.1088570E-03 Eh
   gradient norm :     0.0042877 Eh/α   predicted    -0.9555262E-04 ( -12.22%)
   displ. norm   :     0.1965783 α      lambda       -0.9669158E-04
   maximum displ.:     0.0979947 α      in ANC's #13, #4, #12, ...

........................................................................
.............................. CYCLE   59 ..............................
........................................................................

 iter      E             dE          RMSdq      gap      omega  full diag
   1    -69.2235723 -0.692236E+02  0.257E-02    0.47       0.0  T
   2    -69.1704816  0.530907E-01  0.631E-01    0.45       1.0  T
   3    -69.2235114 -0.530298E-01  0.354E-02    0.47       1.0  T
   4    -69.2198340  0.367742E-02  0.169E-01    0.47       1.0  T
   5    -69.2235794 -0.374540E-02  0.247E-02    0.47       1.0  T
   6    -69.2235416  0.377465E-04  0.288E-02    0.47       1.0  T
   7    -69.2233273  0.214356E-03  0.499E-02    0.47       1.0  T
   8    -69.2236481 -0.320822E-03  0.273E-03    0.47       6.6  T
   9    -69.2236485 -0.356455E-06  0.208E-03    0.47       8.7  T
  10    -69.2236488 -0.323866E-06  0.108E-03    0.47      16.6  T
  11    -69.2236489 -0.126723E-06  0.359E-04    0.47      50.1  T
  12    -69.2236489 -0.145176E-07  0.801E-05    0.47     224.1  T
  13    -69.2236489 -0.411902E-09  0.520E-05    0.47     345.2  T
     SCC iter.                  ...        0 min,  0.327 sec
     gradient                   ...        0 min,  0.045 sec
 * total energy  :   -68.8657652 Eh     change       -0.6488608E-04 Eh
   gradient norm :     0.0033901 Eh/α   predicted    -0.5021660E-04 ( -22.61%)
   displ. norm   :     0.2152556 α      lambda       -0.1045927E-03
   maximum displ.:     0.0999786 α      in ANC's #13, #12, #2, ...

........................................................................
.............................. CYCLE   60 ..............................
........................................................................

 iter      E             dE          RMSdq      gap      omega  full diag
   1    -69.2241933 -0.692242E+02  0.208E-02    0.47       0.0  T
   2    -69.2039178  0.202755E-01  0.393E-01    0.46       1.0  T
   3    -69.2231414 -0.192236E-01  0.909E-02    0.48       1.0  T
   4    -69.2211413  0.200010E-02  0.152E-01    0.47       1.0  T
   5    -69.2240709 -0.292961E-02  0.375E-02    0.48       1.0  T
   6    -69.2238159  0.255008E-03  0.563E-02    0.47       1.0  T
   7    -69.2241655 -0.349557E-03  0.223E-02    0.47       1.0  T
   8    -69.2242123 -0.467934E-04  0.114E-02    0.47       1.6  T
   9    -69.2242243 -0.120327E-04  0.564E-03    0.47       3.2  T
  10    -69.2242281 -0.379497E-05  0.132E-03    0.47      13.6  T
  11    -69.2242283 -0.169767E-06  0.439E-04    0.47      40.9  T
  12    -69.2242283 -0.176991E-07  0.227E-04    0.47      79.1  T
  13    -69.2242283 -0.450773E-08  0.124E-04    0.47     145.3  T
  14    -69.2242283 -0.163145E-08  0.473E-05    0.47     379.4  T
     SCC iter.                  ...        0 min,  0.375 sec
     gradient                   ...        0 min,  0.034 sec
 * total energy  :   -68.8658401 Eh     change       -0.7488209E-04 Eh
   gradient norm :     0.0026432 Eh/α   predicted    -0.5472526E-04 ( -26.92%)
   displ. norm   :     0.2000094 α      lambda       -0.8323172E-04
   maximum displ.:     0.0817742 α      in ANC's #2, #13, #11, ...

........................................................................
.............................. CYCLE   61 ..............................
........................................................................

 iter      E             dE          RMSdq      gap      omega  full diag
   1    -69.2242676 -0.692243E+02  0.233E-02    0.47       0.0  T
   2    -69.1903380  0.339295E-01  0.508E-01    0.48       1.0  T
   3    -69.2237414 -0.334034E-01  0.663E-02    0.47       1.0  T
   4    -69.2208180  0.292340E-02  0.161E-01    0.47       1.0  T
   5    -69.2241842 -0.336617E-02  0.319E-02    0.47       1.0  T
   6    -69.2238048  0.379411E-03  0.633E-02    0.47       1.0  T
   7    -69.2242786 -0.473833E-03  0.191E-02    0.47       1.0  T
   8    -69.2242935 -0.148446E-04  0.144E-02    0.47       1.2  T
   9    -69.2243115 -0.180663E-04  0.766E-03    0.47       2.3  T
  10    -69.2243175 -0.595161E-05  0.334E-03    0.47       5.4  T
  11    -69.2243188 -0.129774E-05  0.817E-04    0.47      22.0  T
  12    -69.2243188 -0.697766E-07  0.296E-04    0.47      60.7  T
  13    -69.2243189 -0.976038E-08  0.106E-04    0.47     169.0  T
  14    -69.2243189 -0.536005E-09  0.790E-05    0.47     227.5  T
     SCC iter.                  ...        0 min,  0.372 sec
     gradient                   ...        0 min,  0.031 sec
 * total energy  :   -68.8658998 Eh     change       -0.5975119E-04 Eh
   gradient norm :     0.0033702 Eh/α   predicted    -0.4328247E-04 ( -27.56%)
   displ. norm   :     0.2144375 α      lambda       -0.7637718E-04
   maximum displ.:     0.1013762 α      in ANC's #2, #13, #5, ...

........................................................................
.............................. CYCLE   62 ..............................
........................................................................

 iter      E             dE          RMSdq      gap      omega  full diag
   1    -69.2244509 -0.692245E+02  0.212E-02    0.47       0.0  T
   2    -69.2001902  0.242607E-01  0.429E-01    0.48       1.0  T
   3    -69.2239759 -0.237857E-01  0.646E-02    0.47       1.0  T
   4    -69.2202548  0.372110E-02  0.178E-01    0.47       1.0  T
   5    -69.2244303 -0.417548E-02  0.213E-02    0.47       1.0  T
   6    -69.2239195  0.510751E-03  0.663E-02    0.47       1.0  T
   7    -69.2244356 -0.516054E-03  0.218E-02    0.47       1.0  T
   8    -69.2244388 -0.319447E-05  0.198E-02    0.47       1.0  T
   9    -69.2244739 -0.351274E-04  0.106E-02    0.47       1.7  T
  10    -69.2244864 -0.125562E-04  0.363E-03    0.47       4.9  T
  11    -69.2244880 -0.154507E-05  0.843E-04    0.47      21.3  T
  12    -69.2244881 -0.906066E-07  0.914E-05    0.47     196.6  T
  13    -69.2244881  0.128274E-08  0.130E-04    0.47     138.3  T
     SCC iter.                  ...        0 min,  0.340 sec
     gradient                   ...        0 min,  0.033 sec
 * total energy  :   -68.8659559 Eh     change       -0.5608909E-04 Eh
   gradient norm :     0.0040285 Eh/α   predicted    -0.3994930E-04 ( -28.78%)
   displ. norm   :     0.3028797 α      lambda       -0.1083903E-03
   maximum displ.:     0.1506513 α      in ANC's #2, #5, #11, ...

........................................................................
.............................. CYCLE   63 ..............................
........................................................................

 iter      E             dE          RMSdq      gap      omega  full diag
   1    -69.2234191 -0.692234E+02  0.408E-02    0.47       0.0  T
   2    -69.0451150  0.178304E+00  0.116E+00    0.48       1.0  T
   3    -69.2227976 -0.177683E+00  0.822E-02    0.47       1.0  T
   4    -69.2139753  0.882227E-02  0.268E-01    0.47       1.0  T
   5    -69.2230072 -0.903190E-02  0.688E-02    0.47       1.0  T
   6    -69.2221592  0.848014E-03  0.106E-01    0.47       1.0  T
   7    -69.2235304 -0.137126E-02  0.276E-02    0.47       1.0  T
   8    -69.2235113  0.190780E-04  0.285E-02    0.47       1.0  T
   9    -69.2235761 -0.647834E-04  0.170E-02    0.47       1.1  T
  10    -69.2236078 -0.316488E-04  0.609E-03    0.47       2.9  T
  11    -69.2236122 -0.438532E-05  0.142E-03    0.47      12.7  T
  12    -69.2236124 -0.222892E-06  0.459E-04    0.47      39.1  T
  13    -69.2236124 -0.212901E-07  0.205E-04    0.47      87.5  T
  14    -69.2236124 -0.351449E-08  0.115E-04    0.47     156.3  T
  15    -69.2236124 -0.134062E-08  0.513E-05    0.47     349.8  T
     SCC iter.                  ...        0 min,  0.408 sec
     gradient                   ...        0 min,  0.041 sec
 * total energy  :   -68.8660258 Eh     change       -0.6989184E-04 Eh
   gradient norm :     0.0048823 Eh/α   predicted    -0.5916897E-04 ( -15.34%)
   displ. norm   :     0.2753172 α      lambda       -0.1522945E-03
   maximum displ.:     0.1515455 α      in ANC's #2, #5, #22, ...

........................................................................
.............................. CYCLE   64 ..............................
........................................................................

 iter      E             dE          RMSdq      gap      omega  full diag
   1    -69.2245979 -0.692246E+02  0.304E-02    0.47       0.0  T
   2    -69.1702438  0.543541E-01  0.641E-01    0.48       1.0  T
   3    -69.2236580 -0.534142E-01  0.943E-02    0.46       1.0  T
   4    -69.2198862  0.377180E-02  0.189E-01    0.47       1.0  T
   5    -69.2240689 -0.418270E-02  0.728E-02    0.47       1.0  T
   6    -69.2236643  0.404613E-03  0.888E-02    0.47       1.0  T
   7    -69.2245925 -0.928230E-03  0.279E-02    0.47       1.0  T
   8    -69.2245809  0.116299E-04  0.287E-02    0.47       1.0  T
   9    -69.2246529 -0.719597E-04  0.160E-02    0.47       1.1  T
  10    -69.2246835 -0.306591E-04  0.365E-03    0.47       4.9  T
  11    -69.2246851 -0.156304E-05  0.956E-04    0.47      18.8  T
  12    -69.2246852 -0.927266E-07  0.438E-04    0.47      41.1  T
  13    -69.2246852 -0.125330E-07  0.298E-04    0.47      60.3  T
  14    -69.2246852 -0.803725E-08  0.158E-04    0.47     113.6  T
  15    -69.2246852 -0.227858E-08  0.845E-05    0.47     212.6  T
     SCC iter.                  ...        0 min,  0.374 sec
     gradient                   ...        0 min,  0.029 sec
 * total energy  :   -68.8661221 Eh     change       -0.9627651E-04 Eh
   gradient norm :     0.0035137 Eh/α   predicted    -0.8192255E-04 ( -14.91%)
   displ. norm   :     0.4216146 α      lambda       -0.1607260E-03
   maximum displ.:     0.2195418 α      in ANC's #2, #4, #13, ...

........................................................................
.............................. CYCLE   65 ..............................
........................................................................

 iter      E             dE          RMSdq      gap      omega  full diag
   1    -69.2210981 -0.692211E+02  0.484E-02    0.47       0.0  T
   2    -69.0209140  0.200184E+00  0.123E+00    0.46       1.0  T
   3    -69.2193139 -0.198400E+00  0.129E-01    0.46       1.0  T
   4    -69.2133493  0.596461E-02  0.246E-01    0.48       1.0  T
   5    -69.2203579 -0.700863E-02  0.936E-02    0.47       1.0  T
   6    -69.2179516  0.240627E-02  0.161E-01    0.47       1.0  T
   7    -69.2212953 -0.334367E-02  0.243E-02    0.47       1.0  T
   8    -69.2213121 -0.167819E-04  0.204E-02    0.47       1.0  T
   9    -69.2213546 -0.424680E-04  0.848E-03    0.47       2.1  T
  10    -69.2213630 -0.841992E-05  0.187E-03    0.47       9.6  T
  11    -69.2213632 -0.194985E-06  0.123E-03    0.47      14.6  T
  12    -69.2213632 -0.566638E-07  0.102E-03    0.47      17.7  T
  13    -69.2213633 -0.846268E-07  0.610E-04    0.47      29.5  T
  14    -69.2213633 -0.422403E-07  0.202E-04    0.47      89.1  T
  15    -69.2213634 -0.444278E-08  0.726E-05    0.47     247.5  T
  16    -69.2213634 -0.520188E-09  0.364E-05    0.47     493.8  T
     SCC iter.                  ...        0 min,  0.443 sec
     gradient                   ...        0 min,  0.044 sec
 * total energy  :   -68.8662016 Eh     change       -0.7951292E-04 Eh
   gradient norm :     0.0085241 Eh/α   predicted    -0.9465130E-04 (  19.04%)
   displ. norm   :     0.2561309 α      lambda       -0.2770349E-03
   maximum displ.:     0.0862121 α      in ANC's #6, #2, #17, ...

........................................................................
.............................. CYCLE   66 ..............................
........................................................................

 iter      E             dE          RMSdq      gap      omega  full diag
   1    -69.2240332 -0.692240E+02  0.529E-02    0.47       0.0  T
   2    -69.0245491  0.199484E+00  0.123E+00    0.43       1.0  T
   3    -69.2228440 -0.198295E+00  0.117E-01    0.47       1.0  T
   4    -69.2205448  0.229920E-02  0.171E-01    0.48       1.0  T
   5    -69.2225634 -0.201858E-02  0.120E-01    0.47       1.0  T
   6    -69.2224641  0.992434E-04  0.119E-01    0.48       1.0  T
   7    -69.2240624 -0.159823E-02  0.471E-02    0.47       1.0  T
   8    -69.2243331 -0.270728E-03  0.129E-02    0.47       1.4  T
   9    -69.2243457 -0.125849E-04  0.752E-03    0.47       2.4  T
  10    -69.2243515 -0.586702E-05  0.306E-03    0.47       5.9  T
  11    -69.2243524 -0.893028E-06  0.142E-03    0.47      12.7  T
  12    -69.2243526 -0.144331E-06  0.936E-04    0.47      19.2  T
  13    -69.2243526 -0.680603E-07  0.570E-04    0.47      31.5  T
  14    -69.2243527 -0.361800E-07  0.202E-04    0.47      89.0  T
  15    -69.2243527 -0.480571E-08  0.550E-05    0.47     326.5  T
  16    -69.2243527 -0.177209E-09  0.397E-05    0.47     452.9  T
     SCC iter.                  ...        0 min,  0.441 sec
     gradient                   ...        0 min,  0.028 sec
 * total energy  :   -68.8663403 Eh     change       -0.1387147E-03 Eh
   gradient norm :     0.0087747 Eh/α   predicted    -0.1476096E-03 (   6.41%)
   displ. norm   :     0.3070593 α      lambda       -0.2077005E-03
   maximum displ.:     0.1294052 α      in ANC's #2, #5, #22, ...
 * RMSD in coord.:     1.2278771 α      energy gain  -0.7341088E-02 Eh

generating ANC from model Hessian ...
Using Lindh-Hessian (1995)
 Shifting diagonal of input Hessian by    1.3015175143220922E-002
 Lowest  eigenvalues of input Hessian
    0.010000    0.000000    0.000000    0.000000    0.000000    0.000000
    0.000000    0.013037    0.013055    0.013191    0.013414    0.013596
    0.014023    0.014158    0.014286    0.014411    0.014483    0.014535
 Highest eigenvalues
    1.085577    1.085669    1.109762    1.171109    2.045154    2.917621


........................................................................
.............................. CYCLE   67 ..............................
........................................................................

 iter      E             dE          RMSdq      gap      omega  full diag
   1    -69.2231164 -0.692231E+02  0.496E-02    0.47       0.0  T
   2    -69.0294123  0.193704E+00  0.121E+00    0.40       1.0  T
   3    -69.2208277 -0.191415E+00  0.144E-01    0.48       1.0  T
   4    -69.2193109  0.151677E-02  0.175E-01    0.47       1.0  T
   5    -69.2229113 -0.360037E-02  0.644E-02    0.48       1.0  T
   6    -69.2230234 -0.112031E-03  0.540E-02    0.47       1.0  T
   7    -69.2231471 -0.123744E-03  0.426E-02    0.47       1.0  T
   8    -69.2233086 -0.161522E-03  0.246E-02    0.47       1.0  T
   9    -69.2233736 -0.649469E-04  0.101E-02    0.47       1.8  T
  10    -69.2233844 -0.108716E-04  0.376E-03    0.47       4.8  T
  11    -69.2233859 -0.149187E-05  0.143E-03    0.47      12.6  T
  12    -69.2233861 -0.217009E-06  0.625E-04    0.47      28.7  T
  13    -69.2233862 -0.859330E-08  0.538E-04    0.47      33.4  T
  14    -69.2233862 -0.303492E-07  0.229E-04    0.47      78.4  T
  15    -69.2233862 -0.475220E-08  0.124E-04    0.47     145.1  T
  16    -69.2233862 -0.767884E-09  0.953E-05    0.47     188.5  T
     SCC iter.                  ...        0 min,  0.409 sec
     gradient                   ...        0 min,  0.046 sec
 * total energy  :   -68.8664408 Eh     change       -0.1004760E-03 Eh
   gradient norm :     0.0104749 Eh/α   predicted     0.0000000E+00 (-100.00%)
   displ. norm   :     0.0690922 α      lambda       -0.2022946E-03
   maximum displ.:     0.0238900 α      in ANC's #4, #14, #12, ...

........................................................................
.............................. CYCLE   68 ..............................
........................................................................

 iter      E             dE          RMSdq      gap      omega  full diag
   1    -69.2249820 -0.692250E+02  0.249E-02    0.47       0.0  T
   2    -69.1644960  0.604860E-01  0.677E-01    0.49       1.0  T
   3    -69.2250181 -0.605221E-01  0.205E-02    0.47       1.0  T
   4    -69.2235840  0.143410E-02  0.106E-01    0.48       1.0  T
   5    -69.2246634 -0.107935E-02  0.557E-02    0.47       1.0  T
   6    -69.2247508 -0.874330E-04  0.480E-02    0.47       1.0  T
   7    -69.2249378 -0.187025E-03  0.315E-02    0.47       1.0  T
   8    -69.2250304 -0.926388E-04  0.141E-02    0.47       1.3  T
   9    -69.2250524 -0.219512E-04  0.518E-03    0.47       3.5  T
  10    -69.2250554 -0.304001E-05  0.149E-03    0.47      12.1  T
  11    -69.2250557 -0.244950E-06  0.401E-04    0.47      44.8  T
  12    -69.2250557  0.991309E-08  0.458E-04    0.47      39.2  T
  13    -69.2250557 -0.179856E-07  0.270E-04    0.47      66.5  T
  14    -69.2250557 -0.771598E-08  0.117E-04    0.47     154.1  T
  15    -69.2250557 -0.100724E-08  0.737E-05    0.47     243.7  T
     SCC iter.                  ...        0 min,  0.401 sec
     gradient                   ...        0 min,  0.030 sec
 * total energy  :   -68.8665937 Eh     change       -0.1529018E-03 Eh
   gradient norm :     0.0038141 Eh/α   predicted    -0.1127821E-03 ( -26.24%)
   displ. norm   :     0.0961361 α      lambda       -0.1017591E-03
   maximum displ.:     0.0457283 α      in ANC's #4, #14, #7, ...

........................................................................
.............................. CYCLE   69 ..............................
........................................................................

 iter      E             dE          RMSdq      gap      omega  full diag
   1    -69.2257989 -0.692258E+02  0.322E-02    0.48       0.0  T
   2    -69.1256828  0.100116E+00  0.866E-01    0.43       1.0  T
   3    -69.2255897 -0.999069E-01  0.552E-02    0.48       1.0  T
   4    -69.2240567  0.153303E-02  0.119E-01    0.47       1.0  T
   5    -69.2257020 -0.164533E-02  0.434E-02    0.48       1.0  T
   6    -69.2259106 -0.208578E-03  0.146E-02    0.48       1.2  T
   7    -69.2255838  0.326795E-03  0.511E-02    0.47       1.0  T
   8    -69.2259183 -0.334460E-03  0.110E-02    0.48       1.6  T
   9    -69.2259299 -0.116724E-04  0.541E-03    0.48       3.3  T
  10    -69.2259334 -0.349014E-05  0.108E-03    0.48      16.7  T
  11    -69.2259335 -0.654493E-07  0.739E-04    0.48      24.3  T
  12    -69.2259336 -0.575283E-07  0.306E-04    0.48      58.6  T
  13    -69.2259336 -0.496301E-08  0.227E-04    0.48      79.1  T
  14    -69.2259336 -0.423647E-08  0.132E-04    0.48     135.6  T
  15    -69.2259336 -0.172854E-08  0.643E-05    0.48     279.2  T
     SCC iter.                  ...        0 min,  0.400 sec
     gradient                   ...        0 min,  0.033 sec
 * total energy  :   -68.8666622 Eh     change       -0.6846035E-04 Eh
   gradient norm :     0.0020111 Eh/α   predicted    -0.5135584E-04 ( -24.98%)
   displ. norm   :     0.1469323 α      lambda       -0.9148574E-04
   maximum displ.:     0.0812252 α      in ANC's #4, #14, #7, ...

........................................................................
.............................. CYCLE   70 ..............................
........................................................................

 iter      E             dE          RMSdq      gap      omega  full diag
   1    -69.2260986 -0.692261E+02  0.194E-02    0.48       0.0  T
   2    -69.2039420  0.221565E-01  0.408E-01    0.48       1.0  T
   3    -69.2254833 -0.215413E-01  0.723E-02    0.48       1.0  T
   4    -69.2247532  0.730156E-03  0.103E-01    0.48       1.0  T
   5    -69.2257498 -0.996624E-03  0.558E-02    0.47       1.0  T
   6    -69.2260838 -0.333981E-03  0.206E-02    0.48       1.0  T
   7    -69.2256535  0.430313E-03  0.608E-02    0.48       1.0  T
   8    -69.2261030 -0.449555E-03  0.161E-02    0.48       1.1  T
   9    -69.2261275 -0.245275E-04  0.803E-03    0.48       2.2  T
  10    -69.2261349 -0.735896E-05  0.245E-03    0.48       7.3  T
  11    -69.2261356 -0.699314E-06  0.612E-04    0.48      29.4  T
  12    -69.2261356 -0.399470E-07  0.225E-04    0.48      79.8  T
  13    -69.2261356 -0.236781E-08  0.181E-04    0.48      99.3  T
  14    -69.2261356 -0.249732E-08  0.112E-04    0.48     160.5  T
     SCC iter.                  ...        0 min,  0.382 sec
     gradient                   ...        0 min,  0.028 sec
 * total energy  :   -68.8667185 Eh     change       -0.5631453E-04 Eh
   gradient norm :     0.0048716 Eh/α   predicted    -0.4673721E-04 ( -17.01%)
   displ. norm   :     0.2334774 α      lambda       -0.1222512E-03
   maximum displ.:     0.1393939 α      in ANC's #4, #14, #7, ...

........................................................................
.............................. CYCLE   71 ..............................
........................................................................

 iter      E             dE          RMSdq      gap      omega  full diag
   1    -69.2252156 -0.692252E+02  0.716E-02    0.48       0.0  T
   2    -68.6964589  0.528757E+00  0.200E+00    0.34       1.0  T
   3    -69.2246988 -0.528240E+00  0.101E-01    0.48       1.0  T
   4    -69.2223412  0.235758E-02  0.165E-01    0.47       1.0  T
   5    -69.2212888  0.105234E-02  0.187E-01    0.48       1.0  T
   6    -69.2256331 -0.434424E-02  0.426E-02    0.48       1.0  T
   7    -69.2253328  0.300253E-03  0.621E-02    0.48       1.0  T
   8    -69.2258059 -0.473089E-03  0.196E-02    0.48       1.0  T
   9    -69.2258408 -0.348890E-04  0.108E-02    0.48       1.7  T
  10    -69.2258513 -0.104585E-04  0.567E-03    0.48       3.2  T
  11    -69.2258551 -0.378658E-05  0.144E-03    0.48      12.5  T
  12    -69.2258553 -0.243801E-06  0.367E-04    0.48      48.9  T
  13    -69.2258553 -0.886364E-08  0.255E-04    0.48      70.3  T
  14    -69.2258553 -0.567276E-08  0.145E-04    0.48     123.6  T
  15    -69.2258553 -0.180913E-08  0.821E-05    0.48     218.8  T
     SCC iter.                  ...        0 min,  0.388 sec
     gradient                   ...        0 min,  0.026 sec
 * total energy  :   -68.8668077 Eh     change       -0.8925150E-04 Eh
   gradient norm :     0.0063649 Eh/α   predicted    -0.6445787E-04 ( -27.78%)
   displ. norm   :     0.2487572 α      lambda       -0.1319299E-03
   maximum displ.:     0.1614571 α      in ANC's #4, #2, #6, ...

........................................................................
.............................. CYCLE   72 ..............................
........................................................................

 iter      E             dE          RMSdq      gap      omega  full diag
   1    -69.2249824 -0.692250E+02  0.476E-02    0.48       0.0  T
   2    -69.0135354  0.211447E+00  0.127E+00    0.40       1.0  T
   3    -69.2244768 -0.210941E+00  0.789E-02    0.48       1.0  T
   4    -69.2196611  0.481568E-02  0.205E-01    0.47       1.0  T
   5    -69.2245663 -0.490513E-02  0.787E-02    0.48       1.0  T
   6    -69.2251736 -0.607302E-03  0.259E-02    0.48       1.0  T
   7    -69.2247867  0.386862E-03  0.588E-02    0.48       1.0  T
   8    -69.2252047 -0.417941E-03  0.194E-02    0.48       1.0  T
   9    -69.2252388 -0.341369E-04  0.105E-02    0.48       1.7  T
  10    -69.2252498 -0.110436E-04  0.467E-03    0.48       3.8  T
  11    -69.2252524 -0.260700E-05  0.953E-04    0.48      18.8  T
  12    -69.2252525 -0.108376E-06  0.248E-04    0.48      72.5  T
  13    -69.2252525 -0.284530E-09  0.234E-04    0.48      76.6  T
  14    -69.2252526 -0.595649E-08  0.906E-05    0.48     198.2  T
  15    -69.2252526 -0.770200E-09  0.464E-05    0.48     387.4  T
     SCC iter.                  ...        0 min,  0.397 sec
     gradient                   ...        0 min,  0.037 sec
 * total energy  :   -68.8669166 Eh     change       -0.1088657E-03 Eh
   gradient norm :     0.0047717 Eh/α   predicted    -0.7004852E-04 ( -35.66%)
   displ. norm   :     0.2664324 α      lambda       -0.1650349E-03
   maximum displ.:     0.1808467 α      in ANC's #4, #2, #6, ...

........................................................................
.............................. CYCLE   73 ..............................
........................................................................

 iter      E             dE          RMSdq      gap      omega  full diag
   1    -69.2250467 -0.692250E+02  0.349E-02    0.48       0.0  T
   2    -69.1394000  0.856467E-01  0.810E-01    0.44       1.0  T
   3    -69.2240042 -0.846042E-01  0.973E-02    0.48       1.0  T
   4    -69.2219236  0.208058E-02  0.156E-01    0.48       1.0  T
   5    -69.2247097 -0.278608E-02  0.638E-02    0.48       1.0  T
   6    -69.2251391 -0.429459E-03  0.173E-02    0.48       1.0  T
   7    -69.2251108  0.283250E-04  0.223E-02    0.48       1.0  T
   8    -69.2251567 -0.459018E-04  0.121E-02    0.48       1.5  T
   9    -69.2251570 -0.253400E-06  0.117E-02    0.48       1.5  T
  10    -69.2251731 -0.161350E-04  0.276E-03    0.48       6.5  T
  11    -69.2251739 -0.838039E-06  0.809E-04    0.48      22.2  T
  12    -69.2251740 -0.762250E-07  0.273E-04    0.48      65.7  T
  13    -69.2251740 -0.377096E-08  0.204E-04    0.48      87.9  T
  14    -69.2251740 -0.432684E-08  0.870E-05    0.48     206.5  T
  15    -69.2251740 -0.629484E-09  0.506E-05    0.48     355.0  T
     SCC iter.                  ...        0 min,  0.431 sec
     gradient                   ...        0 min,  0.051 sec
 * total energy  :   -68.8670479 Eh     change       -0.1312729E-03 Eh
   gradient norm :     0.0033752 Eh/α   predicted    -0.8837714E-04 ( -32.68%)
   displ. norm   :     0.2944934 α      lambda       -0.1595518E-03
   maximum displ.:     0.2006087 α      in ANC's #4, #2, #6, ...

........................................................................
.............................. CYCLE   74 ..............................
........................................................................

 iter      E             dE          RMSdq      gap      omega  full diag
   1    -69.2251318 -0.692251E+02  0.216E-02    0.48       0.0  T
   2    -69.2143479  0.107839E-01  0.288E-01    0.48       1.0  T
   3    -69.2237226 -0.937461E-02  0.108E-01    0.48       1.0  T
   4    -69.2241999 -0.477336E-03  0.876E-02    0.48       1.0  T
   5    -69.2244192 -0.219279E-03  0.765E-02    0.48       1.0  T
   6    -69.2250588 -0.639675E-03  0.301E-02    0.48       1.0  T
   7    -69.2249102  0.148687E-03  0.449E-02    0.48       1.0  T
   8    -69.2251093 -0.199102E-03  0.220E-02    0.48       1.0  T
   9    -69.2251509 -0.416332E-04  0.124E-02    0.48       1.4  T
  10    -69.2251675 -0.166451E-04  0.467E-03    0.48       3.8  T
  11    -69.2251700 -0.249631E-05  0.130E-03    0.48      13.9  T
  12    -69.2251702 -0.212283E-06  0.144E-04    0.48     124.7  T
  13    -69.2251702 -0.167711E-08  0.714E-05    0.48     251.6  T
     SCC iter.                  ...        0 min,  0.355 sec
     gradient                   ...        0 min,  0.028 sec
 * total energy  :   -68.8671801 Eh     change       -0.1322458E-03 Eh
   gradient norm :     0.0056056 Eh/α   predicted    -0.8669802E-04 ( -34.44%)
   displ. norm   :     0.3548882 α      lambda       -0.1965027E-03
   maximum displ.:     0.2408563 α      in ANC's #4, #2, #6, ...

........................................................................
.............................. CYCLE   75 ..............................
........................................................................

 iter      E             dE          RMSdq      gap      omega  full diag
   1    -69.2253724 -0.692254E+02  0.329E-02    0.48       0.0  T
   2    -69.1627717  0.626007E-01  0.687E-01    0.49       1.0  T
   3    -69.2237907 -0.610190E-01  0.123E-01    0.47       1.0  T
   4    -69.2238478 -0.571468E-04  0.113E-01    0.48       1.0  T
   5    -69.2230931  0.754752E-03  0.136E-01    0.48       1.0  T
   6    -69.2249581 -0.186501E-02  0.622E-02    0.48       1.0  T
   7    -69.2251844 -0.226319E-03  0.490E-02    0.48       1.0  T
   8    -69.2253984 -0.214013E-03  0.265E-02    0.48       1.0  T
   9    -69.2254517 -0.533106E-04  0.167E-02    0.48       1.1  T
  10    -69.2254819 -0.301349E-04  0.642E-03    0.48       2.8  T
  11    -69.2254867 -0.484690E-05  0.160E-03    0.48      11.2  T
  12    -69.2254870 -0.318103E-06  0.289E-04    0.48      62.2  T
  13    -69.2254870 -0.882116E-08  0.110E-04    0.48     163.7  T
  14    -69.2254870 -0.270120E-09  0.953E-05    0.48     188.4  T
     SCC iter.                  ...        0 min,  0.361 sec
     gradient                   ...        0 min,  0.035 sec
 * total energy  :   -68.8673411 Eh     change       -0.1609721E-03 Eh
   gradient norm :     0.0068757 Eh/α   predicted    -0.1106310E-03 ( -31.27%)
   displ. norm   :     0.4443611 α      lambda       -0.2219375E-03
   maximum displ.:     0.3017373 α      in ANC's #4, #2, #6, ...

........................................................................
.............................. CYCLE   76 ..............................
........................................................................

 iter      E             dE          RMSdq      gap      omega  full diag
   1    -69.2249327 -0.692249E+02  0.550E-02    0.48       0.0  T
   2    -68.9621695  0.262763E+00  0.140E+00    0.49       1.0  T
   3    -69.2213900 -0.259220E+00  0.183E-01    0.47       1.0  T
   4    -69.2186167  0.277325E-02  0.224E-01    0.48       1.0  T
   5    -69.2231940 -0.457723E-02  0.129E-01    0.48       1.0  T
   6    -69.2216899  0.150402E-02  0.163E-01    0.48       1.0  T
   7    -69.2248939 -0.320401E-02  0.555E-02    0.48       1.0  T
   8    -69.2251328 -0.238830E-03  0.331E-02    0.48       1.0  T
   9    -69.2252117 -0.788845E-04  0.215E-02    0.48       1.0  T
  10    -69.2252621 -0.504338E-04  0.793E-03    0.48       2.3  T
  11    -69.2252695 -0.745248E-05  0.180E-03    0.48      10.0  T
  12    -69.2252699 -0.387144E-06  0.401E-04    0.48      44.8  T
  13    -69.2252699 -0.545757E-08  0.320E-04    0.48      56.1  T
  14    -69.2252699 -0.992897E-08  0.146E-04    0.48     122.9  T
  15    -69.2252699 -0.141900E-08  0.856E-05    0.48     209.9  T
     SCC iter.                  ...        0 min,  0.411 sec
     gradient                   ...        0 min,  0.035 sec
 * total energy  :   -68.8675051 Eh     change       -0.1639943E-03 Eh
   gradient norm :     0.0065130 Eh/α   predicted    -0.1328809E-03 ( -18.97%)
   displ. norm   :     0.3382801 α      lambda       -0.2022126E-03
   maximum displ.:     0.2264649 α      in ANC's #4, #2, #3, ...

........................................................................
.............................. CYCLE   77 ..............................
........................................................................

 iter      E             dE          RMSdq      gap      omega  full diag
   1    -69.2270214 -0.692270E+02  0.504E-02    0.48       0.0  T
   2    -69.0351027  0.191919E+00  0.120E+00    0.48       1.0  T
   3    -69.2231881 -0.188085E+00  0.188E-01    0.47       1.0  T
   4    -69.2257128 -0.252469E-02  0.112E-01    0.48       1.0  T
   5    -69.2206000  0.511284E-02  0.226E-01    0.48       1.0  T
   6    -69.2269212 -0.632125E-02  0.521E-02    0.48       1.0  T
   7    -69.2259009  0.102033E-02  0.103E-01    0.48       1.0  T
   8    -69.2271571 -0.125615E-02  0.325E-02    0.48       1.0  T
   9    -69.2272466 -0.895878E-04  0.186E-02    0.48       1.0  T
  10    -69.2272857 -0.390508E-04  0.599E-03    0.48       3.0  T
  11    -69.2272899 -0.420928E-05  0.153E-03    0.48      11.7  T
  12    -69.2272901 -0.204130E-06  0.853E-04    0.48      21.0  T
  13    -69.2272902 -0.484044E-07  0.581E-04    0.48      30.9  T
  14    -69.2272902 -0.346064E-07  0.256E-04    0.48      70.2  T
  15    -69.2272902 -0.561029E-08  0.138E-04    0.48     129.8  T
  16    -69.2272902 -0.174201E-08  0.744E-05    0.48     241.4  T
     SCC iter.                  ...        0 min,  0.422 sec
     gradient                   ...        0 min,  0.039 sec
 * total energy  :   -68.8676117 Eh     change       -0.1065859E-03 Eh
   gradient norm :     0.0039963 Eh/α   predicted    -0.1126803E-03 (   5.72%)
   displ. norm   :     0.4133817 α      lambda       -0.1837719E-03
   maximum displ.:     0.2706143 α      in ANC's #4, #2, #8, ...

........................................................................
.............................. CYCLE   78 ..............................
........................................................................

 iter      E             dE          RMSdq      gap      omega  full diag
   1    -69.2246823 -0.692247E+02  0.668E-02    0.48       0.0  T
   2    -68.8291968  0.395485E+00  0.173E+00    0.43       1.0  T
   3    -69.2190430 -0.389846E+00  0.220E-01    0.48       1.0  T
   4    -69.2159660  0.307697E-02  0.263E-01    0.48       1.0  T
   5    -69.2239556 -0.798957E-02  0.104E-01    0.48       1.0  T
   6    -69.2192824  0.467318E-02  0.212E-01    0.48       1.0  T
   7    -69.2250340 -0.575162E-02  0.339E-02    0.48       1.0  T
   8    -69.2250491 -0.150455E-04  0.308E-02    0.48       1.0  T
   9    -69.2251440 -0.949600E-04  0.138E-02    0.48       1.3  T
  10    -69.2251656 -0.216017E-04  0.405E-03    0.48       4.4  T
  11    -69.2251672 -0.159253E-05  0.171E-03    0.48      10.5  T
  12    -69.2251673 -0.109315E-06  0.139E-03    0.48      12.9  T
  13    -69.2251675 -0.169744E-06  0.783E-04    0.48      23.0  T
  14    -69.2251676 -0.635826E-07  0.291E-04    0.48      61.7  T
  15    -69.2251676 -0.942707E-08  0.987E-05    0.48     182.0  T
  16    -69.2251676 -0.573976E-09  0.683E-05    0.48     263.0  T
     SCC iter.                  ...        0 min,  0.431 sec
     gradient                   ...        0 min,  0.057 sec
 * total energy  :   -68.8676933 Eh     change       -0.8163979E-04 Eh
   gradient norm :     0.0059719 Eh/α   predicted    -0.1075920E-03 (  31.79%)
   displ. norm   :     0.0856795 α      lambda       -0.1270041E-03
   maximum displ.:     0.0389243 α      in ANC's #7, #9, #11, ...

........................................................................
.............................. CYCLE   79 ..............................
........................................................................

 iter      E             dE          RMSdq      gap      omega  full diag
   1    -69.2266400 -0.692266E+02  0.228E-02    0.48       0.0  T
   2    -69.1768660  0.497740E-01  0.613E-01    0.45       1.0  T
   3    -69.2266041 -0.497381E-01  0.284E-02    0.48       1.0  T
   4    -69.2241733  0.243075E-02  0.137E-01    0.48       1.0  T
   5    -69.2266915 -0.251817E-02  0.106E-02    0.48       1.7  T
   6    -69.2257470  0.944537E-03  0.854E-02    0.48       1.0  T
   7    -69.2266950 -0.947986E-03  0.863E-03    0.48       2.1  T
   8    -69.2266945  0.403636E-06  0.906E-03    0.48       2.0  T
   9    -69.2267025 -0.790911E-05  0.367E-03    0.48       4.9  T
  10    -69.2267039 -0.144739E-05  0.131E-03    0.48      13.7  T
  11    -69.2267041 -0.210563E-06  0.291E-04    0.48      61.7  T
  12    -69.2267041 -0.785347E-08  0.108E-04    0.48     165.6  T
  13    -69.2267041 -0.823050E-09  0.743E-05    0.48     241.6  T
     SCC iter.                  ...        0 min,  0.357 sec
     gradient                   ...        0 min,  0.030 sec
 * total energy  :   -68.8677897 Eh     change       -0.9636723E-04 Eh
   gradient norm :     0.0040674 Eh/α   predicted    -0.6396996E-04 ( -33.62%)
   displ. norm   :     0.3274196 α      lambda       -0.2121889E-03
   maximum displ.:     0.1516848 α      in ANC's #8, #4, #14, ...

........................................................................
.............................. CYCLE   80 ..............................
........................................................................

 iter      E             dE          RMSdq      gap      omega  full diag
   1    -69.2259450 -0.692259E+02  0.639E-02    0.48       0.0  T
   2    -68.8570964  0.368849E+00  0.168E+00    0.38       1.0  T
   3    -69.2254879 -0.368392E+00  0.883E-02    0.48       1.0  T
   4    -69.2119397  0.135482E-01  0.328E-01    0.48       1.0  T
   5    -69.2254483 -0.135085E-01  0.922E-02    0.48       1.0  T
   6    -69.2233970  0.205129E-02  0.154E-01    0.48       1.0  T
   7    -69.2262995 -0.290253E-02  0.351E-02    0.48       1.0  T
   8    -69.2263293 -0.297858E-04  0.296E-02    0.48       1.0  T
   9    -69.2264053 -0.759743E-04  0.170E-02    0.48       1.1  T
  10    -69.2264378 -0.325357E-04  0.598E-03    0.48       3.0  T
  11    -69.2264420 -0.421553E-05  0.159E-03    0.48      11.3  T
  12    -69.2264423 -0.233468E-06  0.822E-04    0.48      21.9  T
  13    -69.2264423 -0.590531E-07  0.451E-04    0.48      39.8  T
  14    -69.2264423 -0.203799E-07  0.192E-04    0.48      93.5  T
  15    -69.2264424 -0.409494E-08  0.633E-05    0.48     283.8  T
     SCC iter.                  ...        0 min,  0.401 sec
     gradient                   ...        0 min,  0.031 sec
 * total energy  :   -68.8679339 Eh     change       -0.1442617E-03 Eh
   gradient norm :     0.0039834 Eh/α   predicted    -0.1174683E-03 ( -18.57%)
   displ. norm   :     0.3584309 α      lambda       -0.1438081E-03
   maximum displ.:     0.1865877 α      in ANC's #4, #8, #2, ...

........................................................................
.............................. CYCLE   81 ..............................
........................................................................

 iter      E             dE          RMSdq      gap      omega  full diag
   1    -69.2253174 -0.692253E+02  0.658E-02    0.48       0.0  T
   2    -68.8709755  0.354342E+00  0.166E+00    0.41       1.0  T
   3    -69.2244629 -0.353487E+00  0.103E-01    0.48       1.0  T
   4    -69.2166650  0.779791E-02  0.265E-01    0.48       1.0  T
   5    -69.2238945 -0.722950E-02  0.126E-01    0.48       1.0  T
   6    -69.2242524 -0.357884E-03  0.107E-01    0.48       1.0  T
   7    -69.2254798 -0.122741E-02  0.518E-02    0.48       1.0  T
   8    -69.2257473 -0.267475E-03  0.230E-02    0.48       1.0  T
   9    -69.2257946 -0.472815E-04  0.125E-02    0.48       1.4  T
  10    -69.2258108 -0.162576E-04  0.517E-03    0.48       3.5  T
  11    -69.2258139 -0.303133E-05  0.160E-03    0.48      11.2  T
  12    -69.2258140 -0.103703E-06  0.120E-03    0.48      14.9  T
  13    -69.2258141 -0.126511E-06  0.684E-04    0.48      26.2  T
  14    -69.2258142 -0.532392E-07  0.223E-04    0.48      80.6  T
  15    -69.2258142 -0.594100E-08  0.609E-05    0.48     295.0  T
  16    -69.2258142 -0.331127E-09  0.319E-05    0.48     563.7  T
     SCC iter.                  ...        0 min,  0.447 sec
     gradient                   ...        0 min,  0.054 sec
 * total energy  :   -68.8680403 Eh     change       -0.1064117E-03 Eh
   gradient norm :     0.0038354 Eh/α   predicted    -0.8114233E-04 ( -23.75%)
   displ. norm   :     0.3742083 α      lambda       -0.1463510E-03
   maximum displ.:     0.1949497 α      in ANC's #4, #8, #2, ...

........................................................................
.............................. CYCLE   82 ..............................
........................................................................

 iter      E             dE          RMSdq      gap      omega  full diag
   1    -69.2252929 -0.692253E+02  0.700E-02    0.49       0.0  T
   2    -68.7853542  0.439939E+00  0.183E+00    0.43       1.0  T
   3    -69.2225903 -0.437236E+00  0.157E-01    0.49       1.0  T
   4    -69.2144283  0.816208E-02  0.294E-01    0.49       1.0  T
   5    -69.2250294 -0.106011E-01  0.891E-02    0.49       1.0  T
   6    -69.2257422 -0.712830E-03  0.301E-02    0.49       1.0  T
   7    -69.2231154  0.262685E-02  0.143E-01    0.48       1.0  T
   8    -69.2257483 -0.263299E-02  0.279E-02    0.49       1.0  T
   9    -69.2258123 -0.639256E-04  0.168E-02    0.49       1.1  T
  10    -69.2258351 -0.228663E-04  0.984E-03    0.49       1.8  T
  11    -69.2258458 -0.106535E-04  0.366E-03    0.49       4.9  T
  12    -69.2258469 -0.114172E-05  0.193E-03    0.49       9.3  T
  13    -69.2258472 -0.310161E-06  0.114E-03    0.49      15.7  T
  14    -69.2258474 -0.136607E-06  0.462E-04    0.49      38.9  T
  15    -69.2258474 -0.254877E-07  0.123E-04    0.49     146.4  T
  16    -69.2258474 -0.152976E-08  0.557E-05    0.49     322.3  T
     SCC iter.                  ...        0 min,  0.429 sec
     gradient                   ...        0 min,  0.041 sec
 * total energy  :   -68.8681511 Eh     change       -0.1107306E-03 Eh
   gradient norm :     0.0043453 Eh/α   predicted    -0.8342352E-04 ( -24.66%)
   displ. norm   :     0.3825388 α      lambda       -0.1675729E-03
   maximum displ.:     0.1874682 α      in ANC's #4, #8, #2, ...

........................................................................
.............................. CYCLE   83 ..............................
........................................................................

 iter      E             dE          RMSdq      gap      omega  full diag
   1    -69.2261444 -0.692261E+02  0.751E-02    0.49       0.0  T
   2    -68.6169244  0.609220E+00  0.213E+00    0.42       1.0  T
   3    -69.2234750 -0.606551E+00  0.157E-01    0.49       1.0  T
   4    -69.2066681  0.168068E-01  0.390E-01    0.49       1.0  T
   5    -69.2256046 -0.189364E-01  0.100E-01    0.49       1.0  T
   6    -69.2247814  0.823237E-03  0.123E-01    0.49       1.0  T
   7    -69.2262215 -0.144019E-02  0.673E-02    0.49       1.0  T
   8    -69.2266146 -0.393086E-03  0.359E-02    0.49       1.0  T
   9    -69.2267076 -0.929457E-04  0.237E-02    0.49       1.0  T
  10    -69.2267548 -0.472554E-04  0.135E-02    0.49       1.3  T
  11    -69.2267748 -0.199401E-04  0.501E-03    0.49       3.6  T
  12    -69.2267770 -0.224030E-05  0.252E-03    0.49       7.1  T
  13    -69.2267775 -0.521191E-06  0.149E-03    0.49      12.0  T
  14    -69.2267777 -0.193201E-06  0.810E-04    0.49      22.2  T
  15    -69.2267778 -0.767157E-07  0.233E-04    0.49      77.1  T
  16    -69.2267778 -0.571546E-08  0.859E-05    0.49     209.1  T
  17    -69.2267778 -0.893749E-09  0.877E-06    0.49    2047.1  T
     SCC iter.                  ...        0 min,  0.440 sec
     gradient                   ...        0 min,  0.030 sec
 * total energy  :   -68.8682762 Eh     change       -0.1251096E-03 Eh
   gradient norm :     0.0049872 Eh/α   predicted    -0.9605205E-04 ( -23.23%)
   displ. norm   :     0.3750162 α      lambda       -0.1778622E-03
   maximum displ.:     0.1908557 α      in ANC's #4, #8, #2, ...

........................................................................
.............................. CYCLE   84 ..............................
........................................................................

 iter      E             dE          RMSdq      gap      omega  full diag
   1    -69.2269054 -0.692269E+02  0.749E-02    0.49       0.0  T
   2    -68.5439391  0.682966E+00  0.224E+00    0.41       1.0  T
   3    -69.2250696 -0.681130E+00  0.137E-01    0.50       1.0  T
   4    -69.2126624  0.124072E-01  0.333E-01    0.47       1.0  T
   5    -69.2263266 -0.136642E-01  0.111E-01    0.50       1.0  T
   6    -69.2230657  0.326093E-02  0.184E-01    0.49       1.0  T
   7    -69.2272302 -0.416452E-02  0.526E-02    0.49       1.0  T
   8    -69.2274663 -0.236106E-03  0.292E-02    0.49       1.0  T
   9    -69.2275108 -0.444823E-04  0.220E-02    0.49       1.0  T
  10    -69.2275554 -0.445801E-04  0.114E-02    0.49       1.6  T
  11    -69.2275684 -0.129646E-04  0.511E-03    0.49       3.5  T
  12    -69.2275707 -0.237979E-05  0.271E-03    0.49       6.6  T
  13    -69.2275712 -0.459645E-06  0.190E-03    0.49       9.5  T
  14    -69.2275716 -0.407322E-06  0.578E-04    0.49      31.1  T
  15    -69.2275716 -0.270819E-07  0.331E-04    0.49      54.2  T
  16    -69.2275716 -0.116286E-07  0.133E-04    0.49     135.3  T
  17    -69.2275716 -0.205567E-08  0.305E-05    0.49     588.3  T
     SCC iter.                  ...        0 min,  0.460 sec
     gradient                   ...        0 min,  0.034 sec
 * total energy  :   -68.8684064 Eh     change       -0.1302248E-03 Eh
   gradient norm :     0.0058240 Eh/α   predicted    -0.1014407E-03 ( -22.10%)
   displ. norm   :     0.3445460 α      lambda       -0.2541633E-03
   maximum displ.:     0.1658676 α      in ANC's #5, #8, #4, ...

........................................................................
.............................. CYCLE   85 ..............................
........................................................................

 iter      E             dE          RMSdq      gap      omega  full diag
   1    -69.2308467 -0.692308E+02  0.936E-02    0.49       0.0  T
   2    -68.2499809  0.980866E+00  0.269E+00    0.39       1.0  T
   3    -69.2251621 -0.975181E+00  0.228E-01    0.50       1.0  T
   4    -69.2230100  0.215204E-02  0.263E-01    0.48       1.0  T
   5    -69.2299241 -0.691405E-02  0.134E-01    0.49       1.0  T
   6    -69.2278471  0.207699E-02  0.175E-01    0.49       1.0  T
   7    -69.2310805 -0.323338E-02  0.844E-02    0.48       1.0  T
   8    -69.2318622 -0.781695E-03  0.308E-02    0.49       1.0  T
   9    -69.2319145 -0.523027E-04  0.225E-02    0.49       1.0  T
  10    -69.2319713 -0.568195E-04  0.749E-03    0.49       2.4  T
  11    -69.2319780 -0.674981E-05  0.159E-03    0.49      11.3  T
  12    -69.2319780  0.125081E-07  0.157E-03    0.49      11.4  T
  13    -69.2319782 -0.185835E-06  0.101E-03    0.49      17.9  T
  14    -69.2319783 -0.999475E-07  0.410E-04    0.49      43.8  T
  15    -69.2319783 -0.185140E-07  0.128E-04    0.49     139.8  T
  16    -69.2319783 -0.770711E-09  0.970E-05    0.49     185.1  T
     SCC iter.                  ...        0 min,  0.438 sec
     gradient                   ...        0 min,  0.050 sec
 * total energy  :   -68.8684855 Eh     change       -0.7912654E-04 Eh
   gradient norm :     0.0072896 Eh/α   predicted    -0.1421713E-03 (  79.68%)
   displ. norm   :     0.6320914 α      lambda       -0.4143908E-03
   maximum displ.:     0.3599653 α      in ANC's #4, #8, #2, ...

........................................................................
.............................. CYCLE   86 ..............................
........................................................................

 iter      E             dE          RMSdq      gap      omega  full diag
   1    -69.2216570 -0.692217E+02  0.102E-01    0.48       0.0  T
   2    -67.9289122  0.129274E+01  0.307E+00    0.35       1.0  T
   3    -69.2170397 -0.128813E+01  0.208E-01    0.49       1.0  T
   4    -69.1998791  0.171605E-01  0.413E-01    0.46       1.0  T
   5    -69.2219579 -0.220788E-01  0.910E-02    0.48       1.0  T
   6    -69.2145967  0.736124E-02  0.249E-01    0.47       1.0  T
   7    -69.2215237 -0.692698E-02  0.105E-01    0.48       1.0  T
   8    -69.2226131 -0.108943E-02  0.420E-02    0.48       1.0  T
   9    -69.2227664 -0.153277E-03  0.212E-02    0.48       1.0  T
  10    -69.2228070 -0.406214E-04  0.112E-02    0.48       1.6  T
  11    -69.2228144 -0.740820E-05  0.784E-03    0.48       2.3  T
  12    -69.2228187 -0.428548E-05  0.535E-03    0.48       3.4  T
  13    -69.2228202 -0.151315E-05  0.402E-03    0.48       4.5  T
  14    -69.2228219 -0.170517E-05  0.158E-03    0.48      11.3  T
  15    -69.2228221 -0.200240E-06  0.936E-04    0.48      19.2  T
  16    -69.2228222 -0.939185E-07  0.356E-04    0.48      50.5  T
  17    -69.2228222 -0.149239E-07  0.607E-05    0.48     296.0  T
  18    -69.2228222 -0.402409E-09  0.208E-05    0.48     861.9  T
     SCC iter.                  ...        0 min,  0.517 sec
     gradient                   ...        0 min,  0.028 sec
 * total energy  :   -68.8684173 Eh     change        0.6822469E-04 Eh
   gradient norm :     0.0132677 Eh/α   predicted    -0.2899808E-03 (-525.04%)
   displ. norm   :     0.2894145 α      lambda       -0.5730660E-03
   maximum displ.:     0.1495879 α      in ANC's #4, #8, #2, ...

........................................................................
.............................. CYCLE   87 ..............................
........................................................................

 iter      E             dE          RMSdq      gap      omega  full diag
   1    -69.2271576 -0.692272E+02  0.741E-02    0.48       0.0  T
   2    -68.8199527  0.407205E+00  0.176E+00    0.46       1.0  T
   3    -69.2248217 -0.404869E+00  0.150E-01    0.48       1.0  T
   4    -69.2194512  0.537056E-02  0.251E-01    0.48       1.0  T
   5    -69.2263750 -0.692380E-02  0.105E-01    0.49       1.0  T
   6    -69.2272421 -0.867103E-03  0.645E-02    0.48       1.0  T
   7    -69.2273520 -0.109993E-03  0.608E-02    0.48       1.0  T
   8    -69.2276609 -0.308838E-03  0.313E-02    0.48       1.0  T
   9    -69.2277703 -0.109397E-03  0.105E-02    0.48       1.7  T
  10    -69.2277777 -0.737198E-05  0.639E-03    0.48       2.8  T
  11    -69.2277809 -0.326104E-05  0.408E-03    0.48       4.4  T
  12    -69.2277823 -0.134732E-05  0.242E-03    0.48       7.4  T
  13    -69.2277829 -0.594805E-06  0.111E-03    0.48      16.1  T
  14    -69.2277830 -0.157017E-06  0.148E-04    0.48     121.3  T
  15    -69.2277830 -0.258576E-08  0.463E-05    0.48     388.2  T
     SCC iter.                  ...        0 min,  0.395 sec
     gradient                   ...        0 min,  0.040 sec
 * total energy  :   -68.8686667 Eh     change       -0.2494286E-03 Eh
   gradient norm :     0.0053656 Eh/α   predicted    -0.3105367E-03 (  24.50%)
   displ. norm   :     0.0681975 α      lambda       -0.8086747E-04
   maximum displ.:     0.0374669 α      in ANC's #5, #14, #8, ...

........................................................................
.............................. CYCLE   88 ..............................
........................................................................

 iter      E             dE          RMSdq      gap      omega  full diag
   1    -69.2287581 -0.692288E+02  0.205E-02    0.48       0.0  T
   2    -69.1911900  0.375681E-01  0.529E-01    0.45       1.0  T
   3    -69.2285151 -0.373251E-01  0.499E-02    0.48       1.0  T
   4    -69.2282551  0.259980E-03  0.649E-02    0.48       1.0  T
   5    -69.2286981 -0.442979E-03  0.311E-02    0.48       1.0  T
   6    -69.2286892  0.891384E-05  0.303E-02    0.48       1.0  T
   7    -69.2287879 -0.987258E-04  0.139E-02    0.48       1.3  T
   8    -69.2288087 -0.207421E-04  0.538E-03    0.48       3.3  T
   9    -69.2288113 -0.263097E-05  0.282E-03    0.48       6.4  T
  10    -69.2288122 -0.879951E-06  0.591E-04    0.48      30.4  T
  11    -69.2288122 -0.301590E-07  0.291E-04    0.48      61.6  T
  12    -69.2288122 -0.999916E-08  0.103E-04    0.48     174.7  T
  13    -69.2288122 -0.180506E-09  0.863E-05    0.48     208.0  T
     SCC iter.                  ...        0 min,  0.348 sec
     gradient                   ...        0 min,  0.034 sec
 * total energy  :   -68.8687159 Eh     change       -0.4915124E-04 Eh
   gradient norm :     0.0032948 Eh/α   predicted    -0.4062400E-04 ( -17.35%)
   displ. norm   :     0.1994244 α      lambda       -0.8824558E-04
   maximum displ.:     0.1020297 α      in ANC's #5, #8, #13, ...

   *** GEOMETRY OPTIMIZATION CONVERGED AFTER 88 ITERATIONS ***

------------------------------------------------------------------------
 total energy gain   :       -65.2644938 Eh   -40954.0882 kcal/mol
 total RMSD          :         1.8750043 a0        0.9922 Å
 total power (kW/mol):     -1947.1807389 (step)-3568.0771 (real)
------------------------------------------------------------------------

 ANCopt (total)                0 d,  0 h,  0 min, 48.024 sec
 optimizer setup                ...        0 min,  0.000 sec (  0.000%)
 model hessian                  ...        0 min,  0.025 sec (  0.051%)
 ANC generation                 ...        0 min,  0.019 sec (  0.040%)
 coordinate transformation      ...        0 min,  0.004 sec (  0.008%)
 single point calculation       ...        0 min, 47.824 sec ( 99.584%)
 optimization log               ...        0 min,  0.034 sec (  0.070%)
 hessian update                 ...        0 min,  0.040 sec (  0.084%)
 rational function              ...        0 min,  0.028 sec (  0.059%)

================
 final structure:
================
31
 xtb: 6.6.1 (unknown)
Fe           0.77231164497714        1.34135154787102        0.48424730490328
Fe           1.08448322405661       -0.57768918092866       -1.37124097753971
Fe          -1.06226790671570        0.69867677052465       -1.05926807331628
Fe          -0.51581025366206       -1.35187776778930        0.68757904520737
S           -1.22055009413325        0.78924464157336        1.05500382056959
S            1.56462240022539       -0.70861252316180        0.72534887958243
S            0.89119898984244        1.57177386960143       -1.62070107143461
S           -0.87538619226210       -1.35809763068097       -1.52201780536203
S            1.93041482975732        2.67887440633985        1.72781695563000
C            3.59434488108164        1.96828248808832        1.93169456122900
H            4.07402683566034        2.46952027878001        2.77485385926250
H            4.20040684616676        2.14057700672492        1.03835437355519
H            3.56273805448363        0.89563718026065        2.13188112915694
S            2.87237044590420       -1.23840419386439       -2.45452009261471
C            3.81752747061888       -2.41354350665825       -1.43384491865733
H            4.76891498587683       -1.95945656331766       -1.14565084143006
H            4.02979233069434       -3.30581004103659       -2.02831366230635
H            3.28684726156382       -2.71402935612485       -0.52842856111758
S           -2.64759213266149        1.92166551586265       -1.98761412062536
C           -4.24179197045567        1.61542905534646       -1.16484419514419
H           -4.60414145054872        0.59992226011234       -1.34746731500973
H           -4.97045984803428        2.31795893950696       -1.57509349293368
H           -4.17814745887818        1.77773647342465       -0.08655268107357
S           -0.26933928060792       -2.02697348188085        2.85165589265177
C           -3.75792948905660       -1.31773590288262        1.33541629940729
H           -4.53216791421918       -1.79207576086288        1.93814759949939
H           -4.02212310938281       -1.39485185076571        0.28245113516219
H           -3.68474478742596       -0.26902504523059        1.62275774488486
C           -2.42684276118948       -2.03134703399858        1.60111298644250
O           -2.05811938028303       -1.93985173887040        2.82188229080636
O           -1.98073864137233       -2.82459042585274        0.78415283067305

 Bond Distances (Angstroems)
 ---------------------------
Fe1-Fe2=2.6876       Fe1-Fe3=2.4822       Fe1-Fe4=2.9923       Fe1-S5=2.1452        Fe1-S6=2.2109        Fe1-S7=2.1209        
Fe1-S9=2.1626        Fe2-Fe1=2.6876       Fe2-Fe3=2.5169       Fe2-Fe4=2.7201       Fe2-S6=2.1548        Fe2-S7=2.1725        
Fe2-S8=2.1149        Fe2-S14=2.1924       Fe3-Fe1=2.4822       Fe3-Fe2=2.5169       Fe3-Fe4=2.7486       Fe3-S5=2.1221        
Fe3-S7=2.2121        Fe3-S8=2.1165        Fe3-S19=2.2070       Fe4-Fe1=2.9923       Fe4-Fe2=2.7201       Fe4-Fe3=2.7486       
Fe4-S5=2.2839        Fe4-S6=2.1779        Fe4-S8=2.2387        Fe4-S24=2.2803       Fe4-C29=2.2245       Fe4-O31=2.0795       
S5-Fe1=2.1452        S5-Fe3=2.1221        S5-Fe4=2.2839        S6-Fe1=2.2109        S6-Fe2=2.1548        S6-Fe4=2.1779        
S7-Fe1=2.1209        S7-Fe2=2.1725        S7-Fe3=2.2121        S8-Fe2=2.1149        S8-Fe3=2.1165        S8-Fe4=2.2387        
S9-Fe1=2.1626        S9-C10=1.8208        C10-S9=1.8208        C10-H11=1.0919       C10-H12=1.0932       C10-H13=1.0916       
H11-C10=1.0919       H12-C10=1.0932       H13-C10=1.0916       S14-Fe2=2.1924       S14-C15=1.8210       C15-S14=1.8210       
C15-H16=1.0929       C15-H17=1.0930       C15-H18=1.0916       H16-C15=1.0929       H17-C15=1.0930       H18-C15=1.0916       
S19-Fe3=2.2070       S19-C20=1.8199       C20-S19=1.8199       C20-H21=1.0936       C20-H22=1.0922       C20-H23=1.0923       
H21-C20=1.0936       H22-C20=1.0922       H23-C20=1.0923       S24-Fe4=2.2803       S24-O30=1.7911       C25-H26=1.0898       
C25-H27=1.0883       C25-H28=1.0898       C25-C29=1.5335       H26-C25=1.0898       H27-C25=1.0883       H28-C25=1.0898       
C29-Fe4=2.2245       C29-C25=1.5335       C29-O30=1.2785       C29-O31=1.2230       O30-S24=1.7911       O30-C29=1.2785       
O31-Fe4=2.0795       O31-C29=1.2230       
 C  H  Rav=1.0917 sigma=0.0015  Rmin=1.0883  Rmax=1.0936    12
 C  C  Rav=1.5335 sigma=0.0000  Rmin=1.5335  Rmax=1.5335     1
 O  C  Rav=1.2507 sigma=0.0278  Rmin=1.2230  Rmax=1.2785     2
 S  C  Rav=1.8206 sigma=0.0005  Rmin=1.8199  Rmax=1.8210     3
 S  O  Rav=1.7911 sigma=0.0000  Rmin=1.7911  Rmax=1.7911     1
 Fe C  Rav=2.2245 sigma=0.0000  Rmin=2.2245  Rmax=2.2245     1
 Fe O  Rav=2.0795 sigma=0.0000  Rmin=2.0795  Rmax=2.0795     1
 Fe S  Rav=2.1820 sigma=0.0527  Rmin=2.1149  Rmax=2.2839    16
 Fe Fe Rav=2.6913 sigma=0.1678  Rmin=2.4822  Rmax=2.9923     6

 selected bond angles (degree)
 --------------------
Fe3-Fe1-Fe2= 58.11             Fe4-Fe1-Fe2= 56.92             Fe4-Fe1-Fe3= 59.41             S5-Fe1-Fe2= 96.19              
S5-Fe1-Fe3= 54.00              S5-Fe1-Fe4= 49.49              S6-Fe1-Fe2= 51.07              S6-Fe1-Fe3= 95.31              
S6-Fe1-Fe4= 46.56              S6-Fe1-S5= 93.74               S7-Fe1-Fe2= 52.11              S7-Fe1-Fe3= 56.80              
S7-Fe1-Fe4=100.92              S7-Fe1-S5=110.13               S7-Fe1-S6=100.89               S9-Fe1-Fe2=140.94              
S9-Fe1-Fe3=156.00              S9-Fe1-Fe4=138.43              S9-Fe1-S5=120.24               S9-Fe1-S6=108.59               
S9-Fe1-S7=118.26               Fe3-Fe2-Fe1= 56.86             Fe4-Fe2-Fe1= 67.19             Fe4-Fe2-Fe3= 63.17             
S6-Fe2-Fe1= 52.95              S6-Fe2-Fe3= 95.75              S6-Fe2-Fe4= 51.49              S7-Fe2-Fe1= 50.39              
S7-Fe2-Fe3= 55.71              S7-Fe2-Fe4=108.43              S7-Fe2-S6=101.05               S8-Fe2-Fe1=101.83              
S8-Fe2-Fe3= 53.53              S8-Fe2-Fe4= 53.40              S8-Fe2-S6=104.68               S8-Fe2-S7=105.93               
S14-Fe2-Fe1=130.62             S14-Fe2-Fe3=155.45             S14-Fe2-Fe4=140.17             S14-Fe2-S6=106.30              
S14-Fe2-S7=108.30              S14-Fe2-S8=127.54              Fe2-Fe3-Fe1= 65.04             Fe4-Fe3-Fe1= 69.57             
Fe4-Fe3-Fe2= 62.02             S5-Fe3-Fe1= 54.87              S5-Fe3-Fe2=102.05              S5-Fe3-Fe4= 54.09              
S7-Fe3-Fe1= 53.34              S7-Fe3-Fe2= 54.23              S7-Fe3-Fe4=106.27              S7-Fe3-S5=107.57               
S8-Fe3-Fe1=108.80              S8-Fe3-Fe2= 53.47              S8-Fe3-Fe4= 52.87              S8-Fe3-S5=105.42               
S8-Fe3-S7=104.48               S19-Fe3-Fe1=130.47             S19-Fe3-Fe2=147.30             S19-Fe3-Fe4=145.44             
S19-Fe3-S5=109.99              S19-Fe3-S7=107.99              S19-Fe3-S8=120.66              Fe2-Fe4-Fe1= 55.89             
Fe3-Fe4-Fe1= 51.02             Fe3-Fe4-Fe2= 54.80             S5-Fe4-Fe1= 45.57              S5-Fe4-Fe2= 92.09              
S5-Fe4-Fe3= 48.81              S6-Fe4-Fe1= 47.48              S6-Fe4-Fe2= 50.73              S6-Fe4-Fe3= 88.89              
S6-Fe4-S5= 90.86               S8-Fe4-Fe1= 90.26              S8-Fe4-Fe2= 49.32              S8-Fe4-Fe3= 48.92              
S8-Fe4-S5= 96.42               S8-Fe4-S6= 99.87               S24-Fe4-Fe1=106.52             S24-Fe4-Fe2=137.64             
S24-Fe4-Fe3=147.73             S24-Fe4-S5= 99.10              S24-Fe4-S6= 88.15              S24-Fe4-S8=162.41              
C29-Fe4-Fe1=132.27             C29-Fe4-Fe2=154.58             C29-Fe4-Fe3=108.55             C29-Fe4-S5= 87.43              
C29-Fe4-S6=154.65              C29-Fe4-S8=105.46              C29-Fe4-S24= 67.21             O31-Fe4-Fe1=160.71             
O31-Fe4-Fe2=130.63             O31-Fe4-Fe3=114.70             O31-Fe4-S5=116.05              O31-Fe4-S6=151.80              
O31-Fe4-S8= 86.03              O31-Fe4-S24= 79.77             O31-Fe4-C29= 32.80             Fe3-S5-Fe1= 71.13              
Fe4-S5-Fe1= 84.94              Fe4-S5-Fe3= 77.10              Fe2-S6-Fe1= 75.98              Fe4-S6-Fe1= 85.97              
Fe4-S6-Fe2= 77.77              Fe2-S7-Fe1= 77.50              Fe3-S7-Fe1= 69.86              Fe3-S7-Fe2= 70.06              
Fe3-S8-Fe2= 73.00              Fe4-S8-Fe2= 77.28              Fe4-S8-Fe3= 78.21              C10-S9-Fe1=108.20              
H11-C10-S9=107.99              H12-C10-S9=110.71              H12-C10-H11=108.37             H13-C10-S9=112.18              
H13-C10-H11=108.79             H13-C10-H12=108.71             

 selected dihedral angles (degree)
 ---------------------------------
Fe3-Fe2-Fe1-Fe4= 71.94        Fe3-Fe2-Fe1-S5= 40.19         Fe3-Fe2-Fe1-S6=130.01         Fe3-Fe2-Fe1-S7=289.45         
Fe3-Fe2-Fe1-S9=199.84         Fe4-Fe2-Fe1-Fe3=288.06        Fe4-Fe2-Fe1-S5=328.26         Fe4-Fe2-Fe1-S6= 58.07         
Fe4-Fe2-Fe1-S7=217.52         Fe4-Fe2-Fe1-S9=127.90         S6-Fe2-Fe1-Fe3=229.99         S6-Fe2-Fe1-Fe4=301.93         
S6-Fe2-Fe1-S5=270.18          S6-Fe2-Fe1-S7=159.44          S6-Fe2-Fe1-S9= 69.83          S7-Fe2-Fe1-Fe3= 70.55         
S7-Fe2-Fe1-Fe4=142.48         S7-Fe2-Fe1-S5=110.74          S7-Fe2-Fe1-S6=200.56          S7-Fe2-Fe1-S9=270.38          
S8-Fe2-Fe1-Fe3=329.56         S8-Fe2-Fe1-Fe4= 41.50         S8-Fe2-Fe1-S5=  9.76          S8-Fe2-Fe1-S6= 99.57          
S8-Fe2-Fe1-S7=259.01          S8-Fe2-Fe1-S9=169.40          S14-Fe2-Fe1-Fe3=150.60        S14-Fe2-Fe1-Fe4=222.53        
S14-Fe2-Fe1-S5=190.79         S14-Fe2-Fe1-S6=280.61         S14-Fe2-Fe1-S7= 80.05         S14-Fe2-Fe1-S9=350.43         
Fe2-Fe3-Fe1-Fe4=292.26        Fe2-Fe3-Fe1-S5=232.48         Fe2-Fe3-Fe1-S6=323.25         Fe2-Fe3-Fe1-S7= 62.79         
Fe2-Fe3-Fe1-S9=148.28         Fe4-Fe3-Fe1-Fe2= 67.74        Fe4-Fe3-Fe1-S5=300.21         Fe4-Fe3-Fe1-S6= 30.99         
Fe4-Fe3-Fe1-S7=130.53         Fe4-Fe3-Fe1-S9=216.02         S5-Fe3-Fe1-Fe2=127.52         S5-Fe3-Fe1-Fe4= 59.79         
S5-Fe3-Fe1-S6= 90.77          S5-Fe3-Fe1-S7=190.32          S5-Fe3-Fe1-S9=275.81          S7-Fe3-Fe1-Fe2=297.21         
S7-Fe3-Fe1-Fe4=229.47         S7-Fe3-Fe1-S5=169.68          S7-Fe3-Fe1-S6=260.45          S7-Fe3-Fe1-S9= 85.49          
S8-Fe3-Fe1-Fe2= 31.56         S8-Fe3-Fe1-Fe4=323.82         S8-Fe3-Fe1-S5=264.04          S8-Fe3-Fe1-S6=354.81          
S8-Fe3-Fe1-S7= 94.35          S8-Fe3-Fe1-S9=179.85          S19-Fe3-Fe1-Fe2=214.61        S19-Fe3-Fe1-Fe4=146.87        
S19-Fe3-Fe1-S5= 87.09         S19-Fe3-Fe1-S6=177.86         S19-Fe3-Fe1-S7=277.40         S19-Fe3-Fe1-S9=  2.89         
Fe1-Fe3-Fe2-Fe4= 79.13        Fe1-Fe3-Fe2-S6= 37.91         Fe1-Fe3-Fe2-S7=298.45         Fe1-Fe3-Fe2-S8=141.93         
Fe1-Fe3-Fe2-S14=243.77        Fe4-Fe3-Fe2-Fe1=280.87        Fe4-Fe3-Fe2-S6=318.78         Fe4-Fe3-Fe2-S7=219.32         
Fe4-Fe3-Fe2-S8= 62.80         Fe4-Fe3-Fe2-S14=164.65        S5-Fe3-Fe2-Fe1=318.45         S5-Fe3-Fe2-Fe4= 37.58         
S5-Fe3-Fe2-S6=356.36          S5-Fe3-Fe2-S7=256.90          S5-Fe3-Fe2-S8=100.38          S5-Fe3-Fe2-S14=202.23         
S7-Fe3-Fe2-Fe1= 61.55         S7-Fe3-Fe2-Fe4=140.68         S7-Fe3-Fe2-S6= 99.46          S7-Fe3-Fe2-S8=203.48          
S7-Fe3-Fe2-S14=305.33         S8-Fe3-Fe2-Fe1=218.07         S8-Fe3-Fe2-Fe4=297.20         S8-Fe3-Fe2-S6=255.98          
S8-Fe3-Fe2-S7=156.52          S8-Fe3-Fe2-S14=101.84         S19-Fe3-Fe2-Fe1=126.87        S19-Fe3-Fe2-Fe4=206.00        
S19-Fe3-Fe2-S6=164.78         S19-Fe3-Fe2-S7= 65.32         S19-Fe3-Fe2-S8=268.80         S19-Fe3-Fe2-S14= 10.65        
Fe2-Fe4-Fe1-Fe3= 69.67        Fe2-Fe4-Fe1-S5=136.53         Fe2-Fe4-Fe1-S6=294.58         Fe2-Fe4-Fe1-S7= 29.30         
Fe2-Fe4-Fe1-S9=228.54         Fe3-Fe4-Fe1-Fe2=290.33        Fe3-Fe4-Fe1-S5= 66.86         Fe3-Fe4-Fe1-S6=224.91         
Fe3-Fe4-Fe1-S7=319.63         Fe3-Fe4-Fe1-S9=158.87         S5-Fe4-Fe1-Fe2=223.47         S5-Fe4-Fe1-Fe3=293.14         
S5-Fe4-Fe1-S6=158.05          S5-Fe4-Fe1-S7=252.77          S5-Fe4-Fe1-S9= 92.01          S6-Fe4-Fe1-Fe2= 65.42         
S6-Fe4-Fe1-Fe3=135.09         S6-Fe4-Fe1-S5=201.95          S6-Fe4-Fe1-S7= 94.72          S6-Fe4-Fe1-S9=293.96          
S8-Fe4-Fe1-Fe2=322.22         S8-Fe4-Fe1-Fe3= 31.89         S8-Fe4-Fe1-S5= 98.75          S8-Fe4-Fe1-S6=256.80          
S8-Fe4-Fe1-S7=351.52          S8-Fe4-Fe1-S9=190.76          S24-Fe4-Fe1-Fe2=136.89        S24-Fe4-Fe1-Fe3=206.56        
S24-Fe4-Fe1-S5=273.42         S24-Fe4-Fe1-S6= 71.48         S24-Fe4-Fe1-S7=166.20         S24-Fe4-Fe1-S9=  5.43         
C29-Fe4-Fe1-Fe2=210.85        C29-Fe4-Fe1-Fe3=280.52        C29-Fe4-Fe1-S5=347.38         C29-Fe4-Fe1-S6=145.44         
C29-Fe4-Fe1-S7=240.16         C29-Fe4-Fe1-S9= 79.39         O31-Fe4-Fe1-Fe2=243.56        O31-Fe4-Fe1-Fe3=313.23        
O31-Fe4-Fe1-S5= 20.09         O31-Fe4-Fe1-S6=178.14         O31-Fe4-Fe1-S7=272.86         O31-Fe4-Fe1-S9=112.10         
Fe1-Fe4-Fe2-Fe3=296.87        Fe1-Fe4-Fe2-S6= 59.96         Fe1-Fe4-Fe2-S7=330.36         Fe1-Fe4-Fe2-S8=233.88         
Fe1-Fe4-Fe2-S14=126.76        Fe3-Fe4-Fe2-Fe1= 63.13        Fe3-Fe4-Fe2-S6=123.09         Fe3-Fe4-Fe2-S7= 33.49         
Fe3-Fe4-Fe2-S8=297.01         Fe3-Fe4-Fe2-S14=189.89        S5-Fe4-Fe2-Fe1= 29.45         S5-Fe4-Fe2-Fe3=326.32         
S5-Fe4-Fe2-S6= 89.41          S5-Fe4-Fe2-S7=359.81          S5-Fe4-Fe2-S8=263.33          S5-Fe4-Fe2-S14=156.21         
S6-Fe4-Fe2-Fe1=300.04         S6-Fe4-Fe2-Fe3=236.91         S6-Fe4-Fe2-S7=270.40          S6-Fe4-Fe2-S8=173.92          
S6-Fe4-Fe2-S14= 66.80         S8-Fe4-Fe2-Fe1=126.12         S8-Fe4-Fe2-Fe3= 62.99         S8-Fe4-Fe2-S6=186.08          
S8-Fe4-Fe2-S7= 96.48          S8-Fe4-Fe2-S14=252.88         S24-Fe4-Fe2-Fe1=283.48        S24-Fe4-Fe2-Fe3=220.35        
S24-Fe4-Fe2-S6=343.44         S24-Fe4-Fe2-S7=253.84         S24-Fe4-Fe2-S8=157.36         S24-Fe4-Fe2-S14= 50.24        
C29-Fe4-Fe2-Fe1=117.86        C29-Fe4-Fe2-Fe3= 54.73        C29-Fe4-Fe2-S6=177.82         C29-Fe4-Fe2-S7= 88.22         
C29-Fe4-Fe2-S8=351.74         C29-Fe4-Fe2-S14=244.62        O31-Fe4-Fe2-Fe1=157.06        O31-Fe4-Fe2-Fe3= 93.93        
O31-Fe4-Fe2-S6=217.02         O31-Fe4-Fe2-S7=127.42         O31-Fe4-Fe2-S8= 30.94         O31-Fe4-Fe2-S14=283.82        
Fe1-Fe4-Fe3-Fe2= 71.81        Fe1-Fe4-Fe3-S5=299.24         Fe1-Fe4-Fe3-S7= 39.43         Fe1-Fe4-Fe3-S8=135.51         
Fe1-Fe4-Fe3-S19=227.14        Fe2-Fe4-Fe3-Fe1=288.19        Fe2-Fe4-Fe3-S5=227.43         Fe2-Fe4-Fe3-S7=327.62         
Fe2-Fe4-Fe3-S8= 63.69         Fe2-Fe4-Fe3-S19=155.32        S5-Fe4-Fe3-Fe1= 60.76         S5-Fe4-Fe3-Fe2=132.57         
S5-Fe4-Fe3-S7=100.19          S5-Fe4-Fe3-S8=196.26          S5-Fe4-Fe3-S19=287.90         S6-Fe4-Fe3-Fe1=328.64         
S6-Fe4-Fe3-Fe2= 40.45         S6-Fe4-Fe3-S5=267.88          S6-Fe4-Fe3-S7=  8.07          S6-Fe4-Fe3-S8=104.14          
S6-Fe4-Fe3-S19=195.77         S8-Fe4-Fe3-Fe1=224.49         S8-Fe4-Fe3-Fe2=296.31         S8-Fe4-Fe3-S5=163.74          
S8-Fe4-Fe3-S7=263.93          S8-Fe4-Fe3-S19= 91.63         S24-Fe4-Fe3-Fe1= 53.40        S24-Fe4-Fe3-Fe2=125.22        
S24-Fe4-Fe3-S5=352.65         S24-Fe4-Fe3-S7= 92.84         S24-Fe4-Fe3-S8=188.91         S24-Fe4-Fe3-S19=280.54        
C29-Fe4-Fe3-Fe1=129.88        C29-Fe4-Fe3-Fe2=201.69        C29-Fe4-Fe3-S5= 69.12         C29-Fe4-Fe3-S7=169.31         
C29-Fe4-Fe3-S8=265.39         C29-Fe4-Fe3-S19=357.02        O31-Fe4-Fe3-Fe1=164.63        O31-Fe4-Fe3-Fe2=236.45        
O31-Fe4-Fe3-S5=103.88         O31-Fe4-Fe3-S7=204.07         O31-Fe4-Fe3-S8=300.14         O31-Fe4-Fe3-S19= 31.77        
Fe3-S5-Fe1-Fe2=317.37         Fe3-S5-Fe1-Fe4=281.93         Fe3-S5-Fe1-S6=266.15          Fe3-S5-Fe1-S7=  9.18          
Fe3-S5-Fe1-S9=152.07          Fe4-S5-Fe1-Fe2= 35.44         Fe4-S5-Fe1-Fe3= 78.07         Fe4-S5-Fe1-S6=344.22          
Fe4-S5-Fe1-S7= 87.26          Fe4-S5-Fe1-S9=230.14          Fe1-S5-Fe3-Fe2= 47.32         Fe1-S5-Fe3-Fe4= 89.01         
Fe1-S5-Fe3-S7=351.33          Fe1-S5-Fe3-S8=102.40          Fe1-S5-Fe3-S19=233.95         Fe4-S5-Fe3-Fe1=270.99         
Fe4-S5-Fe3-Fe2=318.32         Fe4-S5-Fe3-S7=262.33          Fe4-S5-Fe3-S8= 13.39          Fe4-S5-Fe3-S19=144.94         
Fe1-S5-Fe4-Fe2=325.25         Fe1-S5-Fe4-Fe3=288.23         Fe1-S5-Fe4-S6= 15.99          Fe1-S5-Fe4-S8=275.96          
Fe1-S5-Fe4-S24=104.26         Fe1-S5-Fe4-C29=170.69         Fe1-S5-Fe4-O31=187.26         Fe3-S5-Fe4-Fe1= 71.77         
Fe3-S5-Fe4-Fe2= 37.03         Fe3-S5-Fe4-S6= 87.77          Fe3-S5-Fe4-S8=347.74          Fe3-S5-Fe4-S24=176.03         
Fe3-S5-Fe4-C29=242.46         Fe3-S5-Fe4-O31=259.03         Fe2-S6-Fe1-Fe3= 40.78         Fe2-S6-Fe1-Fe4= 78.39         
Fe2-S6-Fe1-S5= 94.94          Fe2-S6-Fe1-S7=343.61          Fe2-S6-Fe1-S9=218.62          Fe4-S6-Fe1-Fe2=281.61         
Fe4-S6-Fe1-Fe3=322.38         Fe4-S6-Fe1-S5= 16.54          Fe4-S6-Fe1-S7=265.21          Fe4-S6-Fe1-S9=140.22          
Fe1-S6-Fe2-Fe3=319.87         Fe1-S6-Fe2-Fe4=271.15         Fe1-S6-Fe2-S7= 16.00          Fe1-S6-Fe2-S8=266.11          
Fe1-S6-Fe2-S14=128.98         Fe4-S6-Fe2-Fe1= 88.85         Fe4-S6-Fe2-Fe3= 48.72         Fe4-S6-Fe2-S7=104.85          
Fe4-S6-Fe2-S8=354.96          Fe4-S6-Fe2-S14=217.83         Fe1-S6-Fe4-Fe2= 76.51         Fe1-S6-Fe4-Fe3= 33.29         
Fe1-S6-Fe4-S5=344.52          Fe1-S6-Fe4-S8= 81.19          Fe1-S6-Fe4-S24=245.44         Fe1-S6-Fe4-C29=258.69         
Fe1-S6-Fe4-O31=181.30         Fe2-S6-Fe4-Fe1=283.49         Fe2-S6-Fe4-Fe3=316.78         Fe2-S6-Fe4-S5=268.01          
Fe2-S6-Fe4-S8=  4.68          Fe2-S6-Fe4-S24=168.92         Fe2-S6-Fe4-C29=182.18         Fe2-S6-Fe4-O31=104.79         
Fe2-S7-Fe1-Fe3=286.91         Fe2-S7-Fe1-Fe4=328.69         Fe2-S7-Fe1-S5=278.03          Fe2-S7-Fe1-S6= 16.15          
Fe2-S7-Fe1-S9=134.32          Fe3-S7-Fe1-Fe2= 73.09         Fe3-S7-Fe1-Fe4= 41.78         Fe3-S7-Fe1-S5=351.12          
Fe3-S7-Fe1-S6= 89.25          Fe3-S7-Fe1-S9=207.41          Fe1-S7-Fe2-Fe3= 72.86         Fe1-S7-Fe2-Fe4= 36.28         
Fe1-S7-Fe2-S6=343.41          Fe1-S7-Fe2-S8= 92.33          Fe1-S7-Fe2-S14=231.95         Fe3-S7-Fe2-Fe1=287.14         
Fe3-S7-Fe2-Fe4=323.42         Fe3-S7-Fe2-S6=270.55          Fe3-S7-Fe2-S8= 19.47          Fe3-S7-Fe2-S14=159.09         
Fe1-S7-Fe3-Fe2=276.44         Fe1-S7-Fe3-Fe4=312.10         Fe1-S7-Fe3-S5=  8.84          Fe1-S7-Fe3-S8=257.13          
Fe1-S7-Fe3-S19=127.51         Fe2-S7-Fe3-Fe1= 83.56         Fe2-S7-Fe3-Fe4= 35.66         Fe2-S7-Fe3-S5= 92.39          
Fe2-S7-Fe3-S8=340.69          Fe2-S7-Fe3-S19=211.07         Fe3-S8-Fe2-Fe1= 31.84         Fe3-S8-Fe2-Fe4= 81.37         
Fe3-S8-Fe2-S6= 86.29          Fe3-S8-Fe2-S7=339.98          Fe3-S8-Fe2-S14=210.85         Fe4-S8-Fe2-Fe1=310.47         
Fe4-S8-Fe2-Fe3=278.63         Fe4-S8-Fe2-S6=  4.91          Fe4-S8-Fe2-S7=258.60          Fe4-S8-Fe2-S14=129.47         
Fe2-S8-Fe3-Fe1=323.80         Fe2-S8-Fe3-Fe4=279.87         Fe2-S8-Fe3-S5=266.26          Fe2-S8-Fe3-S7= 19.51          
Fe2-S8-Fe3-S19=141.11         Fe4-S8-Fe3-Fe1= 43.93         Fe4-S8-Fe3-Fe2= 80.13         Fe4-S8-Fe3-S5=346.39          
Fe4-S8-Fe3-S7= 99.64          Fe4-S8-Fe3-S19=221.24         Fe2-S8-Fe4-Fe1= 41.97         Fe2-S8-Fe4-Fe3= 74.99         
Fe2-S8-Fe4-S5= 87.23          Fe2-S8-Fe4-S6=355.23          Fe2-S8-Fe4-S24=239.10         Fe2-S8-Fe4-C29=176.33         
Fe2-S8-Fe4-O31=203.02         Fe3-S8-Fe4-Fe1=326.99         Fe3-S8-Fe4-Fe2=285.01         Fe3-S8-Fe4-S5= 12.24          
Fe3-S8-Fe4-S6=280.24          Fe3-S8-Fe4-S24=164.12         Fe3-S8-Fe4-C29=101.35         Fe3-S8-Fe4-O31=128.04         
C10-S9-Fe1-Fe2=336.76         C10-S9-Fe1-Fe3=201.86         C10-S9-Fe1-Fe4= 71.58         C10-S9-Fe1-S5=133.16          
C10-S9-Fe1-S6= 27.15          C10-S9-Fe1-S7=273.13          H11-C10-S9-Fe1=196.40         H12-C10-S9-Fe1= 77.92         
H13-C10-S9-Fe1=316.28         

 CMA Distance (Angstroems)
 ---------------------------
R(CMA):  1.8932
           -------------------------------------------------
          |                Final Singlepoint                |
           -------------------------------------------------

          ...................................................
          :                      SETUP                      :
          :.................................................:
          :  # basis functions                 172          :
          :  # atomic orbitals                 160          :
          :  # shells                           74          :
          :  # electrons                       126          :
          :  # halogen bonds                     0          :
          :  max. iterations                   250          :
          :  Hamiltonian                  GFN1-xTB          :
          :  restarted?                      false          :
          :  GBSA solvation                   true          :
          :  PC potential                    false          :
          :  electronic temp.          300.0000000     K    :
          :  accuracy                    1.0000000          :
          :  -> integral cutoff          0.2500000E+02      :
          :  -> integral neglect         0.1000000E-07      :
          :  -> SCF convergence          0.1000000E-05 Eh   :
          :  -> wf. convergence          0.2000000E-04 e    :
          :  Broyden damping             0.4000000          :
          ...................................................

 iter      E             dE          RMSdq      gap      omega  full diag
   1    -69.2288122 -0.692288E+02  0.298E-05    0.48       0.0  T
   2    -69.2288122  0.706538E-07  0.722E-04    0.48      24.9  T
   3    -69.2288122 -0.702270E-07  0.647E-05    0.48     277.6  T
   4    -69.2288122 -0.329976E-09  0.400E-05    0.48     449.0  T

   *** convergence criteria satisfied after 4 iterations ***

         #    Occupation            Energy/Eh            Energy/eV
      -------------------------------------------------------------
         1        2.0000           -0.7859410             -21.3865
       ...           ...                  ...                  ...
        57        2.0000           -0.2749874              -7.4828
        58        2.0000           -0.2724897              -7.4148
        59        2.0000           -0.2717450              -7.3946
        60        2.0000           -0.2691886              -7.3250
        61        2.0000           -0.2674312              -7.2772
        62        1.9999           -0.2636460              -7.1742
        63        1.9998           -0.2627115              -7.1487 (HOMO)
        64        0.0002           -0.2449349              -6.6650 (LUMO)
        65        0.0000           -0.2420653              -6.5869
        66        0.0000           -0.2379507              -6.4750
        67                         -0.2363115              -6.4304
        68                         -0.2297488              -6.2518
       ...                                ...                  ...
       160                         13.2367544             360.1904
      -------------------------------------------------------------
                  HL-Gap            0.0177766 Eh            0.4837 eV
             Fermi-level           -0.2536924 Eh           -6.9033 eV

 SCC (total)                   0 d,  0 h,  0 min,  0.176 sec
 SCC setup                      ...        0 min,  0.002 sec (  1.276%)
 Dispersion                     ...        0 min,  0.000 sec (  0.099%)
 classical contributions        ...        0 min,  0.000 sec (  0.201%)
 integral evaluation            ...        0 min,  0.016 sec (  9.045%)
 iterations                     ...        0 min,  0.115 sec ( 65.390%)
 molecular gradient             ...        0 min,  0.030 sec ( 17.133%)
 printout                       ...        0 min,  0.012 sec (  6.822%)

         :::::::::::::::::::::::::::::::::::::::::::::::::::::
         ::                     SUMMARY                     ::
         :::::::::::::::::::::::::::::::::::::::::::::::::::::
         :: total energy             -68.868715889219 Eh    ::
         :: total w/o Gsasa/hb       -68.865317522988 Eh    ::
         :: gradient norm              0.003295421676 Eh/a0 ::
         :: HOMO-LUMO gap              0.483727007345 eV    ::
         ::.................................................::
         :: SCC energy               -69.228812226283 Eh    ::
         :: -> electrostatic           0.371805061778 Eh    ::
         :: -> Gsolv                  -0.172049934878 Eh    ::
         ::    -> Gelec               -0.168651568647 Eh    ::
         ::    -> Gsasa               -0.006783094666 Eh    ::
         ::    -> Ghb                 -0.000860878235 Eh    ::
         ::    -> Gshift               0.004245606671 Eh    ::
         :: repulsion energy           0.385534009564 Eh    ::
         :: dispersion energy         -0.032083781643 Eh    ::
         :: halogen bond corr.         0.000000000000 Eh    ::
         :: add. restraining           0.006646109144 Eh    ::
         :: total charge              -2.000000000000 e     ::
         :::::::::::::::::::::::::::::::::::::::::::::::::::::

           -------------------------------------------------
          |                Property Printout                |
           -------------------------------------------------

    * Orbital Energies and Occupations

         #    Occupation            Energy/Eh            Energy/eV
      -------------------------------------------------------------
         1        2.0000           -0.7859410             -21.3865
       ...           ...                  ...                  ...
        51        2.0000           -0.3106335              -8.4528
        52        2.0000           -0.3094668              -8.4210
        53        2.0000           -0.2844491              -7.7403
        54        2.0000           -0.2820795              -7.6758
        55        2.0000           -0.2776773              -7.5560
        56        2.0000           -0.2755621              -7.4984
        57        2.0000           -0.2749874              -7.4828
        58        2.0000           -0.2724897              -7.4148
        59        2.0000           -0.2717450              -7.3946
        60        2.0000           -0.2691886              -7.3250
        61        2.0000           -0.2674312              -7.2772
        62        1.9999           -0.2636460              -7.1742
        63        1.9998           -0.2627115              -7.1487 (HOMO)
        64        0.0002           -0.2449349              -6.6650 (LUMO)
        65        0.0000           -0.2420653              -6.5869
        66        0.0000           -0.2379507              -6.4750
        67                         -0.2363115              -6.4304
        68                         -0.2297488              -6.2518
        69                         -0.2164422              -5.8897
        70                         -0.2106662              -5.7325
        71                         -0.2098351              -5.7099
        72                         -0.1955848              -5.3221
        73                         -0.1870708              -5.0905
        74                         -0.1511747              -4.1137
       ...                                ...                  ...
       160                         13.2367544             360.1904
      -------------------------------------------------------------
                  HL-Gap            0.0177766 Eh            0.4837 eV
             Fermi-level           -0.2536924 Eh           -6.9033 eV

  Mulliken/CM5 charges         n(s)   n(p)   n(d)
     1Fe   -0.01969  0.29023   0.162  0.956  6.902
     2Fe   -0.01981  0.29063   0.156  0.975  6.889
     3Fe   -0.02092  0.28768   0.153  0.995  6.873
     4Fe    0.00875  0.34392   0.090  0.871  7.030
     5S    -0.09704 -0.32058   1.868  4.246 -0.017
     6S    -0.07876 -0.30158   1.870  4.225 -0.016
     7S    -0.12025 -0.34549   1.865  4.275 -0.019
     8S    -0.09015 -0.32346   1.870  4.239 -0.019
     9S    -0.26997 -0.37041   1.892  4.385 -0.008
    10C    -0.01180 -0.14526   1.000  3.012  0.000
    11H    -0.01973  0.03266   1.020  0.000  0.000
    12H    -0.00772  0.04427   1.008  0.000  0.000
    13H    -0.00169  0.05151   1.002  0.000  0.000
    14S    -0.27741 -0.37254   1.893  4.393 -0.008
    15C    -0.01485 -0.14795   1.001  3.014  0.000
    16H    -0.01632  0.03582   1.016  0.000  0.000
    17H    -0.01852  0.03360   1.019  0.000  0.000
    18H     0.00114  0.05424   0.999  0.000  0.000
    19S    -0.28093 -0.37383   1.893  4.396 -0.009
    20C    -0.01537 -0.14869   1.001  3.014  0.000
    21H    -0.00848  0.04344   1.008  0.000  0.000
    22H    -0.01904  0.03334   1.019  0.000  0.000
    23H    -0.00436  0.04811   1.004  0.000  0.000
    24S    -0.09885 -0.13884   1.933  4.120  0.045
    25C    -0.11020 -0.25147   1.016  3.094  0.000
    26H     0.02044  0.07564   0.980  0.000  0.000
    27H     0.02876  0.08474   0.971  0.000  0.000
    28H     0.02507  0.08205   0.975  0.000  0.000
    29C     0.57441  0.60779   0.952  2.474  0.000
    30O    -0.47111 -0.53929   1.721  4.750  0.000
    31O    -0.56558 -0.66030   1.705  4.860  0.000

Wiberg/Mayer (AO) data.
largest (>0.10) Wiberg bond orders for each atom

 ---------------------------------------------------------------------------
     #   Z sym  total        # sym  WBO       # sym  WBO       # sym  WBO
 ---------------------------------------------------------------------------
     1  26 Fe   5.491 --     7 S    0.959     9 S    0.885     5 S    0.876
                             3 Fe   0.790     6 S    0.751     2 Fe   0.609
                             4 Fe   0.356
     2  26 Fe   5.613 --     8 S    0.917     6 S    0.864    14 S    0.853
                             7 S    0.807     3 Fe   0.781     1 Fe   0.609
                             4 Fe   0.510
     3  26 Fe   5.801 --     5 S    0.949     8 S    0.929    19 S    0.829
                             1 Fe   0.790     2 Fe   0.781     7 S    0.689
                             4 Fe   0.548
     4  26 Fe   4.979 --     6 S    0.829    24 S    0.676     8 S    0.667
                             5 S    0.651     3 Fe   0.548     2 Fe   0.510
                             1 Fe   0.356    31 O    0.274    29 C    0.220
     5  16 S    2.694 --     3 Fe   0.949     1 Fe   0.876     4 Fe   0.651
     6  16 S    2.704 --     2 Fe   0.864     4 Fe   0.829     1 Fe   0.751
     7  16 S    2.670 --     1 Fe   0.959     2 Fe   0.807     3 Fe   0.689
     8  16 S    2.695 --     3 Fe   0.929     2 Fe   0.917     4 Fe   0.667
     9  16 S    2.154 --    10 C    0.972     1 Fe   0.885
    10   6 C    3.989 --    11 H    0.993    12 H    0.993    13 H    0.988
                             9 S    0.972
    11   1 H    1.025 --    10 C    0.993
    12   1 H    1.019 --    10 C    0.993
    13   1 H    1.026 --    10 C    0.988
    14  16 S    2.120 --    15 C    0.974     2 Fe   0.853
    15   6 C    3.993 --    16 H    0.995    17 H    0.994    18 H    0.987
                            14 S    0.974
    16   1 H    1.024 --    15 C    0.995
    17   1 H    1.024 --    15 C    0.994
    18   1 H    1.024 --    15 C    0.987
    19  16 S    2.098 --    20 C    0.976     3 Fe   0.829
    20   6 C    3.993 --    22 H    0.993    21 H    0.992    23 H    0.990
                            19 S    0.976
    21   1 H    1.019 --    20 C    0.992
    22   1 H    1.026 --    20 C    0.993
    23   1 H    1.020 --    20 C    0.990
    24  16 S    1.690 --    30 O    0.783     4 Fe   0.676
    25   6 C    3.991 --    27 H    0.986    28 H    0.976    26 H    0.974
                            29 C    0.948
    26   1 H    1.009 --    25 C    0.974
    27   1 H    1.012 --    25 C    0.986
    28   1 H    1.032 --    25 C    0.976
    29   6 C    3.869 --    31 O    1.481    30 O    1.165    25 C    0.948
                             4 Fe   0.220
    30   8 O    2.141 --    29 C    1.165    24 S    0.783    31 O    0.105
    31   8 O    1.991 --    29 C    1.481     4 Fe   0.274    30 O    0.105
 ---------------------------------------------------------------------------

Topologies differ in total number of bonds
Writing topology from bond orders to xtbtopo.mol

 dipole moment from electron density (au)
     X       Y       Z   
  -0.2893   0.4851  -0.0122  total (Debye):    1.436

           -------------------------------------------------
          |                Geometry Summary                 |
           -------------------------------------------------

      molecular mass/u    :      584.0466553
   center of mass at/Å    :       -0.0262639      -0.0774338      -0.0368412
  moments of inertia/u·Å² :        0.2751225E+04   0.3355555E+04   0.3683708E+04
rotational constants/cm⁻¹ :        0.6127318E-02   0.5023799E-02   0.4576267E-02

 * 33 selected distances

     #   Z          #   Z                                           value/Å
     1  26 Fe       3  26 Fe                                      2.4821672
     2  26 Fe       3  26 Fe                                      2.5169384 (max)
     1  26 Fe       5  16 S                                       2.1452468
     3  26 Fe       5  16 S                                       2.1221221
     4  26 Fe       5  16 S                                       2.2838707
     1  26 Fe       6  16 S                                       2.2109364
     2  26 Fe       6  16 S                                       2.1548467
     4  26 Fe       6  16 S                                       2.1779389
     1  26 Fe       7  16 S                                       2.1208576
     2  26 Fe       7  16 S                                       2.1725058
     3  26 Fe       7  16 S                                       2.2121346
     2  26 Fe       8  16 S                                       2.1149137
     3  26 Fe       8  16 S                                       2.1164555
     4  26 Fe       8  16 S                                       2.2386721
     1  26 Fe       9  16 S                                       2.1625533
    10   6 C       11   1 H                                       1.0919029
    10   6 C       12   1 H                                       1.0931850
    10   6 C       13   1 H                                       1.0916235
     2  26 Fe      14  16 S                                       2.1923913
    15   6 C       16   1 H                                       1.0928811
    15   6 C       17   1 H                                       1.0929727
    15   6 C       18   1 H                                       1.0916466
     3  26 Fe      19  16 S                                       2.2069847
    20   6 C       21   1 H                                       1.0935733
    20   6 C       22   1 H                                       1.0921583
    20   6 C       23   1 H                                       1.0922944
     4  26 Fe      24  16 S                                       2.2802920
    25   6 C       26   1 H                                       1.0898297
    25   6 C       27   1 H                                       1.0883386 (min)
    25   6 C       28   1 H                                       1.0898237
    25   6 C       29   6 C                                       1.5335018
    29   6 C       30   8 O                                       1.2785172
    29   6 C       31   8 O                                       1.2229751
Note: The following floating-point exceptions are signalling: IEEE_UNDERFLOW_FLAG IEEE_DENORMAL
normal termination of xtb

 * 5 distinct bonds (by element types)

   Z      Z             #   av. dist./Å        max./Å        min./Å
   1 H    6 C          12     1.0916858     1.0935733     1.0883386
   6 C    6 C           1     1.5335018     1.5335018     1.5335018
   6 C    8 O           2     1.2507462     1.2785172     1.2229751
  16 S   26 Fe         16     2.1820451     2.2838707     2.1149137
  26 Fe  26 Fe          2     2.4995528     2.5169384     2.4821672


optimized geometry written to: xtbopt.xyz


           -------------------------------------------------
          | TOTAL ENERGY              -68.868715889219 Eh   |
          | GRADIENT NORM               0.003295421676 Eh/α |
          | HOMO-LUMO GAP               0.483727007345 eV   |
           -------------------------------------------------

------------------------------------------------------------------------
 * finished run on 2026/09/12 at 20:14:11.591     
------------------------------------------------------------------------
 total:
 * wall-time:     0 d,  0 h,  0 min, 49.264 sec
 *  cpu-time:     0 d,  0 h,  1 min, 42.142 sec
 * ratio c/w:     2.073 speedup
 SCF:
 * wall-time:     0 d,  0 h,  0 min,  1.027 sec
 *  cpu-time:     0 d,  0 h,  0 min,  1.609 sec
 * ratio c/w:     1.566 speedup
 ANC optimizer:
 * wall-time:     0 d,  0 h,  0 min, 48.206 sec
 *  cpu-time:     0 d,  0 h,  1 min, 40.336 sec
 * ratio c/w:     2.081 speedup

