31
 energy: -68.868715889219 gnorm: 0.003295421676 xtb: 6.6.1 (unknown)
Fe           0.77231164497714        1.34135154787102        0.48424730490328
Fe           1.08448322405661       -0.57768918092866       -1.37124097753971
Fe          -1.06226790671570        0.69867677052465       -1.05926807331628
Fe          -0.51581025366206       -1.35187776778930        0.68757904520737
S           -1.22055009413325        0.78924464157336        1.05500382056959
S            1.56462240022539       -0.70861252316180        0.72534887958243
S            0.89119898984244        1.57177386960143       -1.62070107143461
S           -0.87538619226210       -1.35809763068097       -1.52201780536203
S            1.93041482975732        2.67887440633985        1.72781695563000
C            3.59434488108164        1.96828248808832        1.93169456122900
H            4.07402683566034        2.46952027878001        2.77485385926250
H            4.20040684616676        2.14057700672492        1.03835437355519
H            3.56273805448363        0.89563718026065        2.13188112915694
S            2.87237044590420       -1.23840419386439       -2.45452009261471
C            3.81752747061888       -2.41354350665825       -1.43384491865733
H            4.76891498587683       -1.95945656331766       -1.14565084143006
H            4.02979233069434       -3.30581004103659       -2.02831366230635
H            3.28684726156382       -2.71402935612485       -0.52842856111758
S           -2.64759213266149        1.92166551586265       -1.98761412062536
C           -4.24179197045567        1.61542905534646       -1.16484419514419
H           -4.60414145054872        0.59992226011234       -1.34746731500973
H           -4.97045984803428        2.31795893950696       -1.57509349293368
H           -4.17814745887818        1.77773647342465       -0.08655268107357
S           -0.26933928060792       -2.02697348188085        2.85165589265177
C           -3.75792948905660       -1.31773590288262        1.33541629940729
H           -4.53216791421918       -1.79207576086288        1.93814759949939
H           -4.02212310938281       -1.39485185076571        0.28245113516219
H           -3.68474478742596       -0.26902504523059        1.62275774488486
C           -2.42684276118948       -2.03134703399858        1.60111298644250
O           -2.05811938028303       -1.93985173887040        2.82188229080636
O           -1.98073864137233       -2.82459042585274        0.78415283067305
