      -----------------------------------------------------------      
     |                   =====================                   |     
     |                           x T B                           |     
     |                   =====================                   |     
     |                         S. Grimme                         |     
     |          Mulliken Center for Theoretical Chemistry        |     
     |                    University of Bonn                     |     
      -----------------------------------------------------------      

   * xtb version 6.6.1 (unknown) compiled by 'builduser@buildhost' on 2023-08-07

   xtb is free software: you can redistribute it and/or modify it under
   the terms of the GNU Lesser General Public License as published by
   the Free Software Foundation, either version 3 of the License, or
   (at your option) any later version.
   
   xtb is distributed in the hope that it will be useful,
   but WITHOUT ANY WARRANTY; without even the implied warranty of
   MERCHANTABILITY or FITNESS FOR A PARTICULAR PURPOSE.  See the
   GNU Lesser General Public License for more details.
   
   Cite this work as:
   * C. Bannwarth, E. Caldeweyher, S. Ehlert, A. Hansen, P. Pracht,
     J. Seibert, S. Spicher, S. Grimme, WIREs Comput. Mol. Sci., 2020, 11,
     e01493. DOI: 10.1002/wcms.1493
   
   for GFN2-xTB:
   * C. Bannwarth, S. Ehlert and S. Grimme., J. Chem. Theory Comput., 2019,
     15, 1652-1671. DOI: 10.1021/acs.jctc.8b01176
   for GFN1-xTB:
   * S. Grimme, C. Bannwarth, P. Shushkov, J. Chem. Theory Comput., 2017,
     13, 1989-2009. DOI: 10.1021/acs.jctc.7b00118
   for GFN0-xTB:
   * P. Pracht, E. Caldeweyher, S. Ehlert, S. Grimme, ChemRxiv, 2019, preprint.
     DOI: 10.26434/chemrxiv.8326202.v1
   for GFN-FF:
   * S. Spicher and S. Grimme, Angew. Chem. Int. Ed., 2020, 59, 15665-15673.
     DOI: 10.1002/anie.202004239
   
   for ALPB and GBSA implicit solvation:
   * S. Ehlert, M. Stahn, S. Spicher, S. Grimme, J. Chem. Theory Comput.,
     2021, 17, 4250-4261. DOI: 10.1021/acs.jctc.1c00471
   
   for DFT-D4:
   * E. Caldeweyher, C. Bannwarth and S. Grimme, J. Chem. Phys., 2017,
     147, 034112. DOI: 10.1063/1.4993215
   * E. Caldeweyher, S. Ehlert, A. Hansen, H. Neugebauer, S. Spicher,
     C. Bannwarth and S. Grimme, J. Chem. Phys., 2019, 150, 154122.
     DOI: 10.1063/1.5090222
   * E. Caldeweyher, J.-M. Mewes, S. Ehlert and S. Grimme, Phys. Chem. Chem. Phys.
     2020, 22, 8499-8512. DOI: 10.1039/D0CP00502A
   
   for sTDA-xTB:
   * S. Grimme and C. Bannwarth, J. Chem. Phys., 2016, 145, 054103.
     DOI: 10.1063/1.4959605
   
   in the mass-spec context:
   * V. Asgeirsson, C. Bauer and S. Grimme, Chem. Sci., 2017, 8, 4879.
     DOI: 10.1039/c7sc00601b
   * J. Koopman and S. Grimme, ACS Omega 2019, 4, 12, 15120-15133.
     DOI: 10.1021/acsomega.9b02011
   
   for metadynamics refer to:
   * S. Grimme, J. Chem. Theory Comput., 2019, 155, 2847-2862
     DOI: 10.1021/acs.jctc.9b00143
   
   for SPH calculations refer to:
   * S. Spicher and S. Grimme, J. Chem. Theory Comput., 2021, 17, 1701-1714
     DOI: 10.1021/acs.jctc.0c01306
   
   with help from (in alphabetical order)
   P. Atkinson, C. Bannwarth, F. Bohle, G. Brandenburg, E. Caldeweyher
   M. Checinski, S. Dohm, S. Ehlert, S. Ehrlich, I. Gerasimov, C. Hölzer
   A. Katbashev, J. Koopman, C. Lavigne, S. Lehtola, F. März, M. Müller,
   F. Musil, H. Neugebauer, J. Pisarek, C. Plett, P. Pracht, F. Pultar,
   J. Seibert, P. Shushkov, S. Spicher, M. Stahn, M. Steiner, T. Strunk,
   J. Stückrath, T. Rose, and J. Unsleber
   
 * started run on 2026/09/12 at 20:21:40.840     

           -------------------------------------------------
          |                Calculation Setup                |
           -------------------------------------------------

          program call               : xtb structure.xyz --gfn 1 --chrg -3 --uhf 0 --alpb water
          coordinate file            : structure.xyz
          omp threads                :                     8

   ID    Z sym.   atoms
    1    6 C      1, 2, 9, 10, 17, 18, 25, 26, 33, 34, 41-43, 45, 47, 65
    2   16 S      3, 11, 19, 27, 35, 60-63
    3    1 H      4-8, 12-16, 20-24, 28-32, 36-40, 48-55
    4    7 N      44, 46
    5   26 Fe     56-59
    6   28 Ni     64
    7    8 O      66, 67

molecular fragmentation (1/2 indicates fragments):
1111111111111111111111111111111111111111111111111111111111111111222
# atoms in fragment 1/2:    64     3
 fragment masses (1/2) :      812.09       44.01
CMA distance (Bohr)    :   6.520
constraining FC (au)   :  0.0500

           -------------------------------------------------
          |                 G F N 1 - x T B                 |
           -------------------------------------------------

        Reference                      10.1021/acs.jctc.7b00118
      * Hamiltonian:
        H0-scaling (s, p, d)           1.850000    2.250000    2.000000
        zeta-weighting                 0.000000
      * Dispersion:
        s8                             2.400000
        a1                             0.630000
        a2                             5.000000
        s9                             0.000000
      * Repulsion:
        kExp                           1.500000
        rExp                           1.000000
      * Coulomb:
        alpha                          2.000000
        third order                    atomic
        anisotropic                    false
      * Halogen bond correction:
        rad-scale                      1.300000
        damping                        0.440000

      * Solvation model:               ALPB
        Solvent                        water
        Parameter file                 internal GFN1-xTB/ALPB
        Dielectric constant                8.0200E+01
        Reference state                gsolv [1 M gas/solution]
        Free energy shift                  4.2456E-03 Eh       2.6642E+00 kcal/mol
        Temperature                        2.9815E+02 K
        Density                            1.0000E+00 kg/L
        Solvent mass                       1.8000E+01 g/mol
        Interaction kernel             P16
        Born radius scaling (c1)           1.9452E+00
        Born radii integrator          GBOBC
        Born offset                        0.0000E+00 a0       0.0000E+00 AA
        H-bond correction              true
        Ion screening                  false
        Surface tension                    1.0000E-05 Eh       1.5569E+01 dyn/cm
        Grid points                               230 per atom

          ...................................................
          :                      SETUP                      :
          :.................................................:
          :  # basis functions                 286          :
          :  # atomic orbitals                 272          :
          :  # shells                          148          :
          :  # electrons                       218          :
          :  # halogen bonds                     0          :
          :  max. iterations                   250          :
          :  Hamiltonian                  GFN1-xTB          :
          :  restarted?                      false          :
          :  GBSA solvation                   true          :
          :  PC potential                    false          :
          :  electronic temp.          300.0000000     K    :
          :  accuracy                    1.0000000          :
          :  -> integral cutoff          0.2500000E+02      :
          :  -> integral neglect         0.1000000E-07      :
          :  -> SCF convergence          0.1000000E-05 Eh   :
          :  -> wf. convergence          0.2000000E-04 e    :
          :  Broyden damping             0.4000000          :
          ...................................................

 iter      E             dE          RMSdq      gap      omega  full diag
   1    -92.5626734 -0.925627E+02  0.147E+01    0.06       0.0  T
   2     33.3248398  0.125888E+03  0.242E+01    0.18       1.0  T
   3    -89.5556953 -0.122881E+03  0.111E+01    0.13       1.0  T
   4    -34.8321453  0.547236E+02  0.151E+01    0.08       1.0  T
   5    -55.2634207 -0.204313E+02  0.138E+01    0.09       1.0  T
   6    -70.0799074 -0.148165E+02  0.119E+01    0.09       1.0  T
   7   -105.9945544 -0.359146E+02  0.791E+00    0.10       1.0  T
   8    -98.7034396  0.729111E+01  0.975E+00    0.03       1.0  T
   9    -87.9345240  0.107689E+02  0.102E+01    0.06       1.0  T
  10    -75.0398135  0.128947E+02  0.115E+01    0.08       1.0  T
  11   -112.3350639 -0.372953E+02  0.521E+00    0.14       1.0  T
  12   -109.3636178  0.297145E+01  0.596E+00    0.22       1.0  T
  13   -105.1020589  0.426156E+01  0.686E+00    0.06       1.0  T
  14   -102.0625133  0.303955E+01  0.757E+00    0.13       1.0  T
  15    -85.8217422  0.162408E+02  0.111E+01    0.09       1.0  T
  16   -103.0232691 -0.172015E+02  0.775E+00    0.12       1.0  T
  17   -102.5455079  0.477761E+00  0.765E+00    0.06       1.0  T
  18   -100.4577020  0.208781E+01  0.810E+00    0.07       1.0  T
  19   -106.1612382 -0.570354E+01  0.684E+00    0.06       1.0  T
  20   -103.7676240  0.239361E+01  0.703E+00    0.15       1.0  T
  21   -109.3571532 -0.558953E+01  0.569E+00    0.07       1.0  T
  22   -108.8106033  0.546550E+00  0.584E+00    0.07       1.0  T
  23   -115.8706922 -0.706009E+01  0.342E+00    0.08       1.0  T
  24   -117.3511856 -0.148049E+01  0.247E+00    0.10       1.0  T
  25   -117.8611590 -0.509973E+00  0.201E+00    0.07       1.0  T
  26   -118.1327320 -0.271573E+00  0.168E+00    0.07       1.0  T
  27   -118.5314226 -0.398691E+00  0.110E+00    0.22       1.0  T
  28   -117.9165566  0.614866E+00  0.188E+00    0.10       1.0  T
  29   -118.2573596 -0.340803E+00  0.144E+00    0.16       1.0  T
  30   -118.5028923 -0.245533E+00  0.108E+00    0.19       1.0  T
  31   -118.7010979 -0.198206E+00  0.707E-01    0.17       1.0  T
  32   -118.8168998 -0.115802E+00  0.237E-01    0.14       1.0  T
  33   -118.7870722  0.298276E-01  0.411E-01    0.12       1.0  T
  34   -118.8272303 -0.401581E-01  0.111E-01    0.13       1.0  T
  35   -118.8290423 -0.181208E-02  0.772E-02    0.13       1.0  T
  36   -118.8274289  0.161349E-02  0.109E-01    0.13       1.0  T
  37   -118.8300757 -0.264684E-02  0.416E-02    0.13       1.0  T
  38   -118.8301718 -0.961013E-04  0.357E-02    0.13       1.0  T
  39   -118.8304640 -0.292230E-03  0.114E-02    0.13       1.1  T
  40   -118.8304820 -0.179881E-04  0.641E-03    0.13       1.9  T
  41   -118.8304797  0.235266E-05  0.689E-03    0.13       1.8  T
  42   -118.8304876 -0.790122E-05  0.373E-03    0.13       3.3  T
  43   -118.8304910 -0.345951E-05  0.982E-04    0.13      12.4  T
  44   -118.8304910  0.693932E-07  0.108E-03    0.13      11.3  T
  45   -118.8304912 -0.283577E-06  0.198E-04    0.13      61.7  T
  46   -118.8304912 -0.639230E-08  0.970E-05    0.13     126.0  T

   *** convergence criteria satisfied after 46 iterations ***

         #    Occupation            Energy/Eh            Energy/eV
      -------------------------------------------------------------
         1        2.0000           -0.7823924             -21.2900
       ...           ...                  ...                  ...
       103        2.0000           -0.2552720              -6.9463
       104        2.0000           -0.2528340              -6.8800
       105        2.0000           -0.2513046              -6.8383
       106        1.9998           -0.2487314              -6.7683
       107        1.9959           -0.2458855              -6.6909
       108        1.9911           -0.2451389              -6.6706
       109        1.8670           -0.2425095              -6.5990 (HOMO)
       110        0.1461           -0.2375863              -6.4651 (LUMO)
       111        0.0001           -0.2307076              -6.2779
       112        0.0000           -0.2260319              -6.1506
       113                         -0.2221914              -6.0461
       114                         -0.2142655              -5.8305
       ...                                ...                  ...
       272                         15.3531469             417.7804
      -------------------------------------------------------------
                  HL-Gap            0.0049232 Eh            0.1340 eV
             Fermi-level           -0.2400000 Eh           -6.5307 eV

 SCC (total)                   0 d,  0 h,  0 min,  5.844 sec
 SCC setup                      ...        0 min,  0.004 sec (  0.073%)
 Dispersion                     ...        0 min,  0.001 sec (  0.024%)
 classical contributions        ...        0 min,  0.000 sec (  0.003%)
 integral evaluation            ...        0 min,  0.031 sec (  0.533%)
 iterations                     ...        0 min,  5.657 sec ( 96.798%)
 molecular gradient             ...        0 min,  0.109 sec (  1.865%)
 printout                       ...        0 min,  0.041 sec (  0.704%)

         :::::::::::::::::::::::::::::::::::::::::::::::::::::
         ::                     SUMMARY                     ::
         :::::::::::::::::::::::::::::::::::::::::::::::::::::
         :: total energy            -117.985776698260 Eh    ::
         :: total w/o Gsasa/hb      -117.982142291146 Eh    ::
         :: gradient norm              0.148572222327 Eh/a0 ::
         :: HOMO-LUMO gap              0.133966072415 eV    ::
         ::.................................................::
         :: SCC energy              -118.830491242372 Eh    ::
         :: -> electrostatic           0.690262745327 Eh    ::
         :: -> Gsolv                  -0.381386808769 Eh    ::
         ::    -> Gelec               -0.377752401655 Eh    ::
         ::    -> Gsasa               -0.005533636931 Eh    ::
         ::    -> Ghb                 -0.002346376854 Eh    ::
         ::    -> Gshift               0.004245606671 Eh    ::
         :: repulsion energy           0.910219171790 Eh    ::
         :: dispersion energy         -0.065504627678 Eh    ::
         :: halogen bond corr.         0.000000000000 Eh    ::
         :: add. restraining           0.000000000000 Eh    ::
         :: total charge              -2.999999999994 e     ::
         :::::::::::::::::::::::::::::::::::::::::::::::::::::

           -------------------------------------------------
          |                Property Printout                |
           -------------------------------------------------

    * Orbital Energies and Occupations

         #    Occupation            Energy/Eh            Energy/eV
      -------------------------------------------------------------
         1        2.0000           -0.7823924             -21.2900
       ...           ...                  ...                  ...
        97        2.0000           -0.2685479              -7.3076
        98        2.0000           -0.2641239              -7.1872
        99        2.0000           -0.2630860              -7.1589
       100        2.0000           -0.2600166              -7.0754
       101        2.0000           -0.2573851              -7.0038
       102        2.0000           -0.2561369              -6.9698
       103        2.0000           -0.2552720              -6.9463
       104        2.0000           -0.2528340              -6.8800
       105        2.0000           -0.2513046              -6.8383
       106        1.9998           -0.2487314              -6.7683
       107        1.9959           -0.2458855              -6.6909
       108        1.9911           -0.2451389              -6.6706
       109        1.8670           -0.2425095              -6.5990 (HOMO)
       110        0.1461           -0.2375863              -6.4651 (LUMO)
       111        0.0001           -0.2307076              -6.2779
       112        0.0000           -0.2260319              -6.1506
       113                         -0.2221914              -6.0461
       114                         -0.2142655              -5.8305
       115                         -0.2082828              -5.6677
       116                         -0.1993704              -5.4251
       117                         -0.1984538              -5.4002
       118                         -0.1965359              -5.3480
       119                         -0.1952441              -5.3129
       120                         -0.1809986              -4.9252
       ...                                ...                  ...
       272                         15.3531469             417.7804
      -------------------------------------------------------------
                  HL-Gap            0.0049232 Eh            0.1340 eV
             Fermi-level           -0.2400000 Eh           -6.5307 eV

  Mulliken/CM5 charges         n(s)   n(p)   n(d)
     1C    -0.06127 -0.20877   1.004  3.058  0.000
     2C     0.01641 -0.07753   1.027  2.957  0.000
     3S    -0.25712 -0.34756   1.898  4.369 -0.010
     4H    -0.01291  0.03766   1.013  0.000  0.000
     5H     0.00153  0.05630   0.998  0.000  0.000
     6H    -0.00544  0.04671   1.005  0.000  0.000
     7H    -0.02378  0.03384   1.024  0.000  0.000
     8H    -0.03048  0.02474   1.030  0.000  0.000
     9C    -0.07243 -0.22044   1.005  3.067  0.000
    10C     0.02151 -0.07243   1.025  2.953  0.000
    11S    -0.33208 -0.41195   1.903  4.441 -0.012
    12H    -0.00372  0.04685   1.004  0.000  0.000
    13H    -0.00348  0.04894   1.003  0.000  0.000
    14H    -0.00221  0.05020   1.002  0.000  0.000
    15H    -0.02443  0.03004   1.024  0.000  0.000
    16H    -0.01456  0.04010   1.015  0.000  0.000
    17C    -0.06356 -0.21176   1.004  3.059  0.000
    18C     0.02333 -0.07066   1.024  2.952  0.000
    19S    -0.33351 -0.41453   1.899  4.446 -0.011
    20H    -0.00914  0.04133   1.009  0.000  0.000
    21H    -0.00687  0.04530   1.007  0.000  0.000
    22H     0.01309  0.06533   0.987  0.000  0.000
    23H    -0.03468  0.02038   1.035  0.000  0.000
    24H    -0.01787  0.03683   1.018  0.000  0.000
    25C    -0.06366 -0.21115   1.004  3.060  0.000
    26C     0.02444 -0.06925   1.024  2.952  0.000
    27S    -0.34073 -0.41880   1.898  4.454 -0.011
    28H    -0.00991  0.04217   1.010  0.000  0.000
    29H    -0.01331  0.03720   1.013  0.000  0.000
    30H     0.00163  0.05664   0.998  0.000  0.000
    31H    -0.02055  0.03383   1.021  0.000  0.000
    32H    -0.03640  0.01872   1.036  0.000  0.000
    33C    -0.06582 -0.21381   1.004  3.062  0.000
    34C     0.02202 -0.07108   1.028  2.950  0.000
    35S    -0.24954 -0.32651   1.879  4.372 -0.002
    36H     0.00163  0.05380   0.998  0.000  0.000
    37H    -0.01221  0.04008   1.012  0.000  0.000
    38H    -0.00619  0.04444   1.006  0.000  0.000
    39H    -0.00798  0.05167   1.008  0.000  0.000
    40H    -0.03254  0.02317   1.033  0.000  0.000
    41C    -0.07571 -0.22524   1.006  3.069  0.000
    42C    -0.04067 -0.14193   1.022  3.019  0.000
    43C     0.04563  0.10608   1.046  2.908  0.000
    44N    -0.29150 -0.64922   1.429  3.862  0.000
    45C     0.19465  0.28859   0.998  2.807  0.000
    46N    -0.20836 -0.48976   1.534  3.675  0.000
    47C     0.08325  0.10854   1.022  2.894  0.000
    48H     0.02295  0.07615   0.977  0.000  0.000
    49H     0.02480  0.07704   0.975  0.000  0.000
    50H     0.02651  0.07791   0.973  0.000  0.000
    51H     0.02227  0.07958   0.978  0.000  0.000
    52H     0.02516  0.08080   0.975  0.000  0.000
    53H     0.23318  0.42990   0.767  0.000  0.000
    54H     0.01083  0.08663   0.989  0.000  0.000
    55H     0.01637  0.09080   0.984  0.000  0.000
    56Fe   -0.02913  0.24992   0.156  0.965  6.909
    57Fe    0.00625  0.33978   0.116  0.886  6.991
    58Fe   -0.02737  0.24357   0.157  0.941  6.929
    59Fe   -0.02675  0.24800   0.172  0.960  6.895
    60S    -0.07209 -0.29072   1.850  4.239 -0.017
    61S    -0.14256 -0.37309   1.865  4.297 -0.019
    62S    -0.08293 -0.31522   1.864  4.235 -0.016
    63S     0.03858 -0.19369   1.871  4.100 -0.010
    64Ni   -0.14437  0.06257   0.574  0.683  8.887
    65C     0.62440  0.66789   0.990  2.385  0.000
    66O    -0.53384 -0.61620   1.739  4.794  0.000
    67O    -0.65678 -0.69873   1.764  4.893  0.000

Wiberg/Mayer (AO) data.
largest (>0.10) Wiberg bond orders for each atom

 ---------------------------------------------------------------------------
     #   Z sym  total        # sym  WBO       # sym  WBO       # sym  WBO
 ---------------------------------------------------------------------------
     1   6 C    3.990 --     2 C    1.018     6 H    0.988     4 H    0.985
                             5 H    0.975
     2   6 C    3.982 --     1 C    1.018     8 H    0.985     7 H    0.981
                             3 S    0.952
     3  16 S    2.067 --     2 C    0.952    57 Fe   0.798
     4   1 H    1.009 --     1 C    0.985
     5   1 H    1.050 --     1 C    0.975
     6   1 H    1.027 --     1 C    0.988
     7   1 H    1.025 --     2 C    0.981
     8   1 H    1.029 --     2 C    0.985
     9   6 C    3.991 --    10 C    1.018    13 H    0.988    14 H    0.988
                            12 H    0.985
    10   6 C    3.989 --     9 C    1.018    15 H    0.988    16 H    0.985
                            11 S    0.967
    11  16 S    1.977 --    10 C    0.967    56 Fe   0.639
    12   1 H    1.008 --     9 C    0.985
    13   1 H    1.027 --     9 C    0.988
    14   1 H    1.030 --     9 C    0.988
    15   1 H    1.025 --    10 C    0.988
    16   1 H    1.022 --    10 C    0.985
    17   6 C    3.994 --    18 C    1.017    21 H    0.988    20 H    0.986
                            22 H    0.982
    18   6 C    3.987 --    17 C    1.017    23 H    0.986    24 H    0.984
                            19 S    0.973
    19  16 S    1.960 --    18 C    0.973    58 Fe   0.729
    20   1 H    1.010 --    17 C    0.986
    21   1 H    1.028 --    17 C    0.988
    22   1 H    1.022 --    17 C    0.982
    23   1 H    1.031 --    18 C    0.986
    24   1 H    1.024 --    18 C    0.984
    25   6 C    3.988 --    26 C    1.017    28 H    0.988    29 H    0.985
                            30 H    0.971
    26   6 C    3.988 --    25 C    1.017    32 H    0.986    31 H    0.985
                            27 S    0.971
    27  16 S    1.948 --    26 C    0.971    59 Fe   0.717
    28   1 H    1.027 --    25 C    0.988
    29   1 H    1.010 --    25 C    0.985
    30   1 H    1.051 --    25 C    0.971
    31   1 H    1.020 --    26 C    0.985
    32   1 H    1.030 --    26 C    0.986
    33   6 C    3.991 --    34 C    1.016    37 H    0.988    36 H    0.987
                            38 H    0.985
    34   6 C    3.989 --    33 C    1.016    40 H    0.988    39 H    0.971
                            35 S    0.970
    35  16 S    2.054 --    34 C    0.970    64 Ni   0.680    65 C    0.103
    36   1 H    1.027 --    33 C    0.987
    37   1 H    1.033 --    33 C    0.988
    38   1 H    1.010 --    33 C    0.985
    39   1 H    1.051 --    34 C    0.971
    40   1 H    1.030 --    34 C    0.988
    41   6 C    3.997 --    42 C    1.000    48 H    0.989    49 H    0.988
                            50 H    0.988
    42   6 C    3.998 --    43 C    1.014    41 C    1.000    52 H    0.978
                            51 H    0.977
    43   6 C    3.911 --    47 C    1.579    44 N    1.137    42 C    1.014
                            45 C    0.105
    44   7 N    3.440 --    45 C    1.201    43 C    1.137    53 H    0.912
    45   6 C    3.904 --    46 N    1.518    44 N    1.201    54 H    0.937
                            43 C    0.105
    46   7 N    3.310 --    45 C    1.518    47 C    1.230    57 Fe   0.395
    47   6 C    3.962 --    43 C    1.579    46 N    1.230    55 H    0.971
    48   1 H    1.008 --    41 C    0.989
    49   1 H    1.010 --    41 C    0.988
    50   1 H    1.005 --    41 C    0.988
    51   1 H    1.007 --    42 C    0.977
    52   1 H    1.008 --    42 C    0.978
    53   1 H    0.949 --    44 N    0.912
    54   1 H    1.071 --    45 C    0.937
    55   1 H    1.042 --    47 C    0.971
    56  26 Fe   5.586 --    58 Fe   0.880    59 Fe   0.851    62 S    0.840
                            61 S    0.824    63 S    0.649    11 S    0.639
                            57 Fe   0.392    64 Ni   0.210
    57  26 Fe   4.277 --    62 S    0.840     3 S    0.798    63 S    0.431
                            46 N    0.395    56 Fe   0.392    64 Ni   0.313
                            59 Fe   0.299    58 Fe   0.251    66 O    0.178
    58  26 Fe   5.441 --    56 Fe   0.880    61 S    0.861    60 S    0.798
                            59 Fe   0.741    19 S    0.729    63 S    0.642
                            64 Ni   0.263    57 Fe   0.251
Note: The following floating-point exceptions are signalling: IEEE_UNDERFLOW_FLAG IEEE_DENORMAL
normal termination of xtb
    59  26 Fe   5.468 --    56 Fe   0.851    62 S    0.824    60 S    0.786
                            61 S    0.775    58 Fe   0.741    27 S    0.717
                            57 Fe   0.299    64 Ni   0.219
    60  16 S    2.710 --    58 Fe   0.798    64 Ni   0.791    59 Fe   0.786
    61  16 S    2.640 --    58 Fe   0.861    56 Fe   0.824    59 Fe   0.775
    62  16 S    2.714 --    57 Fe   0.840    56 Fe   0.840    59 Fe   0.824
    63  16 S    2.780 --    56 Fe   0.649    58 Fe   0.642    64 Ni   0.555
                            57 Fe   0.431    65 C    0.228
    64  28 Ni   3.655 --    60 S    0.791    35 S    0.680    63 S    0.555
                            65 C    0.340    57 Fe   0.313    58 Fe   0.263
                            59 Fe   0.219    56 Fe   0.210
    65   6 C    3.823 --    66 O    1.514    67 O    1.505    64 Ni   0.340
                            63 S    0.228    35 S    0.103
    66   8 O    2.077 --    65 C    1.514    57 Fe   0.178    67 O    0.141
    67   8 O    1.860 --    65 C    1.505    66 O    0.141
 ---------------------------------------------------------------------------

Topologies differ in total number of bonds
Writing topology from bond orders to xtbtopo.mol

 dipole moment from electron density (au)
     X       Y       Z   
-307.6266 -67.0688-275.5548  total (Debye): 1063.480


           -------------------------------------------------
          | TOTAL ENERGY             -117.985776698260 Eh   |
          | GRADIENT NORM               0.148572222327 Eh/α |
          | HOMO-LUMO GAP               0.133966072415 eV   |
           -------------------------------------------------

------------------------------------------------------------------------
 * finished run on 2026/09/12 at 20:21:46.741     
------------------------------------------------------------------------
 total:
 * wall-time:     0 d,  0 h,  0 min,  5.901 sec
 *  cpu-time:     0 d,  0 h,  0 min,  7.381 sec
 * ratio c/w:     1.251 speedup
 SCF:
 * wall-time:     0 d,  0 h,  0 min,  5.846 sec
 *  cpu-time:     0 d,  0 h,  0 min,  7.016 sec
 * ratio c/w:     1.200 speedup

