      -----------------------------------------------------------      
     |                   =====================                   |     
     |                           x T B                           |     
     |                   =====================                   |     
     |                         S. Grimme                         |     
     |          Mulliken Center for Theoretical Chemistry        |     
     |                    University of Bonn                     |     
      -----------------------------------------------------------      

   * xtb version 6.6.1 (unknown) compiled by 'builduser@buildhost' on 2023-08-07

   xtb is free software: you can redistribute it and/or modify it under
   the terms of the GNU Lesser General Public License as published by
   the Free Software Foundation, either version 3 of the License, or
   (at your option) any later version.
   
   xtb is distributed in the hope that it will be useful,
   but WITHOUT ANY WARRANTY; without even the implied warranty of
   MERCHANTABILITY or FITNESS FOR A PARTICULAR PURPOSE.  See the
   GNU Lesser General Public License for more details.
   
   Cite this work as:
   * C. Bannwarth, E. Caldeweyher, S. Ehlert, A. Hansen, P. Pracht,
     J. Seibert, S. Spicher, S. Grimme, WIREs Comput. Mol. Sci., 2020, 11,
     e01493. DOI: 10.1002/wcms.1493
   
   for GFN2-xTB:
   * C. Bannwarth, S. Ehlert and S. Grimme., J. Chem. Theory Comput., 2019,
     15, 1652-1671. DOI: 10.1021/acs.jctc.8b01176
   for GFN1-xTB:
   * S. Grimme, C. Bannwarth, P. Shushkov, J. Chem. Theory Comput., 2017,
     13, 1989-2009. DOI: 10.1021/acs.jctc.7b00118
   for GFN0-xTB:
   * P. Pracht, E. Caldeweyher, S. Ehlert, S. Grimme, ChemRxiv, 2019, preprint.
     DOI: 10.26434/chemrxiv.8326202.v1
   for GFN-FF:
   * S. Spicher and S. Grimme, Angew. Chem. Int. Ed., 2020, 59, 15665-15673.
     DOI: 10.1002/anie.202004239
   
   for ALPB and GBSA implicit solvation:
   * S. Ehlert, M. Stahn, S. Spicher, S. Grimme, J. Chem. Theory Comput.,
     2021, 17, 4250-4261. DOI: 10.1021/acs.jctc.1c00471
   
   for DFT-D4:
   * E. Caldeweyher, C. Bannwarth and S. Grimme, J. Chem. Phys., 2017,
     147, 034112. DOI: 10.1063/1.4993215
   * E. Caldeweyher, S. Ehlert, A. Hansen, H. Neugebauer, S. Spicher,
     C. Bannwarth and S. Grimme, J. Chem. Phys., 2019, 150, 154122.
     DOI: 10.1063/1.5090222
   * E. Caldeweyher, J.-M. Mewes, S. Ehlert and S. Grimme, Phys. Chem. Chem. Phys.
     2020, 22, 8499-8512. DOI: 10.1039/D0CP00502A
   
   for sTDA-xTB:
   * S. Grimme and C. Bannwarth, J. Chem. Phys., 2016, 145, 054103.
     DOI: 10.1063/1.4959605
   
   in the mass-spec context:
   * V. Asgeirsson, C. Bauer and S. Grimme, Chem. Sci., 2017, 8, 4879.
     DOI: 10.1039/c7sc00601b
   * J. Koopman and S. Grimme, ACS Omega 2019, 4, 12, 15120-15133.
     DOI: 10.1021/acsomega.9b02011
   
   for metadynamics refer to:
   * S. Grimme, J. Chem. Theory Comput., 2019, 155, 2847-2862
     DOI: 10.1021/acs.jctc.9b00143
   
   for SPH calculations refer to:
   * S. Spicher and S. Grimme, J. Chem. Theory Comput., 2021, 17, 1701-1714
     DOI: 10.1021/acs.jctc.0c01306
   
   with help from (in alphabetical order)
   P. Atkinson, C. Bannwarth, F. Bohle, G. Brandenburg, E. Caldeweyher
   M. Checinski, S. Dohm, S. Ehlert, S. Ehrlich, I. Gerasimov, C. Hölzer
   A. Katbashev, J. Koopman, C. Lavigne, S. Lehtola, F. März, M. Müller,
   F. Musil, H. Neugebauer, J. Pisarek, C. Plett, P. Pracht, F. Pultar,
   J. Seibert, P. Shushkov, S. Spicher, M. Stahn, M. Steiner, T. Strunk,
   J. Stückrath, T. Rose, and J. Unsleber
   
 * started run on 2026/09/13 at 13:38:50.841     

           -------------------------------------------------
          |                Calculation Setup                |
           -------------------------------------------------

          program call               : xtb structure.xyz --gfn 1 --chrg -3 --uhf 1 --alpb water
          coordinate file            : structure.xyz
          omp threads                :                     8

   ID    Z sym.   atoms
    1    6 C      1, 2, 9, 10, 17, 18, 25, 26, 33, 34, 41-43, 45, 47, 65
    2   16 S      3, 11, 19, 27, 35, 60-63
    3    1 H      4-8, 12-16, 20-24, 28-32, 36-40, 48-55, 68
    4    7 N      44, 46
    5   26 Fe     56-59
    6   28 Ni     64
    7    8 O      66, 67

molecular fragmentation (1/2 indicates fragments):
11111111111111111111111111111111111111112222222222222221111111212222
# atoms in fragment 1/2:    48    20
 fragment masses (1/2) :      683.90      173.21
CMA distance (Bohr)    :   8.053
constraining FC (au)   :  0.0500

           -------------------------------------------------
          |                 G F N 1 - x T B                 |
           -------------------------------------------------

        Reference                      10.1021/acs.jctc.7b00118
      * Hamiltonian:
        H0-scaling (s, p, d)           1.850000    2.250000    2.000000
        zeta-weighting                 0.000000
      * Dispersion:
        s8                             2.400000
        a1                             0.630000
        a2                             5.000000
        s9                             0.000000
      * Repulsion:
        kExp                           1.500000
        rExp                           1.000000
      * Coulomb:
        alpha                          2.000000
        third order                    atomic
        anisotropic                    false
      * Halogen bond correction:
        rad-scale                      1.300000
        damping                        0.440000

      * Solvation model:               ALPB
        Solvent                        water
        Parameter file                 internal GFN1-xTB/ALPB
        Dielectric constant                8.0200E+01
        Reference state                gsolv [1 M gas/solution]
        Free energy shift                  4.2456E-03 Eh       2.6642E+00 kcal/mol
        Temperature                        2.9815E+02 K
        Density                            1.0000E+00 kg/L
        Solvent mass                       1.8000E+01 g/mol
        Interaction kernel             P16
        Born radius scaling (c1)           1.9452E+00
        Born radii integrator          GBOBC
        Born offset                        0.0000E+00 a0       0.0000E+00 AA
        H-bond correction              true
        Ion screening                  false
        Surface tension                    1.0000E-05 Eh       1.5569E+01 dyn/cm
        Grid points                               230 per atom

          ...................................................
          :                      SETUP                      :
          :.................................................:
          :  # basis functions                 288          :
          :  # atomic orbitals                 274          :
          :  # shells                          150          :
          :  # electrons                       219          :
          :  # halogen bonds                     0          :
          :  max. iterations                   250          :
          :  Hamiltonian                  GFN1-xTB          :
          :  restarted?                      false          :
          :  GBSA solvation                   true          :
          :  PC potential                    false          :
          :  electronic temp.          300.0000000     K    :
          :  accuracy                    1.0000000          :
          :  -> integral cutoff          0.2500000E+02      :
          :  -> integral neglect         0.1000000E-07      :
          :  -> SCF convergence          0.1000000E-05 Eh   :
          :  -> wf. convergence          0.2000000E-04 e    :
          :  Broyden damping             0.4000000          :
          ...................................................

 iter      E             dE          RMSdq      gap      omega  full diag
   1    -93.6157445 -0.936157E+02  0.144E+01    0.39       0.0  T
   2     29.1953167  0.122811E+03  0.252E+01    0.15       1.0  T
   3    -79.3231897 -0.108519E+03  0.125E+01    0.22       1.0  T
   4    -51.8220270  0.275012E+02  0.140E+01    0.09       1.0  T
   5    -58.1613845 -0.633936E+01  0.133E+01    0.11       1.0  T
   6    -75.0688240 -0.169074E+02  0.112E+01    0.20       1.0  T
   7   -110.6535876 -0.355848E+02  0.743E+00    0.17       1.0  T
   8    -93.3291349  0.173245E+02  0.946E+00    0.22       1.0  T
   9    -78.2944768  0.150347E+02  0.110E+01    0.20       1.0  T
  10    -94.5191166 -0.162246E+02  0.887E+00    0.31       1.0  T
  11   -101.2262910 -0.670717E+01  0.773E+00    0.23       1.0  T
  12   -104.1010043 -0.287471E+01  0.672E+00    0.14       1.0  T
  13   -112.9452669 -0.884426E+01  0.556E+00    0.09       1.0  T
  14    -89.7709182  0.231743E+02  0.103E+01    0.15       1.0  T
  15    -89.6814721  0.894460E-01  0.103E+01    0.15       1.0  T
  16    -94.0115474 -0.433008E+01  0.946E+00    0.12       1.0  T
  17    -95.4107449 -0.139920E+01  0.925E+00    0.16       1.0  T
  18    -97.0873687 -0.167662E+01  0.906E+00    0.11       1.0  T
  19    -89.7368797  0.735049E+01  0.101E+01    0.31       1.0  T
  20    -89.6889025  0.479772E-01  0.101E+01    0.31       1.0  T
  21    -87.7518884  0.193701E+01  0.104E+01    0.31       1.0  T
  22    -96.5414943 -0.878961E+01  0.901E+00    0.16       1.0  T
  23   -104.8030323 -0.826154E+01  0.738E+00    0.12       1.0  T
  24   -104.1747817  0.628251E+00  0.752E+00    0.12       1.0  T
  25   -104.0494611  0.125321E+00  0.754E+00    0.12       1.0  T
  26   -105.2589479 -0.120949E+01  0.724E+00    0.19       1.0  T
  27   -107.6279942 -0.236905E+01  0.674E+00    0.15       1.0  T
  28   -103.2927756  0.433522E+01  0.756E+00    0.01       1.0  T
  29   -100.9324736  0.236030E+01  0.802E+00    0.20       1.0  T
  30   -108.9664503 -0.803398E+01  0.626E+00    0.04       1.0  T
  31   -115.2258717 -0.625942E+01  0.411E+00    0.06       1.0  T
  32   -115.7971504 -0.571279E+00  0.379E+00    0.12       1.0  T
  33   -116.2580471 -0.460897E+00  0.358E+00    0.15       1.0  T
  34   -116.7471923 -0.489145E+00  0.320E+00    0.16       1.0  T
  35   -118.2149369 -0.146774E+01  0.214E+00    0.20       1.0  T
  36   -119.3152019 -0.110027E+01  0.607E-01    0.15       1.0  T
  37   -119.3042329  0.109690E-01  0.638E-01    0.11       1.0  T
  38   -119.2260093  0.782236E-01  0.813E-01    0.11       1.0  T
  39   -119.3502335 -0.124224E+00  0.470E-01    0.14       1.0  T
  40   -119.3388502  0.113833E-01  0.522E-01    0.16       1.0  T
  41   -119.3936169 -0.547668E-01  0.255E-01    0.16       1.0  T
  42   -119.4069369 -0.133200E-01  0.109E-01    0.17       1.0  T
  43   -119.4088923 -0.195535E-02  0.599E-02    0.16       1.0  T
  44   -119.4090682 -0.175910E-03  0.552E-02    0.16       1.0  T
  45   -119.4094496 -0.381468E-03  0.393E-02    0.16       1.0  T
  46   -119.4095635 -0.113866E-03  0.333E-02    0.16       1.0  T
  47   -119.4096274 -0.639439E-04  0.279E-02    0.16       1.0  T
  48   -119.4096406 -0.131663E-04  0.245E-02    0.16       1.0  T
  49   -119.4097090 -0.684018E-04  0.174E-02    0.16       1.0  T
  50   -119.4097274 -0.183788E-04  0.145E-02    0.16       1.0  T
  51   -119.4097666 -0.392121E-04  0.663E-03    0.16       1.8  T
  52   -119.4097748 -0.823521E-05  0.330E-03    0.16       3.7  T
  53   -119.4097764 -0.156419E-05  0.182E-03    0.16       6.7  T
  54   -119.4097767 -0.303040E-06  0.129E-03    0.16       9.4  T
  55   -119.4097770 -0.261755E-06  0.688E-04    0.16      17.6  T
  56   -119.4097771 -0.852734E-07  0.364E-04    0.16      33.3  T
  57   -119.4097771 -0.277533E-07  0.159E-04    0.16      76.1  T
  58   -119.4097771 -0.623353E-08  0.480E-05    0.16     252.7  T

   *** convergence criteria satisfied after 58 iterations ***

         #    Occupation            Energy/Eh            Energy/eV
      -------------------------------------------------------------
         1        2.0000           -0.8052875             -21.9130
       ...           ...                  ...                  ...
       104        2.0000           -0.2410789              -6.5601
       105        2.0000           -0.2397375              -6.5236
       106        1.9997           -0.2375373              -6.4637
       107        1.9989           -0.2364259              -6.4335
       108        1.9893           -0.2342273              -6.3736
       109        1.8612           -0.2316607              -6.3038
       110        1.1072           -0.2282626              -6.2113 (HOMO)
       111        0.0392           -0.2222434              -6.0476 (LUMO)
       112        0.0044           -0.2201419              -5.9904
       113                         -0.2090305              -5.6880
       114                         -0.2063516              -5.6151
       115                         -0.2041833              -5.5561
       ...                                ...                  ...
       274                         13.9811790             380.4472
      -------------------------------------------------------------
                  HL-Gap            0.0060192 Eh            0.1638 eV
             Fermi-level           -0.2276037 Eh           -6.1934 eV

 SCC (total)                   0 d,  0 h,  0 min,  6.795 sec
 SCC setup                      ...        0 min,  0.003 sec (  0.038%)
 Dispersion                     ...        0 min,  0.001 sec (  0.017%)
 classical contributions        ...        0 min,  0.000 sec (  0.002%)
 integral evaluation            ...        0 min,  0.030 sec (  0.436%)
 iterations                     ...        0 min,  6.580 sec ( 96.838%)
 molecular gradient             ...        0 min,  0.076 sec (  1.117%)
 printout                       ...        0 min,  0.105 sec (  1.551%)

         :::::::::::::::::::::::::::::::::::::::::::::::::::::
         ::                     SUMMARY                     ::
         :::::::::::::::::::::::::::::::::::::::::::::::::::::
         :: total energy            -118.540662364102 Eh    ::
         :: total w/o Gsasa/hb      -118.532200560353 Eh    ::
         :: gradient norm              0.182102652371 Eh/a0 ::
         :: HOMO-LUMO gap              0.163790373836 eV    ::
         ::.................................................::
         :: SCC energy              -119.409777091907 Eh    ::
         :: -> electrostatic           0.705098503823 Eh    ::
         :: -> Gsolv                  -0.390246356338 Eh    ::
         ::    -> Gelec               -0.381784552589 Eh    ::
         ::    -> Gsasa               -0.005741008709 Eh    ::
         ::    -> Ghb                 -0.006966401711 Eh    ::
         ::    -> Gshift               0.004245606671 Eh    ::
         :: repulsion energy           0.934351934377 Eh    ::
         :: dispersion energy         -0.065237206572 Eh    ::
         :: halogen bond corr.         0.000000000000 Eh    ::
         :: add. restraining           0.000000000000 Eh    ::
         :: total charge              -2.999999999991 e     ::
         :::::::::::::::::::::::::::::::::::::::::::::::::::::

           -------------------------------------------------
          |                Property Printout                |
           -------------------------------------------------

    * Orbital Energies and Occupations

         #    Occupation            Energy/Eh            Energy/eV
      -------------------------------------------------------------
         1        2.0000           -0.8052875             -21.9130
       ...           ...                  ...                  ...
        98        2.0000           -0.2485284              -6.7628
        99        2.0000           -0.2478427              -6.7441
       100        2.0000           -0.2466144              -6.7107
       101        2.0000           -0.2434499              -6.6246
       102        2.0000           -0.2423565              -6.5949
       103        2.0000           -0.2416435              -6.5755
       104        2.0000           -0.2410789              -6.5601
       105        2.0000           -0.2397375              -6.5236
       106        1.9997           -0.2375373              -6.4637
       107        1.9989           -0.2364259              -6.4335
       108        1.9893           -0.2342273              -6.3736
       109        1.8612           -0.2316607              -6.3038
       110        1.1072           -0.2282626              -6.2113 (HOMO)
       111        0.0392           -0.2222434              -6.0476 (LUMO)
       112        0.0044           -0.2201419              -5.9904
       113                         -0.2090305              -5.6880
       114                         -0.2063516              -5.6151
       115                         -0.2041833              -5.5561
       116                         -0.2000503              -5.4436
       117                         -0.1940891              -5.2814
       118                         -0.1907855              -5.1915
       119                         -0.1844967              -5.0204
       120                         -0.1743299              -4.7438
       121                         -0.1641265              -4.4661
       ...                                ...                  ...
       274                         13.9811790             380.4472
      -------------------------------------------------------------
                  HL-Gap            0.0060192 Eh            0.1638 eV
             Fermi-level           -0.2276037 Eh           -6.1934 eV

  Mulliken/CM5 charges         n(s)   n(p)   n(d)
     1C    -0.05411 -0.20284   1.003  3.051  0.000
     2C     0.01639 -0.07753   1.027  2.957  0.000
     3S    -0.27064 -0.36536   1.899  4.379 -0.008
     4H    -0.01218  0.03832   1.012  0.000  0.000
     5H     0.00591  0.05907   0.994  0.000  0.000
     6H     0.00564  0.05752   0.994  0.000  0.000
     7H    -0.03097  0.02397   1.031  0.000  0.000
     8H    -0.02843  0.02636   1.028  0.000  0.000
     9C    -0.07075 -0.21875   1.005  3.066  0.000
    10C     0.01907 -0.07499   1.025  2.956  0.000
    11S    -0.32406 -0.40791   1.901  4.433 -0.011
    12H    -0.00567  0.04494   1.006  0.000  0.000
    13H    -0.00537  0.04702   1.005  0.000  0.000
    14H    -0.00486  0.04744   1.005  0.000  0.000
    15H    -0.02724  0.02729   1.027  0.000  0.000
    16H    -0.01804  0.03661   1.018  0.000  0.000
    17C    -0.05839 -0.20684   1.002  3.056  0.000
    18C     0.01677 -0.07730   1.026  2.958  0.000
    19S    -0.29486 -0.38425   1.900  4.404 -0.009
    20H    -0.01088  0.03970   1.011  0.000  0.000
    21H    -0.00298  0.04892   1.003  0.000  0.000
    22H     0.01491  0.06792   0.985  0.000  0.000
    23H    -0.03493  0.02014   1.035  0.000  0.000
    24H    -0.02329  0.03116   1.023  0.000  0.000
    25C    -0.06260 -0.21010   1.004  3.059  0.000
    26C     0.02370 -0.06990   1.024  2.953  0.000
    27S    -0.35552 -0.43147   1.901  4.465 -0.011
    28H    -0.01269  0.03938   1.013  0.000  0.000
    29H    -0.01567  0.03482   1.016  0.000  0.000
    30H    -0.00281  0.05256   1.003  0.000  0.000
    31H    -0.02369  0.03060   1.024  0.000  0.000
    32H    -0.04088  0.01416   1.041  0.000  0.000
    33C    -0.06307 -0.21093   1.003  3.060  0.000
    34C     0.02209 -0.07103   1.029  2.949  0.000
    35S    -0.33533 -0.41105   1.876  4.470 -0.011
    36H    -0.00283  0.04926   1.003  0.000  0.000
    37H    -0.01460  0.03763   1.015  0.000  0.000
    38H    -0.01024  0.04023   1.010  0.000  0.000
    39H    -0.02044  0.03674   1.020  0.000  0.000
    40H    -0.04198  0.01265   1.042  0.000  0.000
    41C    -0.07042 -0.21999   1.005  3.065  0.000
    42C    -0.04327 -0.14452   1.023  3.020  0.000
    43C     0.05718  0.11771   1.048  2.895  0.000
    44N    -0.28443 -0.64170   1.431  3.853  0.000
    45C     0.23264  0.33270   0.986  2.781  0.000
    46N    -0.41051 -0.59773   1.557  3.854  0.000
    47C     0.07169  0.10123   1.014  2.914  0.000
    48H     0.02297  0.07576   0.977  0.000  0.000
    49H     0.02699  0.07914   0.973  0.000  0.000
    50H     0.02492  0.07633   0.975  0.000  0.000
    51H     0.02301  0.08073   0.977  0.000  0.000
    52H     0.02611  0.08172   0.974  0.000  0.000
    53H     0.23683  0.43432   0.763  0.000  0.000
    54H    -0.00670  0.06843   1.007  0.000  0.000
    55H    -0.00978  0.05681   1.010  0.000  0.000
    56Fe   -0.03219  0.22358   0.149  0.932  6.951
    57Fe   -0.01805  0.23285   0.136  0.896  6.987
    58Fe   -0.02193  0.24215   0.129  0.925  6.967
    59Fe   -0.03217  0.23791   0.158  0.976  6.899
    60S    -0.00249 -0.25301   1.858  4.162 -0.017
    61S    -0.15220 -0.38239   1.867  4.303 -0.019
    62S    -0.14879 -0.37168   1.866  4.301 -0.019
    63S     0.07505 -0.12861   1.869  4.033  0.023
    64Ni   -0.26105 -0.09966   0.568  0.641  9.053
    65C     0.59557  0.66851   0.978  2.426  0.000
    66O    -0.54533 -0.73375   1.589  4.957  0.000
    67O    -0.63813 -0.67641   1.744  4.894  0.000
    68H     0.44002  0.59543   0.560  0.000  0.000

Wiberg/Mayer (AO) data.
largest (>0.10) Wiberg bond orders for each atom

 ---------------------------------------------------------------------------
     #   Z sym  total        # sym  WBO       # sym  WBO       # sym  WBO
 ---------------------------------------------------------------------------
     1   6 C    3.993 --     2 C    1.018     4 H    0.984     6 H    0.984
                             5 H    0.977
     2   6 C    3.983 --     1 C    1.018     8 H    0.986     7 H    0.982
                             3 S    0.955
     3  16 S    2.111 --     2 C    0.955    57 Fe   0.747
     4   1 H    1.009 --     1 C    0.984
     5   1 H    1.038 --     1 C    0.977
     6   1 H    1.019 --     1 C    0.984
     7   1 H    1.029 --     2 C    0.982
     8   1 H    1.028 --     2 C    0.986
     9   6 C    3.991 --    10 C    1.018    13 H    0.988    14 H    0.988
                            12 H    0.985
    10   6 C    3.988 --     9 C    1.018    15 H    0.987    16 H    0.985
                            11 S    0.965
    11  16 S    1.992 --    10 C    0.965    56 Fe   0.667
    12   1 H    1.008 --     9 C    0.985
    13   1 H    1.028 --     9 C    0.988
    14   1 H    1.031 --     9 C    0.988
    15   1 H    1.025 --    10 C    0.987
    16   1 H    1.022 --    10 C    0.985
    17   6 C    3.993 --    18 C    1.017    21 H    0.988    20 H    0.986
                            22 H    0.976
    18   6 C    3.987 --    17 C    1.017    23 H    0.986    24 H    0.986
                            19 S    0.961
    19  16 S    2.063 --    18 C    0.961    58 Fe   0.754    64 Ni   0.104
    20   1 H    1.009 --    17 C    0.986
    21   1 H    1.021 --    17 C    0.988
    22   1 H    1.030 --    17 C    0.976
    23   1 H    1.030 --    18 C    0.986
    24   1 H    1.022 --    18 C    0.986
    25   6 C    3.989 --    26 C    1.016    28 H    0.988    29 H    0.985
                            30 H    0.969
    26   6 C    3.987 --    25 C    1.016    32 H    0.986    31 H    0.984
                            27 S    0.972
    27  16 S    1.928 --    26 C    0.972    59 Fe   0.686
    28   1 H    1.028 --    25 C    0.988
    29   1 H    1.010 --    25 C    0.985
    30   1 H    1.058 --    25 C    0.969
    31   1 H    1.021 --    26 C    0.984
    32   1 H    1.031 --    26 C    0.986
    33   6 C    3.993 --    34 C    1.018    37 H    0.988    36 H    0.988
                            38 H    0.985
    34   6 C    3.987 --    33 C    1.018    40 H    0.988    35 S    0.972
                            39 H    0.967
    35  16 S    1.920 --    34 C    0.972    64 Ni   0.757
    36   1 H    1.028 --    33 C    0.988
    37   1 H    1.031 --    33 C    0.988
    38   1 H    1.011 --    33 C    0.985
    39   1 H    1.064 --    34 C    0.967
    40   1 H    1.030 --    34 C    0.988
    41   6 C    3.997 --    42 C    1.000    48 H    0.989    50 H    0.988
                            49 H    0.985
    42   6 C    3.998 --    43 C    1.015    41 C    1.000    51 H    0.977
                            52 H    0.977
    43   6 C    3.914 --    47 C    1.571    44 N    1.147    42 C    1.015
                            45 C    0.107
    44   7 N    3.453 --    45 C    1.214    43 C    1.147    53 H    0.911
    45   6 C    3.918 --    46 N    1.557    44 N    1.214    54 H    0.951
                            43 C    0.107
    46   7 N    2.997 --    45 C    1.557    47 C    1.268
    47   6 C    3.964 --    43 C    1.571    46 N    1.268    55 H    0.974
    48   1 H    1.007 --    41 C    0.989
Note: The following floating-point exceptions are signalling: IEEE_UNDERFLOW_FLAG IEEE_DENORMAL
normal termination of xtb
    49   1 H    1.013 --    41 C    0.985
    50   1 H    1.005 --    41 C    0.988
    51   1 H    1.006 --    42 C    0.977
    52   1 H    1.009 --    42 C    0.977
    53   1 H    0.947 --    44 N    0.911
    54   1 H    1.089 --    45 C    0.951
    55   1 H    1.055 --    47 C    0.974
    56  26 Fe   5.373 --    59 Fe   0.849    61 S    0.806    62 S    0.781
                            58 Fe   0.771    11 S    0.667    57 Fe   0.561
                            63 S    0.464    64 Ni   0.194
    57  26 Fe   4.902 --    62 S    0.888     3 S    0.747    59 Fe   0.711
                            60 S    0.685    56 Fe   0.561    58 Fe   0.385
                            64 Ni   0.327    63 S    0.275
    58  26 Fe   5.161 --    61 S    0.872    56 Fe   0.771    19 S    0.754
                            59 Fe   0.683    60 S    0.616    63 S    0.447
                            57 Fe   0.385    64 Ni   0.368
    59  26 Fe   5.722 --    56 Fe   0.849    61 S    0.825    62 S    0.809
                            57 Fe   0.711    27 S    0.686    60 S    0.684
                            58 Fe   0.683    64 Ni   0.263
    60  16 S    2.765 --    57 Fe   0.685    59 Fe   0.684    58 Fe   0.616
                            64 Ni   0.584
    61  16 S    2.644 --    58 Fe   0.872    59 Fe   0.825    56 Fe   0.806
    62  16 S    2.637 --    57 Fe   0.888    59 Fe   0.809    56 Fe   0.781
    63  16 S    2.735 --    65 C    0.846    64 Ni   0.485    56 Fe   0.464
                            58 Fe   0.447    57 Fe   0.275
    64  28 Ni   3.258 --    35 S    0.757    60 S    0.584    63 S    0.485
                            58 Fe   0.368    57 Fe   0.327    59 Fe   0.263
                            56 Fe   0.194    19 S    0.104
    65   6 C    3.753 --    67 O    1.572    66 O    1.149    63 S    0.846
    66   8 O    2.093 --    65 C    1.149    68 H    0.749    67 O    0.121
    67   8 O    1.836 --    65 C    1.572    66 O    0.121
    68   1 H    0.803 --    66 O    0.749
 ---------------------------------------------------------------------------

Topologies differ in total number of bonds
Writing topology from bond orders to xtbtopo.mol

 dipole moment from electron density (au)
     X       Y       Z   
-306.1698 -63.8078-275.8960  total (Debye): 1060.033


           -------------------------------------------------
          | TOTAL ENERGY             -118.540662364102 Eh   |
          | GRADIENT NORM               0.182102652371 Eh/α |
          | HOMO-LUMO GAP               0.163790373836 eV   |
           -------------------------------------------------

------------------------------------------------------------------------
 * finished run on 2026/09/13 at 13:38:57.681     
------------------------------------------------------------------------
 total:
 * wall-time:     0 d,  0 h,  0 min,  6.841 sec
 *  cpu-time:     0 d,  0 h,  0 min,  7.678 sec
 * ratio c/w:     1.122 speedup
 SCF:
 * wall-time:     0 d,  0 h,  0 min,  6.797 sec
 *  cpu-time:     0 d,  0 h,  0 min,  7.409 sec
 * ratio c/w:     1.090 speedup

