31
Model A + CO2; terminal Fe-C screening pose
Fe      0.91005181      0.88866377      0.89486125
Fe      0.90183630     -0.89713345     -0.89204973
Fe     -0.90158894      0.89662212     -0.89054479
Fe     -0.91015541     -0.88795556      0.89302353
S      -1.20765493      1.21281473      1.20903818
S       1.20739189     -1.21258369      1.20783801
S       1.21864198      1.20158480     -1.20504301
S      -1.21849567     -1.20159661     -1.20668218
S       1.95473105      2.28583323      2.29628027
C       3.76189980      2.14263635      2.15070892
H       4.20092894      2.85416210      2.85371610
H       4.11972369      2.39180938      1.14769751
H       4.12177830      1.14299615      2.41037565
S       1.93630196     -2.30130957     -2.29412009
C       3.74405895     -2.16130781     -2.15236485
H       4.10453437     -1.15909811     -2.40103269
H       4.18059311     -2.86505461     -2.86473812
H       4.10389162     -2.42271415     -1.15313677
S      -1.93605960      2.30182531     -2.29211831
C      -3.74388342      2.16039460     -2.15167698
H      -4.10338314      1.15820743     -2.40186049
H      -4.18074909      2.86476119     -2.86331650
H      -4.10438947      2.42007710     -1.15223343
S      -1.95478210     -2.28625150      2.29386393
C      -3.76210991     -2.14180525      2.15064917
H      -4.20096356     -2.85295674      2.85422910
H      -4.12124828     -2.39077011      1.14805159
H      -4.12090021     -1.14185106      2.41058473
C       2.11016631      2.06054016      2.07339037
O       2.11016631      2.88310240      1.25547145
O       2.11016631      1.23797792      2.89130929
