      -----------------------------------------------------------      
     |                   =====================                   |     
     |                           x T B                           |     
     |                   =====================                   |     
     |                         S. Grimme                         |     
     |          Mulliken Center for Theoretical Chemistry        |     
     |                    University of Bonn                     |     
      -----------------------------------------------------------      

   * xtb version 6.6.1 (unknown) compiled by 'builduser@buildhost' on 2023-08-07

   xtb is free software: you can redistribute it and/or modify it under
   the terms of the GNU Lesser General Public License as published by
   the Free Software Foundation, either version 3 of the License, or
   (at your option) any later version.
   
   xtb is distributed in the hope that it will be useful,
   but WITHOUT ANY WARRANTY; without even the implied warranty of
   MERCHANTABILITY or FITNESS FOR A PARTICULAR PURPOSE.  See the
   GNU Lesser General Public License for more details.
   
   Cite this work as:
   * C. Bannwarth, E. Caldeweyher, S. Ehlert, A. Hansen, P. Pracht,
     J. Seibert, S. Spicher, S. Grimme, WIREs Comput. Mol. Sci., 2020, 11,
     e01493. DOI: 10.1002/wcms.1493
   
   for GFN2-xTB:
   * C. Bannwarth, S. Ehlert and S. Grimme., J. Chem. Theory Comput., 2019,
     15, 1652-1671. DOI: 10.1021/acs.jctc.8b01176
   for GFN1-xTB:
   * S. Grimme, C. Bannwarth, P. Shushkov, J. Chem. Theory Comput., 2017,
     13, 1989-2009. DOI: 10.1021/acs.jctc.7b00118
   for GFN0-xTB:
   * P. Pracht, E. Caldeweyher, S. Ehlert, S. Grimme, ChemRxiv, 2019, preprint.
     DOI: 10.26434/chemrxiv.8326202.v1
   for GFN-FF:
   * S. Spicher and S. Grimme, Angew. Chem. Int. Ed., 2020, 59, 15665-15673.
     DOI: 10.1002/anie.202004239
   
   for ALPB and GBSA implicit solvation:
   * S. Ehlert, M. Stahn, S. Spicher, S. Grimme, J. Chem. Theory Comput.,
     2021, 17, 4250-4261. DOI: 10.1021/acs.jctc.1c00471
   
   for DFT-D4:
   * E. Caldeweyher, C. Bannwarth and S. Grimme, J. Chem. Phys., 2017,
     147, 034112. DOI: 10.1063/1.4993215
   * E. Caldeweyher, S. Ehlert, A. Hansen, H. Neugebauer, S. Spicher,
     C. Bannwarth and S. Grimme, J. Chem. Phys., 2019, 150, 154122.
     DOI: 10.1063/1.5090222
   * E. Caldeweyher, J.-M. Mewes, S. Ehlert and S. Grimme, Phys. Chem. Chem. Phys.
     2020, 22, 8499-8512. DOI: 10.1039/D0CP00502A
   
   for sTDA-xTB:
   * S. Grimme and C. Bannwarth, J. Chem. Phys., 2016, 145, 054103.
     DOI: 10.1063/1.4959605
   
   in the mass-spec context:
   * V. Asgeirsson, C. Bauer and S. Grimme, Chem. Sci., 2017, 8, 4879.
     DOI: 10.1039/c7sc00601b
   * J. Koopman and S. Grimme, ACS Omega 2019, 4, 12, 15120-15133.
     DOI: 10.1021/acsomega.9b02011
   
   for metadynamics refer to:
   * S. Grimme, J. Chem. Theory Comput., 2019, 155, 2847-2862
     DOI: 10.1021/acs.jctc.9b00143
   
   for SPH calculations refer to:
   * S. Spicher and S. Grimme, J. Chem. Theory Comput., 2021, 17, 1701-1714
     DOI: 10.1021/acs.jctc.0c01306
   
   with help from (in alphabetical order)
   P. Atkinson, C. Bannwarth, F. Bohle, G. Brandenburg, E. Caldeweyher
   M. Checinski, S. Dohm, S. Ehlert, S. Ehrlich, I. Gerasimov, C. Hölzer
   A. Katbashev, J. Koopman, C. Lavigne, S. Lehtola, F. März, M. Müller,
   F. Musil, H. Neugebauer, J. Pisarek, C. Plett, P. Pracht, F. Pultar,
   J. Seibert, P. Shushkov, S. Spicher, M. Stahn, M. Steiner, T. Strunk,
   J. Stückrath, T. Rose, and J. Unsleber
   
 * started run on 2026/09/13 at 13:39:10.640     

           -------------------------------------------------
          |                Calculation Setup                |
           -------------------------------------------------

          program call               : xtb structure.xyz --gfn 1 --chrg -3 --uhf 1 --alpb water
          coordinate file            : structure.xyz
          omp threads                :                     8

   ID    Z sym.   atoms
    1    6 C      1, 2, 9, 10, 17, 18, 25, 26, 33, 34, 41-43, 45, 47, 65
    2   16 S      3, 11, 19, 27, 35, 60-63
    3    1 H      4-8, 12-16, 20-24, 28-32, 36-40, 48-55, 68
    4    7 N      44, 46
    5   26 Fe     56-59
    6   28 Ni     64
    7    8 O      66, 67

molecular fragmentation (1/2 indicates fragments):
11111111111111111111111111111111111111112222222222222221111111212222
# atoms in fragment 1/2:    48    20
 fragment masses (1/2) :      683.90      173.21
CMA distance (Bohr)    :   8.061
constraining FC (au)   :  0.0500

           -------------------------------------------------
          |                 G F N 1 - x T B                 |
           -------------------------------------------------

        Reference                      10.1021/acs.jctc.7b00118
      * Hamiltonian:
        H0-scaling (s, p, d)           1.850000    2.250000    2.000000
        zeta-weighting                 0.000000
      * Dispersion:
        s8                             2.400000
        a1                             0.630000
        a2                             5.000000
        s9                             0.000000
      * Repulsion:
        kExp                           1.500000
        rExp                           1.000000
      * Coulomb:
        alpha                          2.000000
        third order                    atomic
        anisotropic                    false
      * Halogen bond correction:
        rad-scale                      1.300000
        damping                        0.440000

      * Solvation model:               ALPB
        Solvent                        water
        Parameter file                 internal GFN1-xTB/ALPB
        Dielectric constant                8.0200E+01
        Reference state                gsolv [1 M gas/solution]
        Free energy shift                  4.2456E-03 Eh       2.6642E+00 kcal/mol
        Temperature                        2.9815E+02 K
        Density                            1.0000E+00 kg/L
        Solvent mass                       1.8000E+01 g/mol
        Interaction kernel             P16
        Born radius scaling (c1)           1.9452E+00
        Born radii integrator          GBOBC
        Born offset                        0.0000E+00 a0       0.0000E+00 AA
        H-bond correction              true
        Ion screening                  false
        Surface tension                    1.0000E-05 Eh       1.5569E+01 dyn/cm
        Grid points                               230 per atom

          ...................................................
          :                      SETUP                      :
          :.................................................:
          :  # basis functions                 288          :
          :  # atomic orbitals                 274          :
          :  # shells                          150          :
          :  # electrons                       219          :
          :  # halogen bonds                     0          :
          :  max. iterations                   250          :
          :  Hamiltonian                  GFN1-xTB          :
          :  restarted?                      false          :
          :  GBSA solvation                   true          :
          :  PC potential                    false          :
          :  electronic temp.          300.0000000     K    :
          :  accuracy                    1.0000000          :
          :  -> integral cutoff          0.2500000E+02      :
          :  -> integral neglect         0.1000000E-07      :
          :  -> SCF convergence          0.1000000E-05 Eh   :
          :  -> wf. convergence          0.2000000E-04 e    :
          :  Broyden damping             0.4000000          :
          ...................................................

 iter      E             dE          RMSdq      gap      omega  full diag
   1    -93.1877325 -0.931877E+02  0.146E+01    0.15       0.0  T
   2     15.3724050  0.108560E+03  0.257E+01    0.05       1.0  T
   3    -80.6760155 -0.960484E+02  0.124E+01    0.11       1.0  T
   4    -45.4967813  0.351792E+02  0.144E+01    0.03       1.0  T
   5    -87.7764842 -0.422797E+02  0.119E+01    0.00       1.0  T
   6    -97.9097710 -0.101333E+02  0.878E+00    0.28       1.0  T
   7    -84.1231328  0.137866E+02  0.107E+01    0.33       1.0  T
   8    -74.8066687  0.931646E+01  0.110E+01    0.25       1.0  T
   9    -63.0270165  0.117797E+02  0.124E+01    0.08       1.0  T
  10    -88.8298561 -0.258028E+02  0.981E+00    0.10       1.0  T
  11    -97.3866738 -0.855682E+01  0.842E+00    0.21       1.0  T
  12   -101.7115224 -0.432485E+01  0.751E+00    0.04       1.0  T
  13   -107.6144261 -0.590290E+01  0.669E+00    0.12       1.0  T
  14   -107.3901333  0.224293E+00  0.648E+00    0.16       1.0  T
  15   -105.7837890  0.160634E+01  0.711E+00    0.05       1.0  T
  16   -102.6634225  0.312037E+01  0.769E+00    0.11       1.0  T
  17   -103.4917586 -0.828336E+00  0.739E+00    0.16       1.0  T
  18   -103.9560030 -0.464244E+00  0.728E+00    0.15       1.0  T
  19   -110.4697260 -0.651372E+01  0.585E+00    0.03       1.0  T
  20    -87.6169968  0.228527E+02  0.104E+01    0.27       1.0  T
  21    -89.7231343 -0.210614E+01  0.101E+01    0.27       1.0  T
  22   -107.8050650 -0.180819E+02  0.681E+00    0.12       1.0  T
  23   -108.2481593 -0.443094E+00  0.658E+00    0.10       1.0  T
  24   -111.2123190 -0.296416E+01  0.579E+00    0.10       1.0  T
  25   -112.7687890 -0.155647E+01  0.534E+00    0.17       1.0  T
  26   -113.9423222 -0.117353E+01  0.476E+00    0.19       1.0  T
  27   -114.4910919 -0.548770E+00  0.445E+00    0.20       1.0  T
  28   -114.7483960 -0.257304E+00  0.433E+00    0.20       1.0  T
  29   -115.6245362 -0.876140E+00  0.395E+00    0.22       1.0  T
  30   -116.5802497 -0.955713E+00  0.342E+00    0.22       1.0  T
  31   -118.3191730 -0.173892E+01  0.214E+00    0.19       1.0  T
  32   -115.6603547  0.265882E+01  0.379E+00    0.18       1.0  T
  33   -118.0145570 -0.235420E+01  0.232E+00    0.21       1.0  T
  34   -118.4683076 -0.453751E+00  0.188E+00    0.21       1.0  T
  35   -118.8066443 -0.338337E+00  0.149E+00    0.21       1.0  T
  36   -119.1733886 -0.366744E+00  0.957E-01    0.18       1.0  T
  37   -119.1627429  0.106457E-01  0.951E-01    0.19       1.0  T
  38   -119.2917206 -0.128978E+00  0.606E-01    0.21       1.0  T
  39   -119.3349774 -0.432568E-01  0.438E-01    0.21       1.0  T
  40   -119.3651456 -0.301682E-01  0.261E-01    0.20       1.0  T
  41   -119.3806407 -0.154952E-01  0.100E-01    0.20       1.0  T
  42   -119.3831186 -0.247789E-02  0.369E-02    0.20       1.0  T
  43   -119.3832848 -0.166202E-03  0.105E-02    0.20       1.2  T
  44   -119.3832621  0.227217E-04  0.137E-02    0.20       1.0  T
  45   -119.3832826 -0.205299E-04  0.112E-02    0.20       1.1  T
  46   -119.3833077 -0.250963E-04  0.333E-03    0.20       3.6  T
  47   -119.3832890  0.187671E-04  0.901E-03    0.20       1.3  T
  48   -119.3833063 -0.173189E-04  0.436E-03    0.20       2.8  T
  49   -119.3833095 -0.322174E-05  0.200E-03    0.20       6.1  T
  50   -119.3833100 -0.483860E-06  0.833E-04    0.20      14.6  T
  51   -119.3833101 -0.171745E-06  0.205E-04    0.20      59.1  T
  52   -119.3833102 -0.509984E-08  0.119E-04    0.20     101.9  T
  53   -119.3833102 -0.270838E-08  0.378E-05    0.20     320.9  T

   *** convergence criteria satisfied after 53 iterations ***

         #    Occupation            Energy/Eh            Energy/eV
      -------------------------------------------------------------
         1        2.0000           -0.8267728             -22.4976
       ...           ...                  ...                  ...
       104        1.9999           -0.2840814              -7.7302
       105        1.9998           -0.2834087              -7.7119
       106        1.9974           -0.2807103              -7.6385
       107        1.9953           -0.2801555              -7.6234
       108        1.9326           -0.2775603              -7.5528
       109        1.5934           -0.2754465              -7.4953
       110        1.4533           -0.2749344              -7.4813 (HOMO)
       111        0.0283           -0.2676920              -7.2843 (LUMO)
       112        0.0000           -0.2613012              -7.1104
       113        0.0000           -0.2599982              -7.0749
       114                         -0.2507933              -6.8244
       115                         -0.2493020              -6.7839
       ...                                ...                  ...
       274                         13.9385565             379.2874
      -------------------------------------------------------------
                  HL-Gap            0.0072424 Eh            0.1971 eV
             Fermi-level           -0.2730584 Eh           -7.4303 eV

 SCC (total)                   0 d,  0 h,  0 min,  6.419 sec
 SCC setup                      ...        0 min,  0.003 sec (  0.053%)
 Dispersion                     ...        0 min,  0.001 sec (  0.018%)
 classical contributions        ...        0 min,  0.000 sec (  0.005%)
 integral evaluation            ...        0 min,  0.038 sec (  0.589%)
 iterations                     ...        0 min,  6.178 sec ( 96.247%)
 molecular gradient             ...        0 min,  0.086 sec (  1.334%)
 printout                       ...        0 min,  0.112 sec (  1.752%)

         :::::::::::::::::::::::::::::::::::::::::::::::::::::
         ::                     SUMMARY                     ::
         :::::::::::::::::::::::::::::::::::::::::::::::::::::
         :: total energy            -118.527317013886 Eh    ::
         :: total w/o Gsasa/hb      -118.520821726546 Eh    ::
         :: gradient norm              0.075824521473 Eh/a0 ::
         :: HOMO-LUMO gap              0.197076323698 eV    ::
         ::.................................................::
         :: SCC energy              -119.383310154400 Eh    ::
         :: -> electrostatic           0.736118394129 Eh    ::
         :: -> Gsolv                  -0.435843146387 Eh    ::
         ::    -> Gelec               -0.429347859047 Eh    ::
         ::    -> Gsasa               -0.005730559004 Eh    ::
         ::    -> Ghb                 -0.005010335007 Eh    ::
         ::    -> Gshift               0.004245606671 Eh    ::
         :: repulsion energy           0.921446793463 Eh    ::
         :: dispersion energy         -0.065453652949 Eh    ::
         :: halogen bond corr.         0.000000000000 Eh    ::
         :: add. restraining           0.000000000000 Eh    ::
         :: total charge              -3.000000000000 e     ::
         :::::::::::::::::::::::::::::::::::::::::::::::::::::

           -------------------------------------------------
          |                Property Printout                |
           -------------------------------------------------

    * Orbital Energies and Occupations

         #    Occupation            Energy/Eh            Energy/eV
      -------------------------------------------------------------
         1        2.0000           -0.8267728             -22.4976
       ...           ...                  ...                  ...
        98        2.0000           -0.2907308              -7.9112
        99        2.0000           -0.2902487              -7.8981
       100        2.0000           -0.2894283              -7.8757
       101        2.0000           -0.2879422              -7.8353
       102        2.0000           -0.2860822              -7.7847
       103        2.0000           -0.2857993              -7.7770
       104        1.9999           -0.2840814              -7.7302
       105        1.9998           -0.2834087              -7.7119
       106        1.9974           -0.2807103              -7.6385
       107        1.9953           -0.2801555              -7.6234
       108        1.9326           -0.2775603              -7.5528
       109        1.5934           -0.2754465              -7.4953
       110        1.4533           -0.2749344              -7.4813 (HOMO)
       111        0.0283           -0.2676920              -7.2843 (LUMO)
       112        0.0000           -0.2613012              -7.1104
       113        0.0000           -0.2599982              -7.0749
       114                         -0.2507933              -6.8244
       115                         -0.2493020              -6.7839
       116                         -0.2466973              -6.7130
       117                         -0.2341509              -6.3716
       118                         -0.2293901              -6.2420
       119                         -0.2248114              -6.1174
       120                         -0.2041894              -5.5563
       121                         -0.1678016              -4.5661
       ...                                ...                  ...
       274                         13.9385565             379.2874
      -------------------------------------------------------------
                  HL-Gap            0.0072424 Eh            0.1971 eV
             Fermi-level           -0.2730584 Eh           -7.4303 eV

  Mulliken/CM5 charges         n(s)   n(p)   n(d)
     1C    -0.06193 -0.21066   1.006  3.056  0.000
     2C     0.01803 -0.07589   1.030  2.952  0.000
     3S    -0.21175 -0.30647   1.898  4.322 -0.008
     4H     0.00281  0.05331   0.997  0.000  0.000
     5H     0.01432  0.06748   0.986  0.000  0.000
     6H     0.01437  0.06625   0.986  0.000  0.000
     7H    -0.01403  0.04091   1.014  0.000  0.000
     8H    -0.01160  0.04319   1.012  0.000  0.000
     9C    -0.07502 -0.22302   1.006  3.069  0.000
    10C     0.01927 -0.07480   1.027  2.953  0.000
    11S    -0.26080 -0.34464   1.900  4.372 -0.011
    12H     0.00556  0.05617   0.994  0.000  0.000
    13H     0.00475  0.05714   0.995  0.000  0.000
    14H     0.00544  0.05774   0.995  0.000  0.000
    15H    -0.01272  0.04181   1.013  0.000  0.000
    16H    -0.00499  0.04966   1.005  0.000  0.000
    17C    -0.06595 -0.21441   1.006  3.060  0.000
    18C     0.01815 -0.07591   1.029  2.953  0.000
    19S    -0.23734 -0.32673   1.899  4.347 -0.009
    20H     0.00365  0.05423   0.996  0.000  0.000
    21H     0.00772  0.05962   0.992  0.000  0.000
    22H     0.02121  0.07422   0.979  0.000  0.000
    23H    -0.01491  0.04016   1.015  0.000  0.000
    24H    -0.00683  0.04762   1.007  0.000  0.000
    25C    -0.07002 -0.21752   1.007  3.063  0.000
    26C     0.02363 -0.06996   1.027  2.949  0.000
    27S    -0.29167 -0.36762   1.901  4.401 -0.010
    28H     0.00025  0.05231   1.000  0.000  0.000
    29H    -0.00092  0.04957   1.001  0.000  0.000
    30H     0.00736  0.06274   0.993  0.000  0.000
    31H    -0.00804  0.04625   1.008  0.000  0.000
    32H    -0.02020  0.03485   1.020  0.000  0.000
    33C    -0.06980 -0.21766   1.005  3.065  0.000
    34C     0.02658 -0.06653   1.031  2.943  0.000
    35S    -0.28358 -0.35929   1.877  4.418 -0.011
    36H     0.00480  0.05689   0.995  0.000  0.000
    37H    -0.00322  0.04901   1.003  0.000  0.000
    38H     0.00079  0.05126   0.999  0.000  0.000
    39H    -0.00982  0.04737   1.010  0.000  0.000
    40H    -0.02332  0.03131   1.023  0.000  0.000
    41C    -0.07305 -0.22262   1.006  3.067  0.000
    42C    -0.04416 -0.14542   1.023  3.021  0.000
    43C     0.05768  0.11821   1.048  2.894  0.000
    44N    -0.28418 -0.64145   1.431  3.853  0.000
    45C     0.22868  0.32874   0.985  2.786  0.000
    46N    -0.39801 -0.58513   1.555  3.843  0.000
    47C     0.07149  0.10103   1.014  2.915  0.000
    48H     0.02416  0.07695   0.976  0.000  0.000
    49H     0.02646  0.07860   0.974  0.000  0.000
    50H     0.02768  0.07908   0.972  0.000  0.000
    51H     0.02530  0.08302   0.975  0.000  0.000
    52H     0.02781  0.08342   0.972  0.000  0.000
    53H     0.23900  0.43649   0.761  0.000  0.000
    54H    -0.00049  0.07464   1.000  0.000  0.000
    55H    -0.00447  0.06211   1.004  0.000  0.000
    56Fe   -0.02101  0.23476   0.162  0.952  6.907
    57Fe   -0.01167  0.23922   0.146  0.927  6.938
    58Fe   -0.01710  0.24698   0.142  0.941  6.933
    59Fe   -0.02421  0.24587   0.165  0.977  6.882
    60S     0.00570 -0.24482   1.862  4.149 -0.017
    61S    -0.10722 -0.33741   1.868  4.258 -0.019
    62S    -0.10088 -0.32377   1.868  4.252 -0.019
    63S     0.10319 -0.10014   1.864  4.033 -0.000
    64Ni   -0.14184  0.01955   0.579  0.647  8.916
    65C     0.60994  0.68542   0.979  2.412  0.000
    66O    -0.61909 -0.66891   1.742  4.877  0.000
    67O    -0.66733 -0.70499   1.749  4.918  0.000
    68H    -0.37262 -0.35942   1.373  0.000  0.000

Wiberg/Mayer (AO) data.
largest (>0.10) Wiberg bond orders for each atom

 ---------------------------------------------------------------------------
     #   Z sym  total        # sym  WBO       # sym  WBO       # sym  WBO
 ---------------------------------------------------------------------------
     1   6 C    3.993 --     2 C    1.019     4 H    0.983     6 H    0.983
                             5 H    0.977
     2   6 C    3.983 --     1 C    1.019     8 H    0.985     7 H    0.981
                             3 S    0.959
     3  16 S    2.217 --     2 C    0.959    57 Fe   0.840
     4   1 H    1.007 --     1 C    0.983
     5   1 H    1.029 --     1 C    0.977
     6   1 H    1.014 --     1 C    0.983
     7   1 H    1.024 --     2 C    0.981
     8   1 H    1.023 --     2 C    0.985
     9   6 C    3.992 --    10 C    1.019    13 H    0.988    14 H    0.988
                            12 H    0.985
    10   6 C    3.990 --     9 C    1.019    15 H    0.986    16 H    0.984
                            11 S    0.968
    11  16 S    2.091 --    10 C    0.968    56 Fe   0.757
    12   1 H    1.007 --     9 C    0.985
    13   1 H    1.022 --     9 C    0.988
    14   1 H    1.024 --     9 C    0.988
    15   1 H    1.020 --    10 C    0.986
    16   1 H    1.017 --    10 C    0.984
    17   6 C    3.993 --    18 C    1.018    21 H    0.988    20 H    0.985
                            22 H    0.976
    18   6 C    3.988 --    17 C    1.018    24 H    0.985    23 H    0.984
                            19 S    0.965
    19  16 S    2.171 --    18 C    0.965    58 Fe   0.832    64 Ni   0.112
    20   1 H    1.008 --    17 C    0.985
    21   1 H    1.016 --    17 C    0.988
    22   1 H    1.022 --    17 C    0.976
    23   1 H    1.024 --    18 C    0.984
    24   1 H    1.017 --    18 C    0.985
    25   6 C    3.988 --    26 C    1.018    28 H    0.988    29 H    0.985
                            30 H    0.969
    26   6 C    3.989 --    25 C    1.018    32 H    0.984    31 H    0.983
                            27 S    0.975
    27  16 S    2.037 --    26 C    0.975    59 Fe   0.774
    28   1 H    1.021 --    25 C    0.988
    29   1 H    1.008 --    25 C    0.985
    30   1 H    1.045 --    25 C    0.969
    31   1 H    1.016 --    26 C    0.983
    32   1 H    1.025 --    26 C    0.984
    33   6 C    3.994 --    34 C    1.019    37 H    0.988    36 H    0.988
                            38 H    0.985
    34   6 C    3.987 --    33 C    1.019    40 H    0.986    35 S    0.973
                            39 H    0.967
    35  16 S    2.016 --    34 C    0.973    64 Ni   0.837
    36   1 H    1.022 --    33 C    0.988
    37   1 H    1.025 --    33 C    0.988
    38   1 H    1.009 --    33 C    0.985
    39   1 H    1.053 --    34 C    0.967
    40   1 H    1.024 --    34 C    0.986
    41   6 C    3.997 --    42 C    1.000    48 H    0.989    50 H    0.988
                            49 H    0.985
    42   6 C    3.998 --    43 C    1.015    41 C    1.000    51 H    0.977
                            52 H    0.977
    43   6 C    3.916 --    47 C    1.571    44 N    1.149    42 C    1.015
                            45 C    0.108
    44   7 N    3.454 --    45 C    1.214    43 C    1.149    53 H    0.910
    45   6 C    3.920 --    46 N    1.559    44 N    1.214    54 H    0.953
                            43 C    0.108
    46   7 N    3.002 --    45 C    1.559    47 C    1.270
    47   6 C    3.965 --    43 C    1.571    46 N    1.270    55 H    0.975
    48   1 H    1.007 --    41 C    0.989
    49   1 H    1.012 --    41 C    0.985
    50   1 H    1.005 --    41 C    0.988
    51   1 H    1.006 --    42 C    0.977
    52   1 H    1.008 --    42 C    0.977
    53   1 H    0.946 --    44 N    0.910
    54   1 H    1.072 --    45 C    0.953
    55   1 H    1.043 --    47 C    0.975
    56  26 Fe   5.414 --    62 S    0.800    61 S    0.799    11 S    0.757
Note: The following floating-point exceptions are signalling: IEEE_UNDERFLOW_FLAG IEEE_DENORMAL
normal termination of xtb
                            59 Fe   0.728    58 Fe   0.724    57 Fe   0.601
                            63 S    0.540    64 Ni   0.175
    57  26 Fe   5.126 --    62 S    0.903     3 S    0.840    59 Fe   0.716
                            60 S    0.677    56 Fe   0.601    58 Fe   0.377
                            64 Ni   0.329    63 S    0.324
    58  26 Fe   5.268 --    61 S    0.882    19 S    0.832    56 Fe   0.724
                            59 Fe   0.633    60 S    0.633    63 S    0.518
                            57 Fe   0.377    64 Ni   0.369
    59  26 Fe   5.648 --    61 S    0.832    62 S    0.801    27 S    0.774
                            56 Fe   0.728    57 Fe   0.716    60 S    0.669
                            58 Fe   0.633    64 Ni   0.239
    60  16 S    2.770 --    57 Fe   0.677    59 Fe   0.669    58 Fe   0.633
                            64 Ni   0.605
    61  16 S    2.672 --    58 Fe   0.882    59 Fe   0.832    56 Fe   0.799
    62  16 S    2.676 --    57 Fe   0.903    59 Fe   0.801    56 Fe   0.800
    63  16 S    2.810 --    65 C    0.691    56 Fe   0.540    64 Ni   0.527
                            58 Fe   0.518    57 Fe   0.324
    64  28 Ni   3.403 --    35 S    0.837    60 S    0.605    63 S    0.527
                            58 Fe   0.369    57 Fe   0.329    59 Fe   0.239
                            56 Fe   0.175    19 S    0.112
    65   6 C    3.864 --    67 O    1.533    66 O    1.530    63 S    0.691
    66   8 O    1.892 --    65 C    1.530    67 O    0.178
    67   8 O    1.834 --    65 C    1.533    66 O    0.178
    68   1 H    0.111
 ---------------------------------------------------------------------------

Topologies differ in total number of bonds
Writing topology from bond orders to xtbtopo.mol

 dipole moment from electron density (au)
     X       Y       Z   
-302.7761 -69.1282-268.3455  total (Debye): 1043.236


           -------------------------------------------------
          | TOTAL ENERGY             -118.527317013886 Eh   |
          | GRADIENT NORM               0.075824521473 Eh/α |
          | HOMO-LUMO GAP               0.197076323698 eV   |
           -------------------------------------------------

------------------------------------------------------------------------
 * finished run on 2026/09/13 at 13:39:17.110     
------------------------------------------------------------------------
 total:
 * wall-time:     0 d,  0 h,  0 min,  6.470 sec
 *  cpu-time:     0 d,  0 h,  0 min,  7.614 sec
 * ratio c/w:     1.177 speedup
 SCF:
 * wall-time:     0 d,  0 h,  0 min,  6.420 sec
 *  cpu-time:     0 d,  0 h,  0 min,  7.297 sec
 * ratio c/w:     1.137 speedup

